*SPEF "ieee 1481-1999"
*DESIGN "async_fifo"
*DATE "16:36:02 Friday August 28, 2026"
*VENDOR "The OpenROAD Project"
*PROGRAM "OpenROAD"
*VERSION "edf00dff99f6c40d67a30c0e22a8191c5d2ed9d6"
*DESIGN_FLOW "NAME_SCOPE LOCAL" "PIN_CAP NONE"
*DIVIDER /
*DELIMITER :
*BUS_DELIMITER []
*T_UNIT 1 NS
*C_UNIT 1 PF
*R_UNIT 1 OHM
*L_UNIT 1 HENRY

*NAME_MAP
*3 aempty
*4 aempty_threshold[0]
*5 aempty_threshold[1]
*6 aempty_threshold[2]
*7 aempty_threshold[3]
*8 aempty_threshold[4]
*9 afull
*10 afull_threshold[0]
*11 afull_threshold[1]
*12 afull_threshold[2]
*13 afull_threshold[3]
*14 afull_threshold[4]
*15 arst_n
*16 empty
*17 full
*18 rd_clk
*19 rd_data[0]
*20 rd_data[1]
*21 rd_data[2]
*22 rd_data[3]
*23 rd_data[4]
*24 rd_data[5]
*25 rd_data[6]
*26 rd_data[7]
*27 rd_en
*28 wr_clk
*29 wr_data[0]
*30 wr_data[1]
*31 wr_data[2]
*32 wr_data[3]
*33 wr_data[4]
*34 wr_data[5]
*35 wr_data[6]
*36 wr_data[7]
*37 wr_en
*38 _000_
*39 _001_
*40 _002_
*41 _003_
*42 _004_
*43 _005_
*44 _006_
*45 _007_
*46 _008_
*47 _009_
*48 _010_
*49 _011_
*50 _012_
*51 _013_
*52 _014_
*53 _015_
*54 _016_
*55 _017_
*56 _018_
*57 _019_
*58 _020_
*59 _021_
*60 _022_
*61 _023_
*62 _024_
*63 _025_
*64 _026_
*65 _027_
*66 _028_
*67 _029_
*68 _030_
*69 _031_
*70 _032_
*71 _033_
*72 _034_
*73 _035_
*74 _036_
*75 _037_
*76 _038_
*77 _039_
*78 _040_
*79 _041_
*80 _042_
*81 _043_
*82 _044_
*83 _045_
*84 _046_
*85 _047_
*86 _048_
*87 _049_
*88 _050_
*89 _051_
*90 _052_
*91 _053_
*92 _054_
*93 _055_
*94 _056_
*95 _057_
*96 _058_
*97 _059_
*98 _060_
*99 _061_
*100 _062_
*101 _063_
*102 _064_
*103 _065_
*104 _066_
*105 _067_
*106 _068_
*107 _069_
*108 _070_
*109 _071_
*110 _072_
*111 _073_
*112 _074_
*113 _075_
*114 _076_
*115 _077_
*116 _078_
*117 _079_
*118 _080_
*119 _081_
*120 _082_
*121 _083_
*122 _084_
*123 _085_
*124 _086_
*125 _087_
*126 _088_
*127 _089_
*128 _090_
*129 _091_
*130 _092_
*131 _093_
*132 _094_
*133 _095_
*134 _096_
*135 _097_
*136 _098_
*137 _099_
*138 _100_
*139 _101_
*140 _102_
*141 _103_
*142 _104_
*143 _105_
*144 _106_
*145 _107_
*146 _108_
*147 _109_
*148 _110_
*149 _111_
*150 _112_
*151 _113_
*152 _114_
*153 _115_
*154 _116_
*155 _117_
*156 _118_
*157 _119_
*158 _120_
*159 _121_
*160 _122_
*161 _123_
*162 _124_
*163 _125_
*164 _126_
*165 _127_
*166 _128_
*167 _129_
*168 _130_
*169 _131_
*170 _132_
*171 _133_
*172 _134_
*173 _135_
*174 _136_
*175 _137_
*176 _138_
*177 _139_
*178 _140_
*179 _141_
*180 _142_
*181 _143_
*182 _144_
*183 _145_
*184 _146_
*185 _147_
*186 _148_
*187 _149_
*188 _150_
*189 _151_
*190 _152_
*191 _153_
*192 _154_
*193 _155_
*194 _156_
*195 _157_
*196 _158_
*197 _159_
*198 _160_
*199 _161_
*200 _162_
*201 _163_
*202 _164_
*203 _165_
*204 _166_
*205 _167_
*206 _168_
*207 _169_
*208 _170_
*209 _171_
*210 _172_
*211 _173_
*212 _174_
*213 _175_
*214 _176_
*215 _177_
*216 _178_
*217 _179_
*218 _180_
*219 _181_
*220 _182_
*221 _183_
*222 _184_
*223 _185_
*224 _186_
*225 _187_
*226 _188_
*227 _189_
*228 _190_
*229 _191_
*230 _192_
*231 _193_
*232 _194_
*233 _195_
*234 _196_
*235 _197_
*236 _198_
*237 _199_
*238 _200_
*239 _201_
*240 _202_
*241 _203_
*242 _204_
*243 _205_
*244 _206_
*245 _207_
*246 _208_
*247 _209_
*248 _210_
*249 _211_
*250 _212_
*251 _213_
*252 _214_
*253 _215_
*254 _216_
*255 _217_
*256 _218_
*257 _219_
*258 _220_
*259 _221_
*260 _222_
*261 _223_
*262 _224_
*263 _225_
*264 _226_
*265 _227_
*266 _228_
*267 _229_
*268 _230_
*269 _231_
*270 _232_
*271 _233_
*272 _234_
*273 _235_
*274 _236_
*275 _237_
*276 _238_
*277 _239_
*278 _240_
*279 _241_
*280 _242_
*281 _243_
*282 _244_
*283 _245_
*284 _246_
*285 _247_
*286 _248_
*287 _249_
*288 _250_
*289 _251_
*290 _252_
*291 _253_
*292 _254_
*293 _255_
*294 _256_
*295 _257_
*296 _258_
*297 _259_
*298 _260_
*299 _261_
*300 _262_
*301 _263_
*302 _264_
*303 _265_
*304 _266_
*305 _267_
*306 _268_
*307 _269_
*308 _270_
*309 _271_
*310 _272_
*311 _273_
*312 _274_
*313 _275_
*314 _276_
*315 _277_
*316 _278_
*317 _279_
*318 _280_
*319 _281_
*320 _282_
*321 _283_
*322 _284_
*323 _285_
*324 _286_
*325 _287_
*326 _288_
*327 _289_
*328 _290_
*329 _291_
*330 _292_
*331 _293_
*332 _294_
*333 _295_
*334 _296_
*335 _297_
*336 _298_
*337 _299_
*338 _300_
*339 _301_
*340 _302_
*341 _303_
*342 _304_
*343 aempty_next
*344 afull_next
*345 clknet_0_wr_clk
*346 clknet_4_0_0_wr_clk
*347 clknet_4_10_0_wr_clk
*348 clknet_4_11_0_wr_clk
*349 clknet_4_12_0_wr_clk
*350 clknet_4_13_0_wr_clk
*351 clknet_4_14_0_wr_clk
*352 clknet_4_15_0_wr_clk
*353 clknet_4_1_0_wr_clk
*354 clknet_4_2_0_wr_clk
*355 clknet_4_3_0_wr_clk
*356 clknet_4_4_0_wr_clk
*357 clknet_4_5_0_wr_clk
*358 clknet_4_6_0_wr_clk
*359 clknet_4_7_0_wr_clk
*360 clknet_4_8_0_wr_clk
*361 clknet_4_9_0_wr_clk
*362 empty_next
*363 full_compare\[0\]
*364 full_compare\[1\]
*365 full_compare\[2\]
*366 full_next
*367 mem\[0\]\[0\]
*368 mem\[0\]\[1\]
*369 mem\[0\]\[2\]
*370 mem\[0\]\[3\]
*371 mem\[0\]\[4\]
*372 mem\[0\]\[5\]
*373 mem\[0\]\[6\]
*374 mem\[0\]\[7\]
*375 mem\[10\]\[0\]
*376 mem\[10\]\[1\]
*377 mem\[10\]\[2\]
*378 mem\[10\]\[3\]
*379 mem\[10\]\[4\]
*380 mem\[10\]\[5\]
*381 mem\[10\]\[6\]
*382 mem\[10\]\[7\]
*383 mem\[11\]\[0\]
*384 mem\[11\]\[1\]
*385 mem\[11\]\[2\]
*386 mem\[11\]\[3\]
*387 mem\[11\]\[4\]
*388 mem\[11\]\[5\]
*389 mem\[11\]\[6\]
*390 mem\[11\]\[7\]
*391 mem\[12\]\[0\]
*392 mem\[12\]\[1\]
*393 mem\[12\]\[2\]
*394 mem\[12\]\[3\]
*395 mem\[12\]\[4\]
*396 mem\[12\]\[5\]
*397 mem\[12\]\[6\]
*398 mem\[12\]\[7\]
*399 mem\[13\]\[0\]
*400 mem\[13\]\[1\]
*401 mem\[13\]\[2\]
*402 mem\[13\]\[3\]
*403 mem\[13\]\[4\]
*404 mem\[13\]\[5\]
*405 mem\[13\]\[6\]
*406 mem\[13\]\[7\]
*407 mem\[14\]\[0\]
*408 mem\[14\]\[1\]
*409 mem\[14\]\[2\]
*410 mem\[14\]\[3\]
*411 mem\[14\]\[4\]
*412 mem\[14\]\[5\]
*413 mem\[14\]\[6\]
*414 mem\[14\]\[7\]
*415 mem\[15\]\[0\]
*416 mem\[15\]\[1\]
*417 mem\[15\]\[2\]
*418 mem\[15\]\[3\]
*419 mem\[15\]\[4\]
*420 mem\[15\]\[5\]
*421 mem\[15\]\[6\]
*422 mem\[15\]\[7\]
*423 mem\[1\]\[0\]
*424 mem\[1\]\[1\]
*425 mem\[1\]\[2\]
*426 mem\[1\]\[3\]
*427 mem\[1\]\[4\]
*428 mem\[1\]\[5\]
*429 mem\[1\]\[6\]
*430 mem\[1\]\[7\]
*431 mem\[2\]\[0\]
*432 mem\[2\]\[1\]
*433 mem\[2\]\[2\]
*434 mem\[2\]\[3\]
*435 mem\[2\]\[4\]
*436 mem\[2\]\[5\]
*437 mem\[2\]\[6\]
*438 mem\[2\]\[7\]
*439 mem\[3\]\[0\]
*440 mem\[3\]\[1\]
*441 mem\[3\]\[2\]
*442 mem\[3\]\[3\]
*443 mem\[3\]\[4\]
*444 mem\[3\]\[5\]
*445 mem\[3\]\[6\]
*446 mem\[3\]\[7\]
*447 mem\[4\]\[0\]
*448 mem\[4\]\[1\]
*449 mem\[4\]\[2\]
*450 mem\[4\]\[3\]
*451 mem\[4\]\[4\]
*452 mem\[4\]\[5\]
*453 mem\[4\]\[6\]
*454 mem\[4\]\[7\]
*455 mem\[5\]\[0\]
*456 mem\[5\]\[1\]
*457 mem\[5\]\[2\]
*458 mem\[5\]\[3\]
*459 mem\[5\]\[4\]
*460 mem\[5\]\[5\]
*461 mem\[5\]\[6\]
*462 mem\[5\]\[7\]
*463 mem\[6\]\[0\]
*464 mem\[6\]\[1\]
*465 mem\[6\]\[2\]
*466 mem\[6\]\[3\]
*467 mem\[6\]\[4\]
*468 mem\[6\]\[5\]
*469 mem\[6\]\[6\]
*470 mem\[6\]\[7\]
*471 mem\[7\]\[0\]
*472 mem\[7\]\[1\]
*473 mem\[7\]\[2\]
*474 mem\[7\]\[3\]
*475 mem\[7\]\[4\]
*476 mem\[7\]\[5\]
*477 mem\[7\]\[6\]
*478 mem\[7\]\[7\]
*479 mem\[8\]\[0\]
*480 mem\[8\]\[1\]
*481 mem\[8\]\[2\]
*482 mem\[8\]\[3\]
*483 mem\[8\]\[4\]
*484 mem\[8\]\[5\]
*485 mem\[8\]\[6\]
*486 mem\[8\]\[7\]
*487 mem\[9\]\[0\]
*488 mem\[9\]\[1\]
*489 mem\[9\]\[2\]
*490 mem\[9\]\[3\]
*491 mem\[9\]\[4\]
*492 mem\[9\]\[5\]
*493 mem\[9\]\[6\]
*494 mem\[9\]\[7\]
*495 net1
*496 net10
*497 net100
*498 net101
*499 net102
*500 net103
*501 net104
*502 net105
*503 net106
*504 net107
*505 net108
*506 net109
*507 net11
*508 net110
*509 net111
*510 net112
*511 net113
*512 net114
*513 net115
*514 net116
*515 net117
*516 net118
*517 net119
*518 net12
*519 net120
*520 net121
*521 net122
*522 net123
*523 net124
*524 net125
*525 net126
*526 net127
*527 net128
*528 net129
*529 net13
*530 net130
*531 net131
*532 net132
*533 net133
*534 net134
*535 net135
*536 net136
*537 net137
*538 net138
*539 net139
*540 net14
*541 net140
*542 net141
*543 net142
*544 net143
*545 net144
*546 net145
*547 net146
*548 net147
*549 net148
*550 net149
*551 net15
*552 net150
*553 net151
*554 net152
*555 net153
*556 net154
*557 net155
*558 net156
*559 net157
*560 net158
*561 net159
*562 net16
*563 net160
*564 net161
*565 net162
*566 net163
*567 net164
*568 net165
*569 net166
*570 net167
*571 net168
*572 net169
*573 net17
*574 net170
*575 net171
*576 net172
*577 net173
*578 net174
*579 net175
*580 net176
*581 net177
*582 net178
*583 net179
*584 net18
*585 net180
*586 net181
*587 net182
*588 net183
*589 net184
*590 net185
*591 net186
*592 net187
*593 net188
*594 net189
*595 net19
*596 net190
*597 net191
*598 net192
*599 net193
*600 net194
*601 net195
*602 net196
*603 net197
*604 net198
*605 net199
*606 net2
*607 net20
*608 net200
*609 net201
*610 net202
*611 net203
*612 net204
*613 net205
*614 net206
*615 net207
*616 net208
*617 net209
*618 net21
*619 net22
*620 net23
*621 net24
*622 net25
*623 net26
*624 net27
*625 net28
*626 net29
*627 net3
*628 net30
*629 net31
*630 net32
*631 net33
*632 net34
*633 net35
*634 net36
*635 net37
*636 net38
*637 net39
*638 net4
*639 net40
*640 net41
*641 net42
*642 net43
*643 net44
*644 net45
*645 net46
*646 net47
*647 net48
*648 net49
*649 net5
*650 net50
*651 net51
*652 net52
*653 net53
*654 net54
*655 net55
*656 net56
*657 net57
*658 net58
*659 net59
*660 net6
*661 net60
*662 net61
*663 net62
*664 net63
*665 net64
*666 net65
*667 net66
*668 net67
*669 net68
*670 net69
*671 net7
*672 net70
*673 net71
*674 net72
*675 net73
*676 net74
*677 net75
*678 net76
*679 net77
*680 net78
*681 net79
*682 net8
*683 net80
*684 net81
*685 net82
*686 net83
*687 net84
*688 net85
*689 net86
*690 net87
*691 net88
*692 net89
*693 net9
*694 net90
*695 net91
*696 net92
*697 net93
*698 net94
*699 net95
*700 net96
*701 net97
*702 net98
*703 net99
*704 rd_bin\[0\]
*705 rd_bin\[1\]
*706 rd_bin\[2\]
*707 rd_bin\[3\]
*708 rd_bin\[4\]
*709 rd_bin_next\[0\]
*710 rd_bin_next\[1\]
*711 rd_bin_next\[2\]
*712 rd_bin_next\[3\]
*713 rd_bin_next\[4\]
*714 rd_bin_sync\[4\]
*715 rd_gray\[0\]
*716 rd_gray\[1\]
*717 rd_gray\[2\]
*718 rd_gray\[3\]
*719 rd_gray_next\[0\]
*720 rd_gray_next\[1\]
*721 rd_gray_next\[2\]
*722 rd_gray_next\[3\]
*723 rd_gray_sync1\[0\]
*724 rd_gray_sync1\[1\]
*725 rd_gray_sync1\[2\]
*726 rd_gray_sync1\[3\]
*727 rd_gray_sync1\[4\]
*728 rd_gray_sync2\[3\]
*729 wr_bin\[0\]
*730 wr_bin\[1\]
*731 wr_bin\[2\]
*732 wr_bin\[3\]
*733 wr_bin\[4\]
*734 wr_bin_next\[0\]
*735 wr_bin_next\[1\]
*736 wr_bin_next\[2\]
*737 wr_bin_next\[3\]
*738 wr_bin_next\[4\]
*739 wr_bin_sync\[4\]
*740 wr_gray\[0\]
*741 wr_gray\[1\]
*742 wr_gray\[2\]
*743 wr_gray\[3\]
*744 wr_gray_next\[0\]
*745 wr_gray_next\[1\]
*746 wr_gray_next\[2\]
*747 wr_gray_next\[3\]
*748 wr_gray_sync1\[0\]
*749 wr_gray_sync1\[1\]
*750 wr_gray_sync1\[2\]
*751 wr_gray_sync1\[3\]
*752 wr_gray_sync1\[4\]
*753 wr_gray_sync2\[0\]
*754 wr_gray_sync2\[1\]
*755 wr_gray_sync2\[2\]
*756 wr_gray_sync2\[3\]
*757 FILLER_0_109
*758 FILLER_0_113
*759 FILLER_0_121
*760 FILLER_0_126
*761 FILLER_0_138
*762 FILLER_0_141
*763 FILLER_0_15
*764 FILLER_0_153
*765 FILLER_0_161
*766 FILLER_0_169
*767 FILLER_0_174
*768 FILLER_0_186
*769 FILLER_0_194
*770 FILLER_0_197
*771 FILLER_0_209
*772 FILLER_0_221
*773 FILLER_0_225
*774 FILLER_0_23
*775 FILLER_0_237
*776 FILLER_0_249
*777 FILLER_0_253
*778 FILLER_0_265
*779 FILLER_0_27
*780 FILLER_0_277
*781 FILLER_0_281
*782 FILLER_0_29
*783 FILLER_0_293
*784 FILLER_0_3
*785 FILLER_0_301
*786 FILLER_0_41
*787 FILLER_0_53
*788 FILLER_0_57
*789 FILLER_0_65
*790 FILLER_0_69
*791 FILLER_0_81
*792 FILLER_0_85
*793 FILLER_0_97
*794 FILLER_10_116
*795 FILLER_10_128
*796 FILLER_10_161
*797 FILLER_10_169
*798 FILLER_10_179
*799 FILLER_10_191
*800 FILLER_10_195
*801 FILLER_10_205
*802 FILLER_10_217
*803 FILLER_10_229
*804 FILLER_10_24
*805 FILLER_10_241
*806 FILLER_10_249
*807 FILLER_10_253
*808 FILLER_10_265
*809 FILLER_10_282
*810 FILLER_10_294
*811 FILLER_10_298
*812 FILLER_10_3
*813 FILLER_10_45
*814 FILLER_10_56
*815 FILLER_10_64
*816 FILLER_10_75
*817 FILLER_10_83
*818 FILLER_10_85
*819 FILLER_10_93
*820 FILLER_11_106
*821 FILLER_11_149
*822 FILLER_11_193
*823 FILLER_11_205
*824 FILLER_11_217
*825 FILLER_11_22
*826 FILLER_11_223
*827 FILLER_11_225
*828 FILLER_11_237
*829 FILLER_11_249
*830 FILLER_11_273
*831 FILLER_11_288
*832 FILLER_11_296
*833 FILLER_11_3
*834 FILLER_11_57
*835 FILLER_11_61
*836 FILLER_11_71
*837 FILLER_12_137
*838 FILLER_12_141
*839 FILLER_12_145
*840 FILLER_12_155
*841 FILLER_12_170
*842 FILLER_12_191
*843 FILLER_12_195
*844 FILLER_12_218
*845 FILLER_12_230
*846 FILLER_12_242
*847 FILLER_12_25
*848 FILLER_12_250
*849 FILLER_12_266
*850 FILLER_12_293
*851 FILLER_12_3
*852 FILLER_12_45
*853 FILLER_12_51
*854 FILLER_12_93
*855 FILLER_13_113
*856 FILLER_13_15
*857 FILLER_13_162
*858 FILLER_13_190
*859 FILLER_13_203
*860 FILLER_13_245
*861 FILLER_13_256
*862 FILLER_13_26
*863 FILLER_13_268
*864 FILLER_13_285
*865 FILLER_13_297
*866 FILLER_13_3
*867 FILLER_13_30
*868 FILLER_13_95
*869 FILLER_14_115
*870 FILLER_14_121
*871 FILLER_14_138
*872 FILLER_14_141
*873 FILLER_14_15
*874 FILLER_14_222
*875 FILLER_14_226
*876 FILLER_14_247
*877 FILLER_14_251
*878 FILLER_14_253
*879 FILLER_14_265
*880 FILLER_14_27
*881 FILLER_14_271
*882 FILLER_14_275
*883 FILLER_14_298
*884 FILLER_14_3
*885 FILLER_14_37
*886 FILLER_14_48
*887 FILLER_14_79
*888 FILLER_14_83
*889 FILLER_14_85
*890 FILLER_14_93
*891 FILLER_15_103
*892 FILLER_15_124
*893 FILLER_15_136
*894 FILLER_15_148
*895 FILLER_15_15
*896 FILLER_15_169
*897 FILLER_15_175
*898 FILLER_15_219
*899 FILLER_15_223
*900 FILLER_15_225
*901 FILLER_15_240
*902 FILLER_15_252
*903 FILLER_15_258
*904 FILLER_15_267
*905 FILLER_15_279
*906 FILLER_15_288
*907 FILLER_15_3
*908 FILLER_15_34
*909 FILLER_15_38
*910 FILLER_15_53
*911 FILLER_15_57
*912 FILLER_15_61
*913 FILLER_15_79
*914 FILLER_15_91
*915 FILLER_16_103
*916 FILLER_16_111
*917 FILLER_16_125
*918 FILLER_16_137
*919 FILLER_16_141
*920 FILLER_16_153
*921 FILLER_16_184
*922 FILLER_16_21
*923 FILLER_16_213
*924 FILLER_16_221
*925 FILLER_16_244
*926 FILLER_16_253
*927 FILLER_16_265
*928 FILLER_16_27
*929 FILLER_16_3
*930 FILLER_16_300
*931 FILLER_16_56
*932 FILLER_16_64
*933 FILLER_16_73
*934 FILLER_16_81
*935 FILLER_16_85
*936 FILLER_16_97
*937 FILLER_17_138
*938 FILLER_17_150
*939 FILLER_17_162
*940 FILLER_17_169
*941 FILLER_17_182
*942 FILLER_17_21
*943 FILLER_17_217
*944 FILLER_17_223
*945 FILLER_17_225
*946 FILLER_17_246
*947 FILLER_17_250
*948 FILLER_17_264
*949 FILLER_17_272
*950 FILLER_17_3
*951 FILLER_17_54
*952 FILLER_18_137
*953 FILLER_18_141
*954 FILLER_18_153
*955 FILLER_18_165
*956 FILLER_18_177
*957 FILLER_18_189
*958 FILLER_18_195
*959 FILLER_18_205
*960 FILLER_18_21
*961 FILLER_18_213
*962 FILLER_18_234
*963 FILLER_18_246
*964 FILLER_18_253
*965 FILLER_18_265
*966 FILLER_18_27
*967 FILLER_18_271
*968 FILLER_18_3
*969 FILLER_18_94
*970 FILLER_19_101
*971 FILLER_19_113
*972 FILLER_19_148
*973 FILLER_19_160
*974 FILLER_19_169
*975 FILLER_19_181
*976 FILLER_19_193
*977 FILLER_19_205
*978 FILLER_19_217
*979 FILLER_19_223
*980 FILLER_19_252
*981 FILLER_19_271
*982 FILLER_19_279
*983 FILLER_19_281
*984 FILLER_19_293
*985 FILLER_19_3
*986 FILLER_19_35
*987 FILLER_19_46
*988 FILLER_19_57
*989 FILLER_19_9
*990 FILLER_19_93
*991 FILLER_1_105
*992 FILLER_1_111
*993 FILLER_1_113
*994 FILLER_1_140
*995 FILLER_1_15
*996 FILLER_1_152
*997 FILLER_1_164
*998 FILLER_1_178
*999 FILLER_1_191
*1000 FILLER_1_203
*1001 FILLER_1_215
*1002 FILLER_1_223
*1003 FILLER_1_225
*1004 FILLER_1_237
*1005 FILLER_1_249
*1006 FILLER_1_261
*1007 FILLER_1_27
*1008 FILLER_1_273
*1009 FILLER_1_279
*1010 FILLER_1_281
*1011 FILLER_1_293
*1012 FILLER_1_3
*1013 FILLER_1_301
*1014 FILLER_1_39
*1015 FILLER_1_57
*1016 FILLER_1_69
*1017 FILLER_1_81
*1018 FILLER_1_93
*1019 FILLER_20_105
*1020 FILLER_20_109
*1021 FILLER_20_118
*1022 FILLER_20_138
*1023 FILLER_20_149
*1024 FILLER_20_167
*1025 FILLER_20_178
*1026 FILLER_20_190
*1027 FILLER_20_213
*1028 FILLER_20_22
*1029 FILLER_20_225
*1030 FILLER_20_239
*1031 FILLER_20_251
*1032 FILLER_20_253
*1033 FILLER_20_265
*1034 FILLER_20_277
*1035 FILLER_20_288
*1036 FILLER_20_29
*1037 FILLER_20_296
*1038 FILLER_20_42
*1039 FILLER_20_48
*1040 FILLER_20_65
*1041 FILLER_20_7
*1042 FILLER_20_82
*1043 FILLER_20_85
*1044 FILLER_20_93
*1045 FILLER_21_113
*1046 FILLER_21_121
*1047 FILLER_21_166
*1048 FILLER_21_178
*1049 FILLER_21_21
*1050 FILLER_21_222
*1051 FILLER_21_225
*1052 FILLER_21_237
*1053 FILLER_21_249
*1054 FILLER_21_261
*1055 FILLER_21_270
*1056 FILLER_21_279
*1057 FILLER_21_294
*1058 FILLER_21_298
*1059 FILLER_21_3
*1060 FILLER_21_51
*1061 FILLER_21_55
*1062 FILLER_21_57
*1063 FILLER_21_66
*1064 FILLER_21_82
*1065 FILLER_21_90
*1066 FILLER_22_109
*1067 FILLER_22_121
*1068 FILLER_22_129
*1069 FILLER_22_21
*1070 FILLER_22_217
*1071 FILLER_22_244
*1072 FILLER_22_253
*1073 FILLER_22_268
*1074 FILLER_22_27
*1075 FILLER_22_293
*1076 FILLER_22_301
*1077 FILLER_22_50
*1078 FILLER_22_6
*1079 FILLER_22_67
*1080 FILLER_22_79
*1081 FILLER_22_83
*1082 FILLER_22_85
*1083 FILLER_22_97
*1084 FILLER_23_108
*1085 FILLER_23_121
*1086 FILLER_23_133
*1087 FILLER_23_153
*1088 FILLER_23_165
*1089 FILLER_23_216
*1090 FILLER_23_220
*1091 FILLER_23_243
*1092 FILLER_23_25
*1093 FILLER_23_251
*1094 FILLER_23_260
*1095 FILLER_23_272
*1096 FILLER_23_281
*1097 FILLER_23_293
*1098 FILLER_23_3
*1099 FILLER_23_301
*1100 FILLER_23_51
*1101 FILLER_23_55
*1102 FILLER_23_84
*1103 FILLER_23_96
*1104 FILLER_24_109
*1105 FILLER_24_119
*1106 FILLER_24_129
*1107 FILLER_24_137
*1108 FILLER_24_141
*1109 FILLER_24_15
*1110 FILLER_24_179
*1111 FILLER_24_187
*1112 FILLER_24_214
*1113 FILLER_24_226
*1114 FILLER_24_253
*1115 FILLER_24_258
*1116 FILLER_24_27
*1117 FILLER_24_270
*1118 FILLER_24_282
*1119 FILLER_24_29
*1120 FILLER_24_296
*1121 FILLER_24_3
*1122 FILLER_24_45
*1123 FILLER_24_83
*1124 FILLER_24_85
*1125 FILLER_24_94
*1126 FILLER_25_110
*1127 FILLER_25_137
*1128 FILLER_25_15
*1129 FILLER_25_169
*1130 FILLER_25_181
*1131 FILLER_25_193
*1132 FILLER_25_221
*1133 FILLER_25_225
*1134 FILLER_25_233
*1135 FILLER_25_247
*1136 FILLER_25_255
*1137 FILLER_25_27
*1138 FILLER_25_270
*1139 FILLER_25_278
*1140 FILLER_25_281
*1141 FILLER_25_3
*1142 FILLER_25_39
*1143 FILLER_25_47
*1144 FILLER_25_57
*1145 FILLER_26_134
*1146 FILLER_26_141
*1147 FILLER_26_156
*1148 FILLER_26_168
*1149 FILLER_26_180
*1150 FILLER_26_186
*1151 FILLER_26_197
*1152 FILLER_26_20
*1153 FILLER_26_203
*1154 FILLER_26_224
*1155 FILLER_26_232
*1156 FILLER_26_242
*1157 FILLER_26_250
*1158 FILLER_26_279
*1159 FILLER_26_3
*1160 FILLER_26_301
*1161 FILLER_26_45
*1162 FILLER_26_53
*1163 FILLER_26_79
*1164 FILLER_26_83
*1165 FILLER_26_85
*1166 FILLER_27_129
*1167 FILLER_27_165
*1168 FILLER_27_169
*1169 FILLER_27_181
*1170 FILLER_27_198
*1171 FILLER_27_210
*1172 FILLER_27_222
*1173 FILLER_27_225
*1174 FILLER_27_229
*1175 FILLER_27_250
*1176 FILLER_27_262
*1177 FILLER_27_279
*1178 FILLER_27_29
*1179 FILLER_27_3
*1180 FILLER_27_55
*1181 FILLER_27_57
*1182 FILLER_27_69
*1183 FILLER_27_87
*1184 FILLER_28_109
*1185 FILLER_28_123
*1186 FILLER_28_141
*1187 FILLER_28_145
*1188 FILLER_28_191
*1189 FILLER_28_195
*1190 FILLER_28_206
*1191 FILLER_28_25
*1192 FILLER_28_253
*1193 FILLER_28_264
*1194 FILLER_28_272
*1195 FILLER_28_281
*1196 FILLER_28_293
*1197 FILLER_28_3
*1198 FILLER_28_300
*1199 FILLER_28_58
*1200 FILLER_28_66
*1201 FILLER_28_77
*1202 FILLER_28_83
*1203 FILLER_28_85
*1204 FILLER_28_97
*1205 FILLER_29_102
*1206 FILLER_29_11
*1207 FILLER_29_110
*1208 FILLER_29_113
*1209 FILLER_29_125
*1210 FILLER_29_165
*1211 FILLER_29_169
*1212 FILLER_29_177
*1213 FILLER_29_225
*1214 FILLER_29_237
*1215 FILLER_29_249
*1216 FILLER_29_261
*1217 FILLER_29_273
*1218 FILLER_29_279
*1219 FILLER_29_281
*1220 FILLER_29_29
*1221 FILLER_29_293
*1222 FILLER_29_3
*1223 FILLER_29_49
*1224 FILLER_29_55
*1225 FILLER_29_57
*1226 FILLER_29_78
*1227 FILLER_29_90
*1228 FILLER_2_103
*1229 FILLER_2_120
*1230 FILLER_2_138
*1231 FILLER_2_149
*1232 FILLER_2_15
*1233 FILLER_2_161
*1234 FILLER_2_165
*1235 FILLER_2_191
*1236 FILLER_2_195
*1237 FILLER_2_197
*1238 FILLER_2_209
*1239 FILLER_2_221
*1240 FILLER_2_233
*1241 FILLER_2_245
*1242 FILLER_2_251
*1243 FILLER_2_253
*1244 FILLER_2_265
*1245 FILLER_2_27
*1246 FILLER_2_277
*1247 FILLER_2_289
*1248 FILLER_2_29
*1249 FILLER_2_3
*1250 FILLER_2_301
*1251 FILLER_2_65
*1252 FILLER_2_77
*1253 FILLER_2_83
*1254 FILLER_2_85
*1255 FILLER_2_97
*1256 FILLER_30_10
*1257 FILLER_30_110
*1258 FILLER_30_122
*1259 FILLER_30_134
*1260 FILLER_30_150
*1261 FILLER_30_154
*1262 FILLER_30_163
*1263 FILLER_30_190
*1264 FILLER_30_205
*1265 FILLER_30_22
*1266 FILLER_30_229
*1267 FILLER_30_253
*1268 FILLER_30_265
*1269 FILLER_30_29
*1270 FILLER_30_291
*1271 FILLER_30_299
*1272 FILLER_30_35
*1273 FILLER_30_45
*1274 FILLER_30_57
*1275 FILLER_30_85
*1276 FILLER_31_122
*1277 FILLER_31_134
*1278 FILLER_31_146
*1279 FILLER_31_155
*1280 FILLER_31_167
*1281 FILLER_31_169
*1282 FILLER_31_196
*1283 FILLER_31_219
*1284 FILLER_31_223
*1285 FILLER_31_225
*1286 FILLER_31_237
*1287 FILLER_31_261
*1288 FILLER_31_273
*1289 FILLER_31_279
*1290 FILLER_31_3
*1291 FILLER_31_30
*1292 FILLER_31_57
*1293 FILLER_32_101
*1294 FILLER_32_122
*1295 FILLER_32_134
*1296 FILLER_32_141
*1297 FILLER_32_153
*1298 FILLER_32_165
*1299 FILLER_32_194
*1300 FILLER_32_205
*1301 FILLER_32_217
*1302 FILLER_32_227
*1303 FILLER_32_239
*1304 FILLER_32_25
*1305 FILLER_32_251
*1306 FILLER_32_253
*1307 FILLER_32_265
*1308 FILLER_32_3
*1309 FILLER_32_300
*1310 FILLER_32_74
*1311 FILLER_32_85
*1312 FILLER_32_91
*1313 FILLER_33_104
*1314 FILLER_33_129
*1315 FILLER_33_15
*1316 FILLER_33_155
*1317 FILLER_33_167
*1318 FILLER_33_169
*1319 FILLER_33_181
*1320 FILLER_33_187
*1321 FILLER_33_197
*1322 FILLER_33_209
*1323 FILLER_33_221
*1324 FILLER_33_225
*1325 FILLER_33_237
*1326 FILLER_33_25
*1327 FILLER_33_259
*1328 FILLER_33_271
*1329 FILLER_33_278
*1330 FILLER_33_281
*1331 FILLER_33_29
*1332 FILLER_33_293
*1333 FILLER_33_3
*1334 FILLER_33_301
*1335 FILLER_33_55
*1336 FILLER_33_68
*1337 FILLER_33_85
*1338 FILLER_33_93
*1339 FILLER_34_101
*1340 FILLER_34_126
*1341 FILLER_34_130
*1342 FILLER_34_141
*1343 FILLER_34_15
*1344 FILLER_34_175
*1345 FILLER_34_188
*1346 FILLER_34_19
*1347 FILLER_34_217
*1348 FILLER_34_241
*1349 FILLER_34_253
*1350 FILLER_34_3
*1351 FILLER_34_301
*1352 FILLER_34_37
*1353 FILLER_34_43
*1354 FILLER_34_66
*1355 FILLER_34_72
*1356 FILLER_34_82
*1357 FILLER_34_85
*1358 FILLER_34_97
*1359 FILLER_35_11
*1360 FILLER_35_124
*1361 FILLER_35_165
*1362 FILLER_35_178
*1363 FILLER_35_197
*1364 FILLER_35_223
*1365 FILLER_35_225
*1366 FILLER_35_235
*1367 FILLER_35_270
*1368 FILLER_35_278
*1369 FILLER_35_281
*1370 FILLER_35_295
*1371 FILLER_35_3
*1372 FILLER_35_301
*1373 FILLER_35_47
*1374 FILLER_35_55
*1375 FILLER_35_57
*1376 FILLER_35_91
*1377 FILLER_36_141
*1378 FILLER_36_145
*1379 FILLER_36_180
*1380 FILLER_36_184
*1381 FILLER_36_206
*1382 FILLER_36_21
*1383 FILLER_36_210
*1384 FILLER_36_231
*1385 FILLER_36_243
*1386 FILLER_36_253
*1387 FILLER_36_27
*1388 FILLER_36_277
*1389 FILLER_36_289
*1390 FILLER_36_3
*1391 FILLER_36_301
*1392 FILLER_36_45
*1393 FILLER_36_49
*1394 FILLER_36_66
*1395 FILLER_36_94
*1396 FILLER_37_129
*1397 FILLER_37_141
*1398 FILLER_37_153
*1399 FILLER_37_159
*1400 FILLER_37_169
*1401 FILLER_37_208
*1402 FILLER_37_21
*1403 FILLER_37_220
*1404 FILLER_37_225
*1405 FILLER_37_237
*1406 FILLER_37_249
*1407 FILLER_37_25
*1408 FILLER_37_271
*1409 FILLER_37_279
*1410 FILLER_37_3
*1411 FILLER_37_301
*1412 FILLER_37_51
*1413 FILLER_37_55
*1414 FILLER_37_57
*1415 FILLER_38_11
*1416 FILLER_38_136
*1417 FILLER_38_141
*1418 FILLER_38_153
*1419 FILLER_38_165
*1420 FILLER_38_169
*1421 FILLER_38_195
*1422 FILLER_38_21
*1423 FILLER_38_211
*1424 FILLER_38_223
*1425 FILLER_38_231
*1426 FILLER_38_239
*1427 FILLER_38_247
*1428 FILLER_38_251
*1429 FILLER_38_253
*1430 FILLER_38_262
*1431 FILLER_38_27
*1432 FILLER_38_274
*1433 FILLER_38_280
*1434 FILLER_38_3
*1435 FILLER_38_301
*1436 FILLER_38_50
*1437 FILLER_38_80
*1438 FILLER_38_93
*1439 FILLER_39_101
*1440 FILLER_39_111
*1441 FILLER_39_113
*1442 FILLER_39_122
*1443 FILLER_39_134
*1444 FILLER_39_146
*1445 FILLER_39_15
*1446 FILLER_39_158
*1447 FILLER_39_166
*1448 FILLER_39_169
*1449 FILLER_39_181
*1450 FILLER_39_208
*1451 FILLER_39_216
*1452 FILLER_39_27
*1453 FILLER_39_278
*1454 FILLER_39_3
*1455 FILLER_39_35
*1456 FILLER_39_45
*1457 FILLER_39_53
*1458 FILLER_39_57
*1459 FILLER_39_69
*1460 FILLER_39_93
*1461 FILLER_3_138
*1462 FILLER_3_15
*1463 FILLER_3_150
*1464 FILLER_3_209
*1465 FILLER_3_221
*1466 FILLER_3_225
*1467 FILLER_3_237
*1468 FILLER_3_249
*1469 FILLER_3_261
*1470 FILLER_3_27
*1471 FILLER_3_273
*1472 FILLER_3_279
*1473 FILLER_3_281
*1474 FILLER_3_293
*1475 FILLER_3_3
*1476 FILLER_3_301
*1477 FILLER_3_35
*1478 FILLER_3_52
*1479 FILLER_3_66
*1480 FILLER_3_78
*1481 FILLER_3_90
*1482 FILLER_40_122
*1483 FILLER_40_134
*1484 FILLER_40_15
*1485 FILLER_40_162
*1486 FILLER_40_174
*1487 FILLER_40_187
*1488 FILLER_40_197
*1489 FILLER_40_224
*1490 FILLER_40_236
*1491 FILLER_40_248
*1492 FILLER_40_253
*1493 FILLER_40_259
*1494 FILLER_40_27
*1495 FILLER_40_273
*1496 FILLER_40_299
*1497 FILLER_40_3
*1498 FILLER_40_37
*1499 FILLER_40_49
*1500 FILLER_40_76
*1501 FILLER_40_85
*1502 FILLER_40_97
*1503 FILLER_41_145
*1504 FILLER_41_165
*1505 FILLER_41_169
*1506 FILLER_41_192
*1507 FILLER_41_204
*1508 FILLER_41_213
*1509 FILLER_41_222
*1510 FILLER_41_228
*1511 FILLER_41_253
*1512 FILLER_41_265
*1513 FILLER_41_277
*1514 FILLER_41_281
*1515 FILLER_41_297
*1516 FILLER_41_3
*1517 FILLER_41_30
*1518 FILLER_41_301
*1519 FILLER_41_43
*1520 FILLER_41_55
*1521 FILLER_41_73
*1522 FILLER_41_92
*1523 FILLER_42_129
*1524 FILLER_42_141
*1525 FILLER_42_163
*1526 FILLER_42_169
*1527 FILLER_42_195
*1528 FILLER_42_206
*1529 FILLER_42_21
*1530 FILLER_42_220
*1531 FILLER_42_224
*1532 FILLER_42_236
*1533 FILLER_42_248
*1534 FILLER_42_253
*1535 FILLER_42_265
*1536 FILLER_42_27
*1537 FILLER_42_277
*1538 FILLER_42_289
*1539 FILLER_42_3
*1540 FILLER_42_301
*1541 FILLER_42_50
*1542 FILLER_42_88
*1543 FILLER_43_101
*1544 FILLER_43_11
*1545 FILLER_43_122
*1546 FILLER_43_151
*1547 FILLER_43_162
*1548 FILLER_43_169
*1549 FILLER_43_173
*1550 FILLER_43_199
*1551 FILLER_43_211
*1552 FILLER_43_223
*1553 FILLER_43_246
*1554 FILLER_43_25
*1555 FILLER_43_265
*1556 FILLER_43_277
*1557 FILLER_43_281
*1558 FILLER_43_293
*1559 FILLER_43_3
*1560 FILLER_43_301
*1561 FILLER_43_52
*1562 FILLER_43_57
*1563 FILLER_43_68
*1564 FILLER_43_93
*1565 FILLER_44_105
*1566 FILLER_44_124
*1567 FILLER_44_141
*1568 FILLER_44_15
*1569 FILLER_44_171
*1570 FILLER_44_183
*1571 FILLER_44_195
*1572 FILLER_44_197
*1573 FILLER_44_209
*1574 FILLER_44_221
*1575 FILLER_44_233
*1576 FILLER_44_239
*1577 FILLER_44_243
*1578 FILLER_44_251
*1579 FILLER_44_260
*1580 FILLER_44_27
*1581 FILLER_44_271
*1582 FILLER_44_279
*1583 FILLER_44_3
*1584 FILLER_44_301
*1585 FILLER_44_53
*1586 FILLER_44_65
*1587 FILLER_44_80
*1588 FILLER_44_85
*1589 FILLER_44_97
*1590 FILLER_45_100
*1591 FILLER_45_122
*1592 FILLER_45_134
*1593 FILLER_45_140
*1594 FILLER_45_166
*1595 FILLER_45_169
*1596 FILLER_45_18
*1597 FILLER_45_184
*1598 FILLER_45_204
*1599 FILLER_45_216
*1600 FILLER_45_225
*1601 FILLER_45_233
*1602 FILLER_45_245
*1603 FILLER_45_257
*1604 FILLER_45_279
*1605 FILLER_45_281
*1606 FILLER_45_289
*1607 FILLER_45_293
*1608 FILLER_45_297
*1609 FILLER_45_30
*1610 FILLER_45_38
*1611 FILLER_45_47
*1612 FILLER_45_55
*1613 FILLER_45_57
*1614 FILLER_45_6
*1615 FILLER_45_63
*1616 FILLER_45_88
*1617 FILLER_46_103
*1618 FILLER_46_132
*1619 FILLER_46_15
*1620 FILLER_46_150
*1621 FILLER_46_162
*1622 FILLER_46_174
*1623 FILLER_46_195
*1624 FILLER_46_207
*1625 FILLER_46_213
*1626 FILLER_46_217
*1627 FILLER_46_221
*1628 FILLER_46_229
*1629 FILLER_46_247
*1630 FILLER_46_251
*1631 FILLER_46_267
*1632 FILLER_46_27
*1633 FILLER_46_279
*1634 FILLER_46_29
*1635 FILLER_46_291
*1636 FILLER_46_3
*1637 FILLER_46_41
*1638 FILLER_46_53
*1639 FILLER_46_65
*1640 FILLER_46_77
*1641 FILLER_46_83
*1642 FILLER_46_85
*1643 FILLER_46_97
*1644 FILLER_47_105
*1645 FILLER_47_111
*1646 FILLER_47_122
*1647 FILLER_47_128
*1648 FILLER_47_149
*1649 FILLER_47_15
*1650 FILLER_47_161
*1651 FILLER_47_167
*1652 FILLER_47_169
*1653 FILLER_47_215
*1654 FILLER_47_225
*1655 FILLER_47_252
*1656 FILLER_47_264
*1657 FILLER_47_27
*1658 FILLER_47_276
*1659 FILLER_47_281
*1660 FILLER_47_293
*1661 FILLER_47_3
*1662 FILLER_47_301
*1663 FILLER_47_39
*1664 FILLER_47_51
*1665 FILLER_47_55
*1666 FILLER_47_57
*1667 FILLER_47_69
*1668 FILLER_47_81
*1669 FILLER_47_93
*1670 FILLER_48_123
*1671 FILLER_48_135
*1672 FILLER_48_139
*1673 FILLER_48_141
*1674 FILLER_48_15
*1675 FILLER_48_153
*1676 FILLER_48_165
*1677 FILLER_48_177
*1678 FILLER_48_185
*1679 FILLER_48_195
*1680 FILLER_48_197
*1681 FILLER_48_219
*1682 FILLER_48_227
*1683 FILLER_48_253
*1684 FILLER_48_262
*1685 FILLER_48_27
*1686 FILLER_48_274
*1687 FILLER_48_286
*1688 FILLER_48_29
*1689 FILLER_48_298
*1690 FILLER_48_3
*1691 FILLER_48_41
*1692 FILLER_48_53
*1693 FILLER_48_65
*1694 FILLER_48_77
*1695 FILLER_48_83
*1696 FILLER_48_85
*1697 FILLER_48_97
*1698 FILLER_49_105
*1699 FILLER_49_111
*1700 FILLER_49_113
*1701 FILLER_49_125
*1702 FILLER_49_137
*1703 FILLER_49_149
*1704 FILLER_49_15
*1705 FILLER_49_161
*1706 FILLER_49_167
*1707 FILLER_49_169
*1708 FILLER_49_181
*1709 FILLER_49_193
*1710 FILLER_49_205
*1711 FILLER_49_215
*1712 FILLER_49_223
*1713 FILLER_49_225
*1714 FILLER_49_237
*1715 FILLER_49_249
*1716 FILLER_49_261
*1717 FILLER_49_27
*1718 FILLER_49_273
*1719 FILLER_49_279
*1720 FILLER_49_281
*1721 FILLER_49_293
*1722 FILLER_49_3
*1723 FILLER_49_301
*1724 FILLER_49_39
*1725 FILLER_49_51
*1726 FILLER_49_55
*1727 FILLER_49_57
*1728 FILLER_49_69
*1729 FILLER_49_81
*1730 FILLER_49_93
*1731 FILLER_4_119
*1732 FILLER_4_138
*1733 FILLER_4_141
*1734 FILLER_4_15
*1735 FILLER_4_153
*1736 FILLER_4_161
*1737 FILLER_4_171
*1738 FILLER_4_193
*1739 FILLER_4_197
*1740 FILLER_4_209
*1741 FILLER_4_221
*1742 FILLER_4_233
*1743 FILLER_4_245
*1744 FILLER_4_251
*1745 FILLER_4_253
*1746 FILLER_4_265
*1747 FILLER_4_27
*1748 FILLER_4_277
*1749 FILLER_4_289
*1750 FILLER_4_3
*1751 FILLER_4_301
*1752 FILLER_4_67
*1753 FILLER_4_79
*1754 FILLER_4_83
*1755 FILLER_4_85
*1756 FILLER_4_97
*1757 FILLER_50_109
*1758 FILLER_50_113
*1759 FILLER_50_125
*1760 FILLER_50_133
*1761 FILLER_50_139
*1762 FILLER_50_141
*1763 FILLER_50_147
*1764 FILLER_50_15
*1765 FILLER_50_153
*1766 FILLER_50_165
*1767 FILLER_50_169
*1768 FILLER_50_181
*1769 FILLER_50_193
*1770 FILLER_50_197
*1771 FILLER_50_209
*1772 FILLER_50_216
*1773 FILLER_50_225
*1774 FILLER_50_233
*1775 FILLER_50_237
*1776 FILLER_50_244
*1777 FILLER_50_251
*1778 FILLER_50_253
*1779 FILLER_50_261
*1780 FILLER_50_265
*1781 FILLER_50_27
*1782 FILLER_50_277
*1783 FILLER_50_281
*1784 FILLER_50_29
*1785 FILLER_50_293
*1786 FILLER_50_3
*1787 FILLER_50_301
*1788 FILLER_50_41
*1789 FILLER_50_53
*1790 FILLER_50_57
*1791 FILLER_50_69
*1792 FILLER_50_81
*1793 FILLER_50_85
*1794 FILLER_50_97
*1795 FILLER_5_102
*1796 FILLER_5_113
*1797 FILLER_5_125
*1798 FILLER_5_146
*1799 FILLER_5_15
*1800 FILLER_5_158
*1801 FILLER_5_166
*1802 FILLER_5_169
*1803 FILLER_5_187
*1804 FILLER_5_199
*1805 FILLER_5_211
*1806 FILLER_5_223
*1807 FILLER_5_225
*1808 FILLER_5_23
*1809 FILLER_5_237
*1810 FILLER_5_249
*1811 FILLER_5_261
*1812 FILLER_5_273
*1813 FILLER_5_279
*1814 FILLER_5_281
*1815 FILLER_5_293
*1816 FILLER_5_3
*1817 FILLER_5_301
*1818 FILLER_5_54
*1819 FILLER_5_65
*1820 FILLER_5_73
*1821 FILLER_5_90
*1822 FILLER_6_109
*1823 FILLER_6_126
*1824 FILLER_6_138
*1825 FILLER_6_15
*1826 FILLER_6_157
*1827 FILLER_6_165
*1828 FILLER_6_175
*1829 FILLER_6_187
*1830 FILLER_6_195
*1831 FILLER_6_206
*1832 FILLER_6_218
*1833 FILLER_6_230
*1834 FILLER_6_242
*1835 FILLER_6_250
*1836 FILLER_6_253
*1837 FILLER_6_265
*1838 FILLER_6_27
*1839 FILLER_6_277
*1840 FILLER_6_289
*1841 FILLER_6_3
*1842 FILLER_6_301
*1843 FILLER_6_53
*1844 FILLER_6_83
*1845 FILLER_7_101
*1846 FILLER_7_113
*1847 FILLER_7_126
*1848 FILLER_7_15
*1849 FILLER_7_165
*1850 FILLER_7_169
*1851 FILLER_7_193
*1852 FILLER_7_220
*1853 FILLER_7_225
*1854 FILLER_7_237
*1855 FILLER_7_249
*1856 FILLER_7_261
*1857 FILLER_7_27
*1858 FILLER_7_273
*1859 FILLER_7_279
*1860 FILLER_7_281
*1861 FILLER_7_293
*1862 FILLER_7_3
*1863 FILLER_7_301
*1864 FILLER_7_39
*1865 FILLER_7_51
*1866 FILLER_7_55
*1867 FILLER_7_57
*1868 FILLER_7_61
*1869 FILLER_8_103
*1870 FILLER_8_122
*1871 FILLER_8_132
*1872 FILLER_8_15
*1873 FILLER_8_157
*1874 FILLER_8_165
*1875 FILLER_8_193
*1876 FILLER_8_218
*1877 FILLER_8_230
*1878 FILLER_8_242
*1879 FILLER_8_250
*1880 FILLER_8_253
*1881 FILLER_8_265
*1882 FILLER_8_27
*1883 FILLER_8_277
*1884 FILLER_8_289
*1885 FILLER_8_29
*1886 FILLER_8_3
*1887 FILLER_8_301
*1888 FILLER_8_41
*1889 FILLER_8_49
*1890 FILLER_8_77
*1891 FILLER_8_83
*1892 FILLER_8_94
*1893 FILLER_9_108
*1894 FILLER_9_113
*1895 FILLER_9_122
*1896 FILLER_9_134
*1897 FILLER_9_140
*1898 FILLER_9_149
*1899 FILLER_9_15
*1900 FILLER_9_161
*1901 FILLER_9_167
*1902 FILLER_9_169
*1903 FILLER_9_173
*1904 FILLER_9_225
*1905 FILLER_9_237
*1906 FILLER_9_249
*1907 FILLER_9_261
*1908 FILLER_9_273
*1909 FILLER_9_279
*1910 FILLER_9_281
*1911 FILLER_9_29
*1912 FILLER_9_293
*1913 FILLER_9_3
*1914 FILLER_9_301
*1915 FILLER_9_41
*1916 FILLER_9_53
*1917 FILLER_9_57
*1918 FILLER_9_63
*1919 FILLER_9_67
*1920 FILLER_9_78
*1921 FILLER_9_90
*1922 FILLER_9_98
*1923 PHY_EDGE_ROW_0_Left_51
*1924 PHY_EDGE_ROW_0_Right_0
*1925 PHY_EDGE_ROW_10_Left_61
*1926 PHY_EDGE_ROW_10_Right_10
*1927 PHY_EDGE_ROW_11_Left_62
*1928 PHY_EDGE_ROW_11_Right_11
*1929 PHY_EDGE_ROW_12_Left_63
*1930 PHY_EDGE_ROW_12_Right_12
*1931 PHY_EDGE_ROW_13_Left_64
*1932 PHY_EDGE_ROW_13_Right_13
*1933 PHY_EDGE_ROW_14_Left_65
*1934 PHY_EDGE_ROW_14_Right_14
*1935 PHY_EDGE_ROW_15_Left_66
*1936 PHY_EDGE_ROW_15_Right_15
*1937 PHY_EDGE_ROW_16_Left_67
*1938 PHY_EDGE_ROW_16_Right_16
*1939 PHY_EDGE_ROW_17_Left_68
*1940 PHY_EDGE_ROW_17_Right_17
*1941 PHY_EDGE_ROW_18_Left_69
*1942 PHY_EDGE_ROW_18_Right_18
*1943 PHY_EDGE_ROW_19_Left_70
*1944 PHY_EDGE_ROW_19_Right_19
*1945 PHY_EDGE_ROW_1_Left_52
*1946 PHY_EDGE_ROW_1_Right_1
*1947 PHY_EDGE_ROW_20_Left_71
*1948 PHY_EDGE_ROW_20_Right_20
*1949 PHY_EDGE_ROW_21_Left_72
*1950 PHY_EDGE_ROW_21_Right_21
*1951 PHY_EDGE_ROW_22_Left_73
*1952 PHY_EDGE_ROW_22_Right_22
*1953 PHY_EDGE_ROW_23_Left_74
*1954 PHY_EDGE_ROW_23_Right_23
*1955 PHY_EDGE_ROW_24_Left_75
*1956 PHY_EDGE_ROW_24_Right_24
*1957 PHY_EDGE_ROW_25_Left_76
*1958 PHY_EDGE_ROW_25_Right_25
*1959 PHY_EDGE_ROW_26_Left_77
*1960 PHY_EDGE_ROW_26_Right_26
*1961 PHY_EDGE_ROW_27_Left_78
*1962 PHY_EDGE_ROW_27_Right_27
*1963 PHY_EDGE_ROW_28_Left_79
*1964 PHY_EDGE_ROW_28_Right_28
*1965 PHY_EDGE_ROW_29_Left_80
*1966 PHY_EDGE_ROW_29_Right_29
*1967 PHY_EDGE_ROW_2_Left_53
*1968 PHY_EDGE_ROW_2_Right_2
*1969 PHY_EDGE_ROW_30_Left_81
*1970 PHY_EDGE_ROW_30_Right_30
*1971 PHY_EDGE_ROW_31_Left_82
*1972 PHY_EDGE_ROW_31_Right_31
*1973 PHY_EDGE_ROW_32_Left_83
*1974 PHY_EDGE_ROW_32_Right_32
*1975 PHY_EDGE_ROW_33_Left_84
*1976 PHY_EDGE_ROW_33_Right_33
*1977 PHY_EDGE_ROW_34_Left_85
*1978 PHY_EDGE_ROW_34_Right_34
*1979 PHY_EDGE_ROW_35_Left_86
*1980 PHY_EDGE_ROW_35_Right_35
*1981 PHY_EDGE_ROW_36_Left_87
*1982 PHY_EDGE_ROW_36_Right_36
*1983 PHY_EDGE_ROW_37_Left_88
*1984 PHY_EDGE_ROW_37_Right_37
*1985 PHY_EDGE_ROW_38_Left_89
*1986 PHY_EDGE_ROW_38_Right_38
*1987 PHY_EDGE_ROW_39_Left_90
*1988 PHY_EDGE_ROW_39_Right_39
*1989 PHY_EDGE_ROW_3_Left_54
*1990 PHY_EDGE_ROW_3_Right_3
*1991 PHY_EDGE_ROW_40_Left_91
*1992 PHY_EDGE_ROW_40_Right_40
*1993 PHY_EDGE_ROW_41_Left_92
*1994 PHY_EDGE_ROW_41_Right_41
*1995 PHY_EDGE_ROW_42_Left_93
*1996 PHY_EDGE_ROW_42_Right_42
*1997 PHY_EDGE_ROW_43_Left_94
*1998 PHY_EDGE_ROW_43_Right_43
*1999 PHY_EDGE_ROW_44_Left_95
*2000 PHY_EDGE_ROW_44_Right_44
*2001 PHY_EDGE_ROW_45_Left_96
*2002 PHY_EDGE_ROW_45_Right_45
*2003 PHY_EDGE_ROW_46_Left_97
*2004 PHY_EDGE_ROW_46_Right_46
*2005 PHY_EDGE_ROW_47_Left_98
*2006 PHY_EDGE_ROW_47_Right_47
*2007 PHY_EDGE_ROW_48_Left_99
*2008 PHY_EDGE_ROW_48_Right_48
*2009 PHY_EDGE_ROW_49_Left_100
*2010 PHY_EDGE_ROW_49_Right_49
*2011 PHY_EDGE_ROW_4_Left_55
*2012 PHY_EDGE_ROW_4_Right_4
*2013 PHY_EDGE_ROW_50_Left_101
*2014 PHY_EDGE_ROW_50_Right_50
*2015 PHY_EDGE_ROW_5_Left_56
*2016 PHY_EDGE_ROW_5_Right_5
*2017 PHY_EDGE_ROW_6_Left_57
*2018 PHY_EDGE_ROW_6_Right_6
*2019 PHY_EDGE_ROW_7_Left_58
*2020 PHY_EDGE_ROW_7_Right_7
*2021 PHY_EDGE_ROW_8_Left_59
*2022 PHY_EDGE_ROW_8_Right_8
*2023 PHY_EDGE_ROW_9_Left_60
*2024 PHY_EDGE_ROW_9_Right_9
*2025 TAP_TAPCELL_ROW_0_102
*2026 TAP_TAPCELL_ROW_0_103
*2027 TAP_TAPCELL_ROW_0_104
*2028 TAP_TAPCELL_ROW_0_105
*2029 TAP_TAPCELL_ROW_0_106
*2030 TAP_TAPCELL_ROW_0_107
*2031 TAP_TAPCELL_ROW_0_108
*2032 TAP_TAPCELL_ROW_0_109
*2033 TAP_TAPCELL_ROW_0_110
*2034 TAP_TAPCELL_ROW_0_111
*2035 TAP_TAPCELL_ROW_10_157
*2036 TAP_TAPCELL_ROW_10_158
*2037 TAP_TAPCELL_ROW_10_159
*2038 TAP_TAPCELL_ROW_10_160
*2039 TAP_TAPCELL_ROW_10_161
*2040 TAP_TAPCELL_ROW_11_162
*2041 TAP_TAPCELL_ROW_11_163
*2042 TAP_TAPCELL_ROW_11_164
*2043 TAP_TAPCELL_ROW_11_165
*2044 TAP_TAPCELL_ROW_11_166
*2045 TAP_TAPCELL_ROW_12_167
*2046 TAP_TAPCELL_ROW_12_168
*2047 TAP_TAPCELL_ROW_12_169
*2048 TAP_TAPCELL_ROW_12_170
*2049 TAP_TAPCELL_ROW_12_171
*2050 TAP_TAPCELL_ROW_13_172
*2051 TAP_TAPCELL_ROW_13_173
*2052 TAP_TAPCELL_ROW_13_174
*2053 TAP_TAPCELL_ROW_13_175
*2054 TAP_TAPCELL_ROW_13_176
*2055 TAP_TAPCELL_ROW_14_177
*2056 TAP_TAPCELL_ROW_14_178
*2057 TAP_TAPCELL_ROW_14_179
*2058 TAP_TAPCELL_ROW_14_180
*2059 TAP_TAPCELL_ROW_14_181
*2060 TAP_TAPCELL_ROW_15_182
*2061 TAP_TAPCELL_ROW_15_183
*2062 TAP_TAPCELL_ROW_15_184
*2063 TAP_TAPCELL_ROW_15_185
*2064 TAP_TAPCELL_ROW_15_186
*2065 TAP_TAPCELL_ROW_16_187
*2066 TAP_TAPCELL_ROW_16_188
*2067 TAP_TAPCELL_ROW_16_189
*2068 TAP_TAPCELL_ROW_16_190
*2069 TAP_TAPCELL_ROW_16_191
*2070 TAP_TAPCELL_ROW_17_192
*2071 TAP_TAPCELL_ROW_17_193
*2072 TAP_TAPCELL_ROW_17_194
*2073 TAP_TAPCELL_ROW_17_195
*2074 TAP_TAPCELL_ROW_17_196
*2075 TAP_TAPCELL_ROW_18_197
*2076 TAP_TAPCELL_ROW_18_198
*2077 TAP_TAPCELL_ROW_18_199
*2078 TAP_TAPCELL_ROW_18_200
*2079 TAP_TAPCELL_ROW_18_201
*2080 TAP_TAPCELL_ROW_19_202
*2081 TAP_TAPCELL_ROW_19_203
*2082 TAP_TAPCELL_ROW_19_204
*2083 TAP_TAPCELL_ROW_19_205
*2084 TAP_TAPCELL_ROW_19_206
*2085 TAP_TAPCELL_ROW_1_112
*2086 TAP_TAPCELL_ROW_1_113
*2087 TAP_TAPCELL_ROW_1_114
*2088 TAP_TAPCELL_ROW_1_115
*2089 TAP_TAPCELL_ROW_1_116
*2090 TAP_TAPCELL_ROW_20_207
*2091 TAP_TAPCELL_ROW_20_208
*2092 TAP_TAPCELL_ROW_20_209
*2093 TAP_TAPCELL_ROW_20_210
*2094 TAP_TAPCELL_ROW_20_211
*2095 TAP_TAPCELL_ROW_21_212
*2096 TAP_TAPCELL_ROW_21_213
*2097 TAP_TAPCELL_ROW_21_214
*2098 TAP_TAPCELL_ROW_21_215
*2099 TAP_TAPCELL_ROW_21_216
*2100 TAP_TAPCELL_ROW_22_217
*2101 TAP_TAPCELL_ROW_22_218
*2102 TAP_TAPCELL_ROW_22_219
*2103 TAP_TAPCELL_ROW_22_220
*2104 TAP_TAPCELL_ROW_22_221
*2105 TAP_TAPCELL_ROW_23_222
*2106 TAP_TAPCELL_ROW_23_223
*2107 TAP_TAPCELL_ROW_23_224
*2108 TAP_TAPCELL_ROW_23_225
*2109 TAP_TAPCELL_ROW_23_226
*2110 TAP_TAPCELL_ROW_24_227
*2111 TAP_TAPCELL_ROW_24_228
*2112 TAP_TAPCELL_ROW_24_229
*2113 TAP_TAPCELL_ROW_24_230
*2114 TAP_TAPCELL_ROW_24_231
*2115 TAP_TAPCELL_ROW_25_232
*2116 TAP_TAPCELL_ROW_25_233
*2117 TAP_TAPCELL_ROW_25_234
*2118 TAP_TAPCELL_ROW_25_235
*2119 TAP_TAPCELL_ROW_25_236
*2120 TAP_TAPCELL_ROW_26_237
*2121 TAP_TAPCELL_ROW_26_238
*2122 TAP_TAPCELL_ROW_26_239
*2123 TAP_TAPCELL_ROW_26_240
*2124 TAP_TAPCELL_ROW_26_241
*2125 TAP_TAPCELL_ROW_27_242
*2126 TAP_TAPCELL_ROW_27_243
*2127 TAP_TAPCELL_ROW_27_244
*2128 TAP_TAPCELL_ROW_27_245
*2129 TAP_TAPCELL_ROW_27_246
*2130 TAP_TAPCELL_ROW_28_247
*2131 TAP_TAPCELL_ROW_28_248
*2132 TAP_TAPCELL_ROW_28_249
*2133 TAP_TAPCELL_ROW_28_250
*2134 TAP_TAPCELL_ROW_28_251
*2135 TAP_TAPCELL_ROW_29_252
*2136 TAP_TAPCELL_ROW_29_253
*2137 TAP_TAPCELL_ROW_29_254
*2138 TAP_TAPCELL_ROW_29_255
*2139 TAP_TAPCELL_ROW_29_256
*2140 TAP_TAPCELL_ROW_2_117
*2141 TAP_TAPCELL_ROW_2_118
*2142 TAP_TAPCELL_ROW_2_119
*2143 TAP_TAPCELL_ROW_2_120
*2144 TAP_TAPCELL_ROW_2_121
*2145 TAP_TAPCELL_ROW_30_257
*2146 TAP_TAPCELL_ROW_30_258
*2147 TAP_TAPCELL_ROW_30_259
*2148 TAP_TAPCELL_ROW_30_260
*2149 TAP_TAPCELL_ROW_30_261
*2150 TAP_TAPCELL_ROW_31_262
*2151 TAP_TAPCELL_ROW_31_263
*2152 TAP_TAPCELL_ROW_31_264
*2153 TAP_TAPCELL_ROW_31_265
*2154 TAP_TAPCELL_ROW_31_266
*2155 TAP_TAPCELL_ROW_32_267
*2156 TAP_TAPCELL_ROW_32_268
*2157 TAP_TAPCELL_ROW_32_269
*2158 TAP_TAPCELL_ROW_32_270
*2159 TAP_TAPCELL_ROW_32_271
*2160 TAP_TAPCELL_ROW_33_272
*2161 TAP_TAPCELL_ROW_33_273
*2162 TAP_TAPCELL_ROW_33_274
*2163 TAP_TAPCELL_ROW_33_275
*2164 TAP_TAPCELL_ROW_33_276
*2165 TAP_TAPCELL_ROW_34_277
*2166 TAP_TAPCELL_ROW_34_278
*2167 TAP_TAPCELL_ROW_34_279
*2168 TAP_TAPCELL_ROW_34_280
*2169 TAP_TAPCELL_ROW_34_281
*2170 TAP_TAPCELL_ROW_35_282
*2171 TAP_TAPCELL_ROW_35_283
*2172 TAP_TAPCELL_ROW_35_284
*2173 TAP_TAPCELL_ROW_35_285
*2174 TAP_TAPCELL_ROW_35_286
*2175 TAP_TAPCELL_ROW_36_287
*2176 TAP_TAPCELL_ROW_36_288
*2177 TAP_TAPCELL_ROW_36_289
*2178 TAP_TAPCELL_ROW_36_290
*2179 TAP_TAPCELL_ROW_36_291
*2180 TAP_TAPCELL_ROW_37_292
*2181 TAP_TAPCELL_ROW_37_293
*2182 TAP_TAPCELL_ROW_37_294
*2183 TAP_TAPCELL_ROW_37_295
*2184 TAP_TAPCELL_ROW_37_296
*2185 TAP_TAPCELL_ROW_38_297
*2186 TAP_TAPCELL_ROW_38_298
*2187 TAP_TAPCELL_ROW_38_299
*2188 TAP_TAPCELL_ROW_38_300
*2189 TAP_TAPCELL_ROW_38_301
*2190 TAP_TAPCELL_ROW_39_302
*2191 TAP_TAPCELL_ROW_39_303
*2192 TAP_TAPCELL_ROW_39_304
*2193 TAP_TAPCELL_ROW_39_305
*2194 TAP_TAPCELL_ROW_39_306
*2195 TAP_TAPCELL_ROW_3_122
*2196 TAP_TAPCELL_ROW_3_123
*2197 TAP_TAPCELL_ROW_3_124
*2198 TAP_TAPCELL_ROW_3_125
*2199 TAP_TAPCELL_ROW_3_126
*2200 TAP_TAPCELL_ROW_40_307
*2201 TAP_TAPCELL_ROW_40_308
*2202 TAP_TAPCELL_ROW_40_309
*2203 TAP_TAPCELL_ROW_40_310
*2204 TAP_TAPCELL_ROW_40_311
*2205 TAP_TAPCELL_ROW_41_312
*2206 TAP_TAPCELL_ROW_41_313
*2207 TAP_TAPCELL_ROW_41_314
*2208 TAP_TAPCELL_ROW_41_315
*2209 TAP_TAPCELL_ROW_41_316
*2210 TAP_TAPCELL_ROW_42_317
*2211 TAP_TAPCELL_ROW_42_318
*2212 TAP_TAPCELL_ROW_42_319
*2213 TAP_TAPCELL_ROW_42_320
*2214 TAP_TAPCELL_ROW_42_321
*2215 TAP_TAPCELL_ROW_43_322
*2216 TAP_TAPCELL_ROW_43_323
*2217 TAP_TAPCELL_ROW_43_324
*2218 TAP_TAPCELL_ROW_43_325
*2219 TAP_TAPCELL_ROW_43_326
*2220 TAP_TAPCELL_ROW_44_327
*2221 TAP_TAPCELL_ROW_44_328
*2222 TAP_TAPCELL_ROW_44_329
*2223 TAP_TAPCELL_ROW_44_330
*2224 TAP_TAPCELL_ROW_44_331
*2225 TAP_TAPCELL_ROW_45_332
*2226 TAP_TAPCELL_ROW_45_333
*2227 TAP_TAPCELL_ROW_45_334
*2228 TAP_TAPCELL_ROW_45_335
*2229 TAP_TAPCELL_ROW_45_336
*2230 TAP_TAPCELL_ROW_46_337
*2231 TAP_TAPCELL_ROW_46_338
*2232 TAP_TAPCELL_ROW_46_339
*2233 TAP_TAPCELL_ROW_46_340
*2234 TAP_TAPCELL_ROW_46_341
*2235 TAP_TAPCELL_ROW_47_342
*2236 TAP_TAPCELL_ROW_47_343
*2237 TAP_TAPCELL_ROW_47_344
*2238 TAP_TAPCELL_ROW_47_345
*2239 TAP_TAPCELL_ROW_47_346
*2240 TAP_TAPCELL_ROW_48_347
*2241 TAP_TAPCELL_ROW_48_348
*2242 TAP_TAPCELL_ROW_48_349
*2243 TAP_TAPCELL_ROW_48_350
*2244 TAP_TAPCELL_ROW_48_351
*2245 TAP_TAPCELL_ROW_49_352
*2246 TAP_TAPCELL_ROW_49_353
*2247 TAP_TAPCELL_ROW_49_354
*2248 TAP_TAPCELL_ROW_49_355
*2249 TAP_TAPCELL_ROW_49_356
*2250 TAP_TAPCELL_ROW_4_127
*2251 TAP_TAPCELL_ROW_4_128
*2252 TAP_TAPCELL_ROW_4_129
*2253 TAP_TAPCELL_ROW_4_130
*2254 TAP_TAPCELL_ROW_4_131
*2255 TAP_TAPCELL_ROW_50_357
*2256 TAP_TAPCELL_ROW_50_358
*2257 TAP_TAPCELL_ROW_50_359
*2258 TAP_TAPCELL_ROW_50_360
*2259 TAP_TAPCELL_ROW_50_361
*2260 TAP_TAPCELL_ROW_50_362
*2261 TAP_TAPCELL_ROW_50_363
*2262 TAP_TAPCELL_ROW_50_364
*2263 TAP_TAPCELL_ROW_50_365
*2264 TAP_TAPCELL_ROW_50_366
*2265 TAP_TAPCELL_ROW_5_132
*2266 TAP_TAPCELL_ROW_5_133
*2267 TAP_TAPCELL_ROW_5_134
*2268 TAP_TAPCELL_ROW_5_135
*2269 TAP_TAPCELL_ROW_5_136
*2270 TAP_TAPCELL_ROW_6_137
*2271 TAP_TAPCELL_ROW_6_138
*2272 TAP_TAPCELL_ROW_6_139
*2273 TAP_TAPCELL_ROW_6_140
*2274 TAP_TAPCELL_ROW_6_141
*2275 TAP_TAPCELL_ROW_7_142
*2276 TAP_TAPCELL_ROW_7_143
*2277 TAP_TAPCELL_ROW_7_144
*2278 TAP_TAPCELL_ROW_7_145
*2279 TAP_TAPCELL_ROW_7_146
*2280 TAP_TAPCELL_ROW_8_147
*2281 TAP_TAPCELL_ROW_8_148
*2282 TAP_TAPCELL_ROW_8_149
*2283 TAP_TAPCELL_ROW_8_150
*2284 TAP_TAPCELL_ROW_8_151
*2285 TAP_TAPCELL_ROW_9_152
*2286 TAP_TAPCELL_ROW_9_153
*2287 TAP_TAPCELL_ROW_9_154
*2288 TAP_TAPCELL_ROW_9_155
*2289 TAP_TAPCELL_ROW_9_156
*2290 _305_
*2291 _306_
*2292 _307_
*2293 _308_
*2294 _309_
*2295 _310_
*2296 _311_
*2297 _312_
*2298 _313_
*2299 _314_
*2300 _315_
*2301 _316_
*2302 _317_
*2303 _318_
*2304 _319_
*2305 _320_
*2306 _321_
*2307 _322_
*2308 _323_
*2309 _324_
*2310 _325_
*2311 _326_
*2312 _327_
*2313 _328_
*2314 _329_
*2315 _330_
*2316 _331_
*2317 _332_
*2318 _333_
*2319 _334_
*2320 _335_
*2321 _336_
*2322 _337_
*2323 _338_
*2324 _339_
*2325 _340_
*2326 _341_
*2327 _342_
*2328 _343_
*2329 _344_
*2330 _345_
*2331 _346_
*2332 _347_
*2333 _348_
*2334 _349_
*2335 _350_
*2336 _351_
*2337 _352_
*2338 _353_
*2339 _354_
*2340 _355_
*2341 _356_
*2342 _357_
*2343 _358_
*2344 _359_
*2345 _360_
*2346 _361_
*2347 _362_
*2348 _363_
*2349 _364_
*2350 _365_
*2351 _366_
*2352 _367_
*2353 _368_
*2354 _369_
*2355 _370_
*2356 _371_
*2357 _372_
*2358 _373_
*2359 _374_
*2360 _375_
*2361 _376_
*2362 _377_
*2363 _378_
*2364 _379_
*2365 _380_
*2366 _381_
*2367 _382_
*2368 _383_
*2369 _384_
*2370 _385_
*2371 _386_
*2372 _387_
*2373 _388_
*2374 _389_
*2375 _390_
*2376 _391_
*2377 _392_
*2378 _393_
*2379 _394_
*2380 _395_
*2381 _396_
*2382 _397_
*2383 _398_
*2384 _399_
*2385 _400_
*2386 _401_
*2387 _402_
*2388 _403_
*2389 _404_
*2390 _405_
*2391 _406_
*2392 _407_
*2393 _408_
*2394 _409_
*2395 _410_
*2396 _411_
*2397 _412_
*2398 _413_
*2399 _414_
*2400 _415_
*2401 _416_
*2402 _417_
*2403 _418_
*2404 _419_
*2405 _420_
*2406 _421_
*2407 _422_
*2408 _423_
*2409 _424_
*2410 _425_
*2411 _426_
*2412 _427_
*2413 _428_
*2414 _429_
*2415 _430_
*2416 _431_
*2417 _432_
*2418 _433_
*2419 _434_
*2420 _435_
*2421 _436_
*2422 _437_
*2423 _438_
*2424 _439_
*2425 _440_
*2426 _441_
*2427 _442_
*2428 _443_
*2429 _444_
*2430 _445_
*2431 _446_
*2432 _447_
*2433 _448_
*2434 _449_
*2435 _450_
*2436 _451_
*2437 _452_
*2438 _453_
*2439 _454_
*2440 _455_
*2441 _456_
*2442 _457_
*2443 _458_
*2444 _459_
*2445 _460_
*2446 _461_
*2447 _462_
*2448 _463_
*2449 _464_
*2450 _465_
*2451 _466_
*2452 _467_
*2453 _468_
*2454 _469_
*2455 _470_
*2456 _471_
*2457 _472_
*2458 _473_
*2459 _474_
*2460 _475_
*2461 _476_
*2462 _477_
*2463 _478_
*2464 _479_
*2465 _480_
*2466 _481_
*2467 _482_
*2468 _483_
*2469 _484_
*2470 _485_
*2471 _486_
*2472 _487_
*2473 _488_
*2474 _489_
*2475 _490_
*2476 _491_
*2477 _492_
*2478 _493_
*2479 _494_
*2480 _495_
*2481 _496_
*2482 _497_
*2483 _498_
*2484 _499_
*2485 _500_
*2486 _501_
*2487 _502_
*2488 _503_
*2489 _504_
*2490 _505_
*2491 _506_
*2492 _507_
*2493 _508_
*2494 _509_
*2495 _510_
*2496 _511_
*2497 _512_
*2498 _513_
*2499 _514_
*2500 _515_
*2501 _516_
*2502 _517_
*2503 _518_
*2504 _519_
*2505 _520_
*2506 _521_
*2507 _522_
*2508 _523_
*2509 _524_
*2510 _525_
*2511 _526_
*2512 _527_
*2513 _528_
*2514 _529_
*2515 _530_
*2516 _531_
*2517 _532_
*2518 _533_
*2519 _534_
*2520 _535_
*2521 _536_
*2522 _537_
*2523 _538_
*2524 _539_
*2525 _540_
*2526 _541_
*2527 _542_
*2528 _543_
*2529 _544_
*2530 _545_
*2531 _546_
*2532 _547_
*2533 _548_
*2534 _549_
*2535 _550_
*2536 _551_
*2537 _552_
*2538 _553_
*2539 _554_
*2540 _555_
*2541 _556_
*2542 _557_
*2543 _558_
*2544 _559_
*2545 _560_
*2546 _561_
*2547 _562_
*2548 _563_
*2549 _564_
*2550 _565_
*2551 _566_
*2552 _567_
*2553 _568_
*2554 _569_
*2555 _570_
*2556 _571_
*2557 _572_
*2558 _573_
*2559 _574_
*2560 _575_
*2561 _576_
*2562 _577_
*2563 _578_
*2564 _579_
*2565 _580_
*2566 _581_
*2567 _582_
*2568 _583_
*2569 _584_
*2570 _585_
*2571 _586_
*2572 _587_
*2573 _588_
*2574 _589_
*2575 _590_
*2576 _591_
*2577 _592_
*2578 _593_
*2579 _594_
*2580 _595_
*2581 _596_
*2582 _597_
*2583 _598_
*2584 _599_
*2585 _600_
*2586 _601_
*2587 _602_
*2588 _603_
*2589 _604_
*2590 _605_
*2591 _606_
*2592 _607_
*2593 _608_
*2594 _609_
*2595 _610_
*2596 _611_
*2597 _612_
*2598 _613_
*2599 _614_
*2600 _615_
*2601 _616_
*2602 _617_
*2603 _618_
*2604 _619_
*2605 _620_
*2606 _621_
*2607 _622_
*2608 _623_
*2609 _624_
*2610 _625_
*2611 _626_
*2612 _627_
*2613 _628_
*2614 _629_
*2615 _630_
*2616 _631_
*2617 _632_
*2618 _633_
*2619 _634_
*2620 _635_
*2621 _636_
*2622 _637_
*2623 _638_
*2624 _639_
*2625 _640_
*2626 _641_
*2627 _642_
*2628 _643_
*2629 _644_
*2630 _645_
*2631 _646_
*2632 _647_
*2633 _648_
*2634 _649_
*2635 _650_
*2636 _651_
*2637 _652_
*2638 _653_
*2639 _654_
*2640 _655_
*2641 _656_
*2642 _657_
*2643 _658_
*2644 _659_
*2645 _660_
*2646 _661_
*2647 _662_
*2648 _663_
*2649 _664_
*2650 _665_
*2651 _666_
*2652 _667_
*2653 _668_
*2654 _669_
*2655 _670_
*2656 _671_
*2657 _672_
*2658 _673_
*2659 _674_
*2660 _675_
*2661 _676_
*2662 _677_
*2663 _678_
*2664 _679_
*2665 _680_
*2666 _681_
*2667 _682_
*2668 _683_
*2669 _684_
*2670 _685_
*2671 _686_
*2672 _687_
*2673 _688_
*2674 _689_
*2675 _690_
*2676 _691_
*2677 _692_
*2678 _693_
*2679 _694_
*2680 _695_
*2681 _696_
*2682 _697_
*2683 _698_
*2684 _699_
*2685 _700_
*2686 _701_
*2687 _702_
*2688 _703_
*2689 _704_
*2690 _705_
*2691 _706_
*2692 _707_
*2693 _708_
*2694 _709_
*2695 _710_
*2696 _711_
*2697 _712_
*2698 _713_
*2699 _714_
*2700 _715_
*2701 _716_
*2702 _717_
*2703 _718_
*2704 _719_
*2705 _720_
*2706 _721_
*2707 _722_
*2708 _723_
*2709 _724_
*2710 _725_
*2711 _726_
*2712 _727_
*2713 _728_
*2714 _729_
*2715 _730_
*2716 _731_
*2717 _732_
*2718 _733_
*2719 _734_
*2720 _735_
*2721 _736_
*2722 _737_
*2723 _738_
*2724 _739_
*2725 _740_
*2726 _741_
*2727 _742_
*2728 _743_
*2729 _744_
*2730 _745_
*2731 _746_
*2732 _747_
*2733 _748_
*2734 _749_
*2735 _750_
*2736 _751_
*2737 _752_
*2738 _753_
*2739 _754_
*2740 _755_
*2741 _756_
*2742 _757_
*2743 _758_
*2744 _759_
*2745 _760_
*2746 _761_
*2747 _762_
*2748 _763_
*2749 _764_
*2750 _765_
*2751 _766_
*2752 _767_
*2753 _768_
*2754 _769_
*2755 _770_
*2756 _771_
*2757 _772_
*2758 _773_
*2759 _774_
*2760 _775_
*2761 _776_
*2762 _777_
*2763 _778_
*2764 _779_
*2765 _780_
*2766 _781_
*2767 _782_
*2768 _783_
*2769 _784_
*2770 _785_
*2771 _786_
*2772 _787_
*2773 _788_
*2774 _789_
*2775 _790_
*2776 _791_
*2777 _792_
*2778 _793_
*2779 _794_
*2780 _795_
*2781 _796_
*2782 _797_
*2783 _798_
*2784 _799_
*2785 _800_
*2786 _801_
*2787 _802_
*2788 _803_
*2789 _804_
*2790 _805_
*2791 _806_
*2792 _807_
*2793 _808_
*2794 _809_
*2795 clkbuf_0_wr_clk
*2796 clkbuf_4_0_0_wr_clk
*2797 clkbuf_4_10_0_wr_clk
*2798 clkbuf_4_11_0_wr_clk
*2799 clkbuf_4_12_0_wr_clk
*2800 clkbuf_4_13_0_wr_clk
*2801 clkbuf_4_14_0_wr_clk
*2802 clkbuf_4_15_0_wr_clk
*2803 clkbuf_4_1_0_wr_clk
*2804 clkbuf_4_2_0_wr_clk
*2805 clkbuf_4_3_0_wr_clk
*2806 clkbuf_4_4_0_wr_clk
*2807 clkbuf_4_5_0_wr_clk
*2808 clkbuf_4_6_0_wr_clk
*2809 clkbuf_4_7_0_wr_clk
*2810 clkbuf_4_8_0_wr_clk
*2811 clkbuf_4_9_0_wr_clk
*2812 clkload0
*2813 clkload1
*2814 clkload10
*2815 clkload11
*2816 clkload12
*2817 clkload13
*2818 clkload14
*2819 clkload2
*2820 clkload3
*2821 clkload4
*2822 clkload5
*2823 clkload6
*2824 clkload7
*2825 clkload8
*2826 clkload9
*2827 fanout35
*2828 fanout36
*2829 fanout37
*2830 fanout38
*2831 fanout39
*2832 fanout40
*2833 fanout41
*2834 fanout42
*2835 fanout43
*2836 fanout44
*2837 fanout45
*2838 fanout46
*2839 fanout47
*2840 fanout48
*2841 fanout49
*2842 fanout50
*2843 fanout51
*2844 fanout52
*2845 fanout53
*2846 fanout54
*2847 fanout55
*2848 fanout56
*2849 fanout57
*2850 fanout58
*2851 fanout59
*2852 fanout60
*2853 fanout61
*2854 fanout62
*2855 fanout63
*2856 fanout64
*2857 fanout65
*2858 fanout66
*2859 fanout67
*2860 fanout68
*2861 fanout69
*2862 fanout70
*2863 fanout71
*2864 fanout72
*2865 fanout73
*2866 fanout74
*2867 fanout75
*2868 fanout76
*2869 hold1
*2870 hold10
*2871 hold100
*2872 hold101
*2873 hold102
*2874 hold103
*2875 hold104
*2876 hold105
*2877 hold106
*2878 hold107
*2879 hold108
*2880 hold109
*2881 hold11
*2882 hold110
*2883 hold111
*2884 hold112
*2885 hold113
*2886 hold114
*2887 hold115
*2888 hold116
*2889 hold117
*2890 hold118
*2891 hold119
*2892 hold12
*2893 hold120
*2894 hold121
*2895 hold122
*2896 hold123
*2897 hold124
*2898 hold125
*2899 hold126
*2900 hold127
*2901 hold128
*2902 hold129
*2903 hold13
*2904 hold130
*2905 hold131
*2906 hold132
*2907 hold133
*2908 hold14
*2909 hold15
*2910 hold16
*2911 hold17
*2912 hold18
*2913 hold19
*2914 hold2
*2915 hold20
*2916 hold21
*2917 hold22
*2918 hold23
*2919 hold24
*2920 hold25
*2921 hold26
*2922 hold27
*2923 hold28
*2924 hold29
*2925 hold3
*2926 hold30
*2927 hold31
*2928 hold32
*2929 hold33
*2930 hold34
*2931 hold35
*2932 hold36
*2933 hold37
*2934 hold38
*2935 hold39
*2936 hold4
*2937 hold40
*2938 hold41
*2939 hold42
*2940 hold43
*2941 hold44
*2942 hold45
*2943 hold46
*2944 hold47
*2945 hold48
*2946 hold49
*2947 hold5
*2948 hold50
*2949 hold51
*2950 hold52
*2951 hold53
*2952 hold54
*2953 hold55
*2954 hold56
*2955 hold57
*2956 hold58
*2957 hold59
*2958 hold6
*2959 hold60
*2960 hold61
*2961 hold62
*2962 hold63
*2963 hold64
*2964 hold65
*2965 hold66
*2966 hold67
*2967 hold68
*2968 hold69
*2969 hold7
*2970 hold70
*2971 hold71
*2972 hold72
*2973 hold73
*2974 hold74
*2975 hold75
*2976 hold76
*2977 hold77
*2978 hold78
*2979 hold79
*2980 hold8
*2981 hold80
*2982 hold81
*2983 hold82
*2984 hold83
*2985 hold84
*2986 hold85
*2987 hold86
*2988 hold87
*2989 hold88
*2990 hold89
*2991 hold9
*2992 hold90
*2993 hold91
*2994 hold92
*2995 hold93
*2996 hold94
*2997 hold95
*2998 hold96
*2999 hold97
*3000 hold98
*3001 hold99
*3002 input1
*3003 input10
*3004 input11
*3005 input12
*3006 input13
*3007 input14
*3008 input15
*3009 input16
*3010 input17
*3011 input18
*3012 input19
*3013 input2
*3014 input20
*3015 input21
*3016 input22
*3017 input3
*3018 input4
*3019 input5
*3020 input6
*3021 input7
*3022 input8
*3023 input9
*3024 output23
*3025 output24
*3026 output25
*3027 output26
*3028 output27
*3029 output28
*3030 output29
*3031 output30
*3032 output31
*3033 output32
*3034 output33
*3035 output34

*PORTS
aempty O
aempty_threshold[0] I
aempty_threshold[1] I
aempty_threshold[2] I
aempty_threshold[3] I
aempty_threshold[4] I
afull O
afull_threshold[0] I
afull_threshold[1] I
afull_threshold[2] I
afull_threshold[3] I
afull_threshold[4] I
arst_n I
empty O
full O
rd_clk I
rd_data[0] O
rd_data[1] O
rd_data[2] O
rd_data[3] O
rd_data[4] O
rd_data[5] O
rd_data[6] O
rd_data[7] O
rd_en I
wr_clk I
wr_data[0] I
wr_data[1] I
wr_data[2] I
wr_data[3] I
wr_data[4] I
wr_data[5] I
wr_data[6] I
wr_data[7] I
wr_en I

*D_NET *3 0.00113694
*CONN
*P aempty O
*I *3024:X O *D sky130_fd_sc_hd__buf_2
*CAP
1 aempty 0.000190567
2 *3024:X 0.000203228
3 *3:8 0.000393795
4 aempty rd_data[4] 0
5 aempty *3004:A 7.1481e-05
6 aempty *8:13 5.54743e-05
7 *3:8 *620:10 8.05114e-05
8 *3:8 *649:10 0.000141879
9 *3:8 *678:10 0
*RES
1 *3024:X *3:8 42.5468 
2 *3:8 aempty 8.84373 
*END

*D_NET *4 0.000565426
*CONN
*P aempty_threshold[0] I
*I *3002:A I *D sky130_fd_sc_hd__clkbuf_1
*CAP
1 aempty_threshold[0] 0.000246972
2 *3002:A 0.000246972
3 *3002:A *3013:A 7.1481e-05
4 *3002:A *678:10 0
*RES
1 aempty_threshold[0] *3002:A 48.4016 
*END

*D_NET *5 0.000539371
*CONN
*P aempty_threshold[1] I
*I *3013:A I *D sky130_fd_sc_hd__clkbuf_1
*CAP
1 aempty_threshold[1] 0.000176867
2 *3013:A 0.000176867
3 *3013:A *3017:A 6.31178e-05
4 *3013:A *495:8 5.1038e-05
5 *3002:A *3013:A 7.1481e-05
*RES
1 aempty_threshold[1] *3013:A 48.0495 
*END

*D_NET *6 0.000420175
*CONN
*P aempty_threshold[2] I
*I *3017:A I *D sky130_fd_sc_hd__clkbuf_1
*CAP
1 aempty_threshold[2] 0.000143974
2 *3017:A 0.000143974
3 *3017:A *3018:A 6.91091e-05
4 *3017:A *678:10 0
5 *3013:A *3017:A 6.31178e-05
*RES
1 aempty_threshold[2] *3017:A 46.9931 
*END

*D_NET *7 0.000424558
*CONN
*P aempty_threshold[3] I
*I *3018:A I *D sky130_fd_sc_hd__clkbuf_1
*CAP
1 aempty_threshold[3] 0.00014317
2 *3018:A 0.00014317
3 *3018:A rd_data[4] 6.91091e-05
4 *3018:A *678:10 0
5 *3017:A *3018:A 6.91091e-05
*RES
1 aempty_threshold[3] *3018:A 46.9931 
*END

*D_NET *8 0.0010682
*CONN
*P aempty_threshold[4] I
*I *3019:A I *D sky130_fd_sc_hd__clkbuf_1
*CAP
1 aempty_threshold[4] 0.000374241
2 *3019:A 0
3 *8:13 0.000374241
4 *8:13 rd_data[4] 5.99754e-05
5 *8:13 *620:10 0.000130212
6 *8:13 *638:10 0
7 *8:13 *649:10 7.40553e-05
8 *8:13 *678:10 0
9 aempty *8:13 5.54743e-05
*RES
1 aempty_threshold[4] *8:13 29.1065 
2 *8:13 *3019:A 23 
*END

*D_NET *9 0.000554462
*CONN
*P afull O
*I *3025:X O *D sky130_fd_sc_hd__buf_2
*CAP
1 afull 0.000223871
2 *3025:X 0.000223871
3 afull *3003:A 7.1481e-05
4 afull *621:10 3.52397e-05
*RES
1 *3025:X afull 47.7832 
*END

*D_NET *10 0.00109336
*CONN
*P afull_threshold[0] I
*I *3020:A I *D sky130_fd_sc_hd__clkbuf_1
*CAP
1 afull_threshold[0] 0.000530122
2 *3020:A 0.000530122
3 *3020:A *3021:A 0
4 *3020:A *3022:A 0
5 *3020:A *671:10 3.31127e-05
*RES
1 afull_threshold[0] *3020:A 49.7864 
*END

*D_NET *11 0.00107296
*CONN
*P afull_threshold[1] I
*I *3021:A I *D sky130_fd_sc_hd__clkbuf_1
*CAP
1 afull_threshold[1] 0.000536481
2 *3021:A 0.000536481
3 *3020:A *3021:A 0
*RES
1 afull_threshold[1] *3021:A 49.7864 
*END

*D_NET *12 0.00108304
*CONN
*P afull_threshold[2] I
*I *3022:A I *D sky130_fd_sc_hd__clkbuf_1
*CAP
1 afull_threshold[2] 0.000541521
2 *3022:A 0.000541521
3 *3022:A *671:10 0
4 *3020:A *3022:A 0
*RES
1 afull_threshold[2] *3022:A 49.7864 
*END

*D_NET *13 0.00115644
*CONN
*P afull_threshold[3] I
*I *3023:A I *D sky130_fd_sc_hd__clkbuf_1
*CAP
1 afull_threshold[3] 0.00057822
2 *3023:A 0
3 *13:9 0.00057822
*RES
1 afull_threshold[3] *13:9 27.7393 
2 *13:9 *3023:A 23 
*END

*D_NET *14 0.000481397
*CONN
*P afull_threshold[4] I
*I *3003:A I *D sky130_fd_sc_hd__clkbuf_1
*CAP
1 afull_threshold[4] 0.000204958
2 *3003:A 0.000204958
3 afull *3003:A 7.1481e-05
*RES
1 afull_threshold[4] *3003:A 47.6974 
*END

*D_NET *15 0.000666384
*CONN
*P arst_n I
*I *3004:A I *D sky130_fd_sc_hd__clkbuf_1
*CAP
1 arst_n 0.000261711
2 *3004:A 0.000261711
3 *3004:A *3005:A 7.1481e-05
4 *3004:A *507:10 0
5 *3004:A *518:14 0
6 aempty *3004:A 7.1481e-05
*RES
1 arst_n *3004:A 49.4581 
*END

*D_NET *16 0.00179736
*CONN
*P empty O
*I *3026:X O *D sky130_fd_sc_hd__buf_2
*CAP
1 empty 0.000662221
2 *3026:X 0.000662221
3 empty rd_data[1] 7.53701e-05
4 empty *264:18 0.000285772
5 empty *291:20 0.000111782
6 empty *673:30 0
7 empty *756:20 0
*RES
1 *3026:X empty 49.243 
*END

*D_NET *17 0.00106389
*CONN
*P full O
*I *3027:X O *D sky130_fd_sc_hd__buf_2
*CAP
1 full 0.000531944
2 *3027:X 0.000531944
*RES
1 *3027:X full 49.6829 
*END

*D_NET *18 0.000616187
*CONN
*P rd_clk I
*I *3005:A I *D sky130_fd_sc_hd__clkbuf_1
*CAP
1 rd_clk 0.000204205
2 *3005:A 0.000204205
3 *3005:A *3008:A 7.1481e-05
4 *3005:A *518:14 0
5 *3005:A *518:25 6.48142e-05
6 *3005:A *678:50 0
7 *3004:A *3005:A 7.1481e-05
*RES
1 rd_clk *3005:A 48.4016 
*END

*D_NET *19 0.00102215
*CONN
*P rd_data[0] O
*I *3028:X O *D sky130_fd_sc_hd__buf_2
*CAP
1 rd_data[0] 0.000511075
2 *3028:X 0.000511075
3 rd_data[0] *3007:A 0
*RES
1 *3028:X rd_data[0] 49.2064 
*END

*D_NET *20 0.00120405
*CONN
*P rd_data[1] O
*I *3029:X O *D sky130_fd_sc_hd__buf_2
*CAP
1 rd_data[1] 0.000173572
2 *3029:X 0.00012129
3 *20:10 0.000294863
4 rd_data[1] *27:11 6.17291e-05
5 *20:10 *3029:A 0.000165974
6 *20:10 *518:25 9.0063e-05
7 *20:10 *622:10 9.7017e-05
8 *20:10 *625:10 0.000124169
9 empty rd_data[1] 7.53701e-05
*RES
1 *3029:X *20:10 49.8425 
2 *20:10 rd_data[1] 0.757867 
*END

*D_NET *21 0.000738406
*CONN
*P rd_data[2] O
*I *3030:X O *D sky130_fd_sc_hd__buf_2
*CAP
1 rd_data[2] 0.000337602
2 *3030:X 0.000337602
3 rd_data[2] *31:15 6.32019e-05
*RES
1 *3030:X rd_data[2] 48.7952 
*END

*D_NET *22 0.00100658
*CONN
*P rd_data[3] O
*I *3031:X O *D sky130_fd_sc_hd__buf_2
*CAP
1 rd_data[3] 0.000503292
2 *3031:X 0.000503292
3 rd_data[3] *3011:A 0
*RES
1 *3031:X rd_data[3] 47.57 
*END

*D_NET *23 0.000826325
*CONN
*P rd_data[4] O
*I *3032:X O *D sky130_fd_sc_hd__buf_2
*CAP
1 rd_data[4] 0.00031131
2 *3032:X 0.00031131
3 rd_data[4] *649:10 0
4 rd_data[4] *678:10 7.46212e-05
5 aempty rd_data[4] 0
6 *3018:A rd_data[4] 6.91091e-05
7 *8:13 rd_data[4] 5.99754e-05
*RES
1 *3032:X rd_data[4] 48.1267 
*END

*D_NET *24 0.00101793
*CONN
*P rd_data[5] O
*I *3033:X O *D sky130_fd_sc_hd__buf_2
*CAP
1 rd_data[5] 0.000494273
2 *3033:X 0.000494273
3 rd_data[5] *630:20 2.93845e-05
*RES
1 *3033:X rd_data[5] 47.57 
*END

*D_NET *25 0.00106389
*CONN
*P rd_data[6] O
*I *3034:X O *D sky130_fd_sc_hd__buf_2
*CAP
1 rd_data[6] 0.000531944
2 *3034:X 0.000531944
*RES
1 *3034:X rd_data[6] 49.6829 
*END

*D_NET *26 0.000723838
*CONN
*P rd_data[7] O
*I *3035:X O *D sky130_fd_sc_hd__buf_2
*CAP
1 rd_data[7] 0.000342755
2 *3035:X 0.000342755
3 rd_data[7] *36:17 2.12457e-05
4 rd_data[7] *353:39 1.70831e-05
*RES
1 *3035:X rd_data[7] 48.7952 
*END

*D_NET *27 0.00135066
*CONN
*P rd_en I
*I *3006:A I *D sky130_fd_sc_hd__clkbuf_1
*CAP
1 rd_en 0.000336857
2 *3006:A 0
3 *27:11 0.000336857
4 *27:11 *518:25 0.000482609
5 *27:11 *529:10 0.000132607
6 *27:11 *678:50 0
7 rd_data[1] *27:11 6.17291e-05
*RES
1 rd_en *27:11 29.9795 
2 *27:11 *3006:A 23 
*END

*D_NET *28 0.0184335
*CONN
*P wr_clk I
*I *2795:A I *D sky130_fd_sc_hd__clkbuf_16
*CAP
1 wr_clk 0.000335436
2 *2795:A 2.34823e-05
3 *28:17 0.00573772
4 *28:15 0.00571424
5 *28:13 0.00246521
6 *28:11 0.00280064
7 *28:11 *35:17 5.59399e-05
8 *28:13 *31:15 0
9 *28:13 *35:17 0
10 *28:17 *2464:A1 2.93747e-05
11 *28:17 *2464:S0 1.05235e-05
12 *28:17 *2497:A0 9.47033e-05
13 *28:17 *2675:D 0.000397279
14 *28:17 *2707:D 7.34972e-05
15 *28:17 *2903:A 0.00011807
16 *28:17 *319:8 6.26694e-05
17 *28:17 *369:14 1.16622e-05
18 *28:17 *414:14 1.06415e-05
19 *28:17 *663:69 0.000492376
*RES
1 wr_clk *28:11 9.55307 
2 *28:11 *28:13 55.9596 
3 *28:13 *28:15 15 
4 *28:15 *28:17 75.8971 
5 *28:17 *2795:A 23.4971 
*END

*D_NET *29 0.00107296
*CONN
*P wr_data[0] I
*I *3007:A I *D sky130_fd_sc_hd__buf_1
*CAP
1 wr_data[0] 0.000536481
2 *3007:A 0.000536481
3 *3007:A *3028:A 0
4 rd_data[0] *3007:A 0
*RES
1 wr_data[0] *3007:A 49.7864 
*END

*D_NET *30 0.000581311
*CONN
*P wr_data[1] I
*I *3008:A I *D sky130_fd_sc_hd__buf_1
*CAP
1 wr_data[1] 0.000202215
2 *3008:A 0.000202215
3 *3008:A *518:25 0.000105399
4 *3008:A *678:50 0
5 *3005:A *3008:A 7.1481e-05
*RES
1 wr_data[1] *3008:A 48.0495 
*END

*D_NET *31 0.000910735
*CONN
*P wr_data[2] I
*I *3009:A I *D sky130_fd_sc_hd__buf_1
*CAP
1 wr_data[2] 0.000406544
2 *3009:A 0
3 *31:15 0.000406544
4 *31:15 *626:24 3.44446e-05
5 rd_data[2] *31:15 6.32019e-05
6 *28:13 *31:15 0
*RES
1 wr_data[2] *31:15 29.636 
2 *31:15 *3009:A 23 
*END

*D_NET *32 0.000901682
*CONN
*P wr_data[3] I
*I *3010:A I *D sky130_fd_sc_hd__buf_1
*CAP
1 wr_data[3] 0.000450841
2 *3010:A 0.000450841
*RES
1 wr_data[3] *3010:A 47.3214 
*END

*D_NET *33 0.000904685
*CONN
*P wr_data[4] I
*I *3011:A I *D sky130_fd_sc_hd__buf_1
*CAP
1 wr_data[4] 0.000452343
2 *3011:A 0.000452343
3 *3011:A *628:12 0
4 rd_data[3] *3011:A 0
*RES
1 wr_data[4] *3011:A 47.3214 
*END

*D_NET *34 0.000901682
*CONN
*P wr_data[5] I
*I *3012:A I *D sky130_fd_sc_hd__buf_1
*CAP
1 wr_data[5] 0.000450841
2 *3012:A 0.000450841
*RES
1 wr_data[5] *3012:A 47.3214 
*END

*D_NET *35 0.000734968
*CONN
*P wr_data[6] I
*I *3014:A I *D sky130_fd_sc_hd__buf_1
*CAP
1 wr_data[6] 0.000339514
2 *3014:A 0
3 *35:17 0.000339514
4 *28:11 *35:17 5.59399e-05
5 *28:13 *35:17 0
*RES
1 wr_data[6] *35:17 27.8627 
2 *35:17 *3014:A 23 
*END

*D_NET *36 0.000658406
*CONN
*P wr_data[7] I
*I *3015:A I *D sky130_fd_sc_hd__buf_1
*CAP
1 wr_data[7] 0.00031858
2 *3015:A 0
3 *36:17 0.00031858
4 rd_data[7] *36:17 2.12457e-05
*RES
1 wr_data[7] *36:17 27.1584 
2 *36:17 *3015:A 23 
*END

*D_NET *37 0.00133765
*CONN
*P wr_en I
*I *3016:A I *D sky130_fd_sc_hd__clkbuf_1
*CAP
1 wr_en 0.000641754
2 *3016:A 0
3 *37:11 0.000641754
4 *37:11 *619:10 5.41385e-05
*RES
1 wr_en *37:11 28.8371 
2 *37:11 *3016:A 23 
*END

*D_NET *38 0.000860365
*CONN
*I *2617:D I *D sky130_fd_sc_hd__dfrtp_1
*I *2423:X O *D sky130_fd_sc_hd__mux2_1
*CAP
1 *2617:D 0.000142516
2 *2423:X 0.000174825
3 *38:10 0.000317341
4 *2617:D *264:39 0.000202653
5 *38:10 *2423:A0 0
6 *38:10 *2857:A 2.30292e-05
*RES
1 *2423:X *38:10 40.8793 
2 *38:10 *2617:D 41.9564 
*END

*D_NET *39 0.000426185
*CONN
*I *2618:D I *D sky130_fd_sc_hd__dfrtp_1
*I *2431:X O *D sky130_fd_sc_hd__mux2_1
*CAP
1 *2618:D 0
2 *2431:X 0.000184739
3 *39:10 0.000184739
4 *39:10 *3026:A 5.67058e-05
5 *39:10 *673:30 0
6 *39:10 *756:20 0
*RES
1 *2431:X *39:10 40.6514 
2 *39:10 *2618:D 38 
*END

*D_NET *40 0.000732611
*CONN
*I *2619:D I *D sky130_fd_sc_hd__dfrtp_1
*I *2437:X O *D sky130_fd_sc_hd__mux2_1
*CAP
1 *2619:D 0
2 *2437:X 0.000252414
3 *40:10 0.000252414
4 *40:10 *345:72 2.1199e-05
5 *40:10 *626:43 0.000184527
6 *40:10 *643:31 3.70071e-06
7 *40:10 *643:116 0
8 *40:10 *677:87 1.83564e-05
*RES
1 *2437:X *40:10 42.0807 
2 *40:10 *2619:D 38 
*END

*D_NET *41 0.00100005
*CONN
*I *2620:D I *D sky130_fd_sc_hd__dfrtp_1
*I *2443:X O *D sky130_fd_sc_hd__mux2_1
*CAP
1 *2620:D 0
2 *2443:X 0.000296029
3 *41:10 0.000296029
4 *41:10 *329:107 0
5 *41:10 *337:57 5.41385e-05
6 *41:10 *342:77 0.000353849
*RES
1 *2443:X *41:10 43.8207 
2 *41:10 *2620:D 38 
*END

*D_NET *42 0.000398731
*CONN
*I *2621:D I *D sky130_fd_sc_hd__dfrtp_1
*I *2449:X O *D sky130_fd_sc_hd__mux2_1
*CAP
1 *2621:D 0.000102784
2 *2449:X 0.000102784
3 *2621:D *2449:A0 0.000193163
*RES
1 *2449:X *2621:D 49.1693 
*END

*D_NET *43 0.000176484
*CONN
*I *2622:D I *D sky130_fd_sc_hd__dfrtp_1
*I *2455:X O *D sky130_fd_sc_hd__mux2_1
*CAP
1 *2622:D 0
2 *2455:X 8.82422e-05
3 *43:8 8.82422e-05
4 *43:8 *311:10 0
5 *43:8 *354:32 0
*RES
1 *2455:X *43:8 39.5536 
2 *43:8 *2622:D 38 
*END

*D_NET *44 0.000790515
*CONN
*I *2623:D I *D sky130_fd_sc_hd__dfrtp_1
*I *2461:X O *D sky130_fd_sc_hd__mux2_1
*CAP
1 *2623:D 0
2 *2461:X 0.00035804
3 *44:10 0.00035804
4 *44:10 *670:90 7.44354e-05
*RES
1 *2461:X *44:10 43.0336 
2 *44:10 *2623:D 38 
*END

*D_NET *45 0.000436535
*CONN
*I *2624:D I *D sky130_fd_sc_hd__dfrtp_1
*I *2467:X O *D sky130_fd_sc_hd__mux2_1
*CAP
1 *2624:D 0
2 *2467:X 0.000102844
3 *45:10 0.000102844
4 *45:10 *632:26 2.30292e-05
5 *45:10 *637:121 6.6869e-05
6 *45:10 *669:56 0.000140949
*RES
1 *2467:X *45:10 40.5271 
2 *45:10 *2624:D 38 
*END

*D_NET *46 0.00110827
*CONN
*I *2625:D I *D sky130_fd_sc_hd__dfxtp_1
*I *2470:X O *D sky130_fd_sc_hd__mux2_1
*CAP
1 *2625:D 4.76313e-05
2 *2470:X 0.000205449
3 *46:8 0.000253081
4 *2625:D *2496:S 4.9054e-06
5 *2625:D *327:34 7.24484e-05
6 *2625:D *359:84 0.000189681
7 *46:8 *158:8 1.12487e-05
8 *46:8 *359:94 0
9 *46:8 *359:112 0.000323822
*RES
1 *2470:X *46:8 42.7229 
2 *46:8 *2625:D 40.0973 
*END

*D_NET *47 0.000919547
*CONN
*I *2626:D I *D sky130_fd_sc_hd__dfxtp_1
*I *2471:X O *D sky130_fd_sc_hd__mux2_1
*CAP
1 *2626:D 0
2 *2471:X 0.000319112
3 *47:8 0.000319112
4 *47:8 *2626:CLK 0.000147908
5 *47:8 *408:6 2.30292e-05
6 *47:8 *634:170 0.000110385
*RES
1 *2471:X *47:8 29.8823 
2 *47:8 *2626:D 23 
*END

*D_NET *48 0.00101838
*CONN
*I *2627:D I *D sky130_fd_sc_hd__dfxtp_1
*I *2472:X O *D sky130_fd_sc_hd__mux2_1
*CAP
1 *2627:D 1.5148e-05
2 *2472:X 0.000195453
3 *48:10 0.000210601
4 *2627:D *292:18 3.24476e-06
5 *48:10 *356:14 8.41115e-05
6 *48:10 *356:20 8.51329e-05
7 *48:10 *626:24 9.67842e-05
8 *48:10 *662:76 0.000327903
*RES
1 *2472:X *48:10 43.4686 
2 *48:10 *2627:D 38.1916 
*END

*D_NET *49 0.00104895
*CONN
*I *2628:D I *D sky130_fd_sc_hd__dfxtp_1
*I *2473:X O *D sky130_fd_sc_hd__mux2_1
*CAP
1 *2628:D 8.6849e-05
2 *2473:X 0.000181606
3 *49:8 0.000268455
4 *2628:D *355:90 0.000191382
5 *49:8 *339:36 0
6 *49:8 *634:115 0.000320661
*RES
1 *2473:X *49:8 42.3707 
2 *49:8 *2628:D 40.0973 
*END

*D_NET *50 0.000633738
*CONN
*I *2629:D I *D sky130_fd_sc_hd__dfxtp_1
*I *2474:X O *D sky130_fd_sc_hd__mux2_1
*CAP
1 *2629:D 6.18768e-05
2 *2474:X 0.000107771
3 *50:8 0.000169648
4 *2629:D *348:38 0.000100124
5 *50:8 *341:105 0.000194318
6 *50:8 *642:41 0
*RES
1 *2474:X *50:8 40.61 
2 *50:8 *2629:D 39.1445 
*END

*D_NET *51 0.00109249
*CONN
*I *2630:D I *D sky130_fd_sc_hd__dfxtp_1
*I *2475:X O *D sky130_fd_sc_hd__mux2_1
*CAP
1 *2630:D 0.000220798
2 *2475:X 8.62996e-05
3 *51:8 0.000307098
4 *2630:D *346:29 0.000233187
5 *2630:D *655:83 0.000174722
6 *51:8 *341:67 7.03869e-05
7 *51:8 *555:10 0
8 *51:8 *655:112 0
*RES
1 *2475:X *51:8 39.9057 
2 *51:8 *2630:D 43.4323 
*END

*D_NET *52 0.0013843
*CONN
*I *2631:D I *D sky130_fd_sc_hd__dfxtp_1
*I *2476:X O *D sky130_fd_sc_hd__mux2_1
*CAP
1 *2631:D 5.40042e-05
2 *2476:X 0.000388038
3 *52:8 0.000442042
4 *2631:D *329:38 0.00018878
5 *2631:D *334:41 6.87171e-05
6 *52:8 *2606:S 0.000119772
7 *52:8 *164:8 3.81391e-05
8 *52:8 *315:14 0
9 *52:8 *323:112 0
10 *52:8 *342:30 0
11 *52:8 *654:105 8.48085e-05
*RES
1 *2476:X *52:8 45.8921 
2 *52:8 *2631:D 40.0973 
*END

*D_NET *53 0.00110415
*CONN
*I *2632:D I *D sky130_fd_sc_hd__dfxtp_1
*I *2477:X O *D sky130_fd_sc_hd__mux2_1
*CAP
1 *2632:D 0.000103576
2 *2477:X 0.000170267
3 *53:8 0.000273843
4 *2632:D *2632:CLK 0.000146207
5 *2632:D *2648:CLK 4.08664e-05
6 *53:8 *165:12 2.39807e-05
7 *53:8 *323:120 0
8 *53:8 *353:106 0.000140958
9 *53:8 *353:128 0.000194309
10 *53:8 *652:22 1.01436e-05
*RES
1 *2477:X *53:8 42.3707 
2 *53:8 *2632:D 40.0973 
*END

*D_NET *54 0.000802908
*CONN
*I *2633:D I *D sky130_fd_sc_hd__dfxtp_1
*I *2480:X O *D sky130_fd_sc_hd__mux2_1
*CAP
1 *2633:D 0.000147559
2 *2480:X 5.242e-05
3 *54:8 0.000199979
4 *2633:D *399:14 0.000181125
5 *54:8 *316:14 0.000110913
6 *54:8 *677:87 0.000110913
*RES
1 *2480:X *54:8 39.5536 
2 *54:8 *2633:D 41.0502 
*END

*D_NET *55 0.00153453
*CONN
*I *2634:D I *D sky130_fd_sc_hd__dfxtp_1
*I *2481:X O *D sky130_fd_sc_hd__mux2_1
*CAP
1 *2634:D 7.14841e-06
2 *2481:X 0.000256601
3 *55:8 0.00026375
4 *2634:D *400:8 3.24476e-06
5 *2634:D *644:35 1.74843e-05
6 *55:8 *2427:A3 4.74809e-05
7 *55:8 *333:46 7.03481e-05
8 *55:8 *345:152 0.000606524
9 *55:8 *361:90 1.83667e-05
10 *55:8 *408:14 0.000243578
*RES
1 *2481:X *55:8 46.2443 
2 *55:8 *2634:D 38.1916 
*END

*D_NET *56 0.00126004
*CONN
*I *2635:D I *D sky130_fd_sc_hd__dfxtp_1
*I *2482:X O *D sky130_fd_sc_hd__mux2_1
*CAP
1 *2635:D 8.54969e-05
2 *2482:X 0.000162739
3 *56:8 0.000248236
4 *2635:D *562:25 0.000183564
5 *2635:D *626:24 5.77882e-05
6 *56:8 *325:93 6.53609e-05
7 *56:8 *393:20 8.06039e-05
8 *56:8 *603:8 0.000376252
*RES
1 *2482:X *56:8 43.075 
2 *56:8 *2635:D 40.0973 
*END

*D_NET *57 0.000605886
*CONN
*I *2636:D I *D sky130_fd_sc_hd__dfxtp_1
*I *2483:X O *D sky130_fd_sc_hd__mux2_1
*CAP
1 *2636:D 5.48656e-06
2 *2483:X 0.000193841
3 *57:10 0.000199327
4 *2636:D *2636:CLK 1.64354e-05
5 *2636:D *661:79 7.10068e-06
6 *57:10 *345:22 4.48671e-05
7 *57:10 *410:31 7.44354e-05
8 *57:10 *659:116 6.4393e-05
*RES
1 *2483:X *57:10 41.48 
2 *57:10 *2636:D 38.1916 
*END

*D_NET *58 0.000488398
*CONN
*I *2637:D I *D sky130_fd_sc_hd__dfxtp_1
*I *2484:X O *D sky130_fd_sc_hd__mux2_1
*CAP
1 *2637:D 9.26771e-06
2 *2484:X 5.66322e-05
3 *58:8 6.58999e-05
4 *2637:D *348:69 1.64354e-05
5 *2637:D *633:34 4.9054e-06
6 *58:8 *338:28 0.000166513
7 *58:8 *345:128 0.000168744
*RES
1 *2484:X *58:8 40.2579 
2 *58:8 *2637:D 38.1916 
*END

*D_NET *59 0.000687041
*CONN
*I *2638:D I *D sky130_fd_sc_hd__dfxtp_1
*I *2485:X O *D sky130_fd_sc_hd__mux2_1
*CAP
1 *2638:D 0.000170762
2 *2485:X 8.79171e-05
3 *59:8 0.000258679
4 *59:8 *2452:A1 0
5 *59:8 *2937:A 0
6 *59:8 *339:44 0.000169683
*RES
1 *2485:X *59:8 40.2579 
2 *59:8 *2638:D 40.5737 
*END

*D_NET *60 0.000496258
*CONN
*I *2639:D I *D sky130_fd_sc_hd__dfxtp_1
*I *2486:X O *D sky130_fd_sc_hd__mux2_1
*CAP
1 *2639:D 0.0001219
2 *2486:X 0.000126229
3 *60:8 0.000248129
4 *60:8 *357:153 0
5 *60:8 *515:8 0
*RES
1 *2486:X *60:8 40.2579 
2 *60:8 *2639:D 40.0973 
*END

*D_NET *61 0.000697869
*CONN
*I *2640:D I *D sky130_fd_sc_hd__dfxtp_1
*I *2487:X O *D sky130_fd_sc_hd__mux2_1
*CAP
1 *2640:D 3.83023e-05
2 *2487:X 9.45979e-05
3 *61:8 0.0001329
4 *2640:D *633:139 7.41637e-05
5 *2640:D *650:84 0.000191382
6 *61:8 *323:120 0
7 *61:8 *643:100 0.000166522
*RES
1 *2487:X *61:8 40.2579 
2 *61:8 *2640:D 40.0973 
*END

*D_NET *62 0.00193186
*CONN
*I *2641:D I *D sky130_fd_sc_hd__dfxtp_1
*I *2490:X O *D sky130_fd_sc_hd__mux2_1
*CAP
1 *2641:D 8.45249e-06
2 *2490:X 0.000681156
3 *62:10 0.000689609
4 *2641:D *359:82 1.64354e-05
5 *62:10 *86:10 0
6 *62:10 *323:74 9.33827e-05
7 *62:10 *327:26 6.07272e-05
8 *62:10 *332:18 3.21223e-05
9 *62:10 *359:66 2.76611e-06
10 *62:10 *643:126 0
11 *62:10 *643:145 0.000347205
*RES
1 *2490:X *62:10 48.585 
2 *62:10 *2641:D 38.1916 
*END

*D_NET *63 0.000902567
*CONN
*I *2642:D I *D sky130_fd_sc_hd__dfxtp_1
*I *2491:X O *D sky130_fd_sc_hd__mux2_1
*CAP
1 *2642:D 0.000127758
2 *2491:X 0.000114828
3 *63:10 0.000242587
4 *2642:D *2980:A 0.000151119
5 *63:10 *2491:A0 1.39431e-05
6 *63:10 *633:18 8.26569e-05
7 *63:10 *639:20 0.000169674
*RES
1 *2491:X *63:10 40.8793 
2 *63:10 *2642:D 41.0502 
*END

*D_NET *64 0.00105119
*CONN
*I *2643:D I *D sky130_fd_sc_hd__dfxtp_1
*I *2492:X O *D sky130_fd_sc_hd__mux2_1
*CAP
1 *2643:D 0.000126835
2 *2492:X 5.28031e-05
3 *64:8 0.000179638
4 *2643:D *2643:CLK 0.000230559
5 *2643:D *393:10 4.96717e-05
6 *2643:D *643:31 0.000132007
7 *64:8 *292:18 0.000138727
8 *64:8 *339:32 0.000140949
*RES
1 *2492:X *64:8 39.9057 
2 *64:8 *2643:D 42.003 
*END

*D_NET *65 0.00141525
*CONN
*I *2644:D I *D sky130_fd_sc_hd__dfxtp_1
*I *2493:X O *D sky130_fd_sc_hd__mux2_1
*CAP
1 *2644:D 8.87743e-05
2 *2493:X 0.000136597
3 *65:8 0.000225371
4 *2644:D *333:72 0.000227044
5 *2644:D *633:34 0.000270518
6 *65:8 *333:64 0.000296026
7 *65:8 *337:30 0.000159671
8 *65:8 *645:175 1.12487e-05
*RES
1 *2493:X *65:8 42.3707 
2 *65:8 *2644:D 41.0502 
*END

*D_NET *66 0.000375696
*CONN
*I *2645:D I *D sky130_fd_sc_hd__dfxtp_1
*I *2494:X O *D sky130_fd_sc_hd__mux2_1
*CAP
1 *2645:D 0.000102016
2 *2494:X 0.000102016
3 *2645:D *2494:A1 0.000171664
*RES
1 *2494:X *2645:D 48.3873 
*END

*D_NET *67 0.0010678
*CONN
*I *2646:D I *D sky130_fd_sc_hd__dfxtp_1
*I *2495:X O *D sky130_fd_sc_hd__mux2_1
*CAP
1 *2646:D 5.42613e-05
2 *2495:X 9.54163e-05
3 *67:8 0.000149678
4 *2646:D *3001:A 0.000212536
5 *2646:D *354:26 2.18409e-05
6 *2646:D *633:50 0.00025601
7 *67:8 *309:10 8.68903e-05
8 *67:8 *639:109 0.000191166
*RES
1 *2495:X *67:8 40.61 
2 *67:8 *2646:D 40.843 
*END

*D_NET *68 0.00107938
*CONN
*I *2647:D I *D sky130_fd_sc_hd__dfxtp_1
*I *2496:X O *D sky130_fd_sc_hd__mux2_1
*CAP
1 *2647:D 3.51255e-05
2 *2496:X 0.000297237
3 *68:8 0.000332363
4 *2647:D *2476:A0 0.000146207
5 *2647:D *646:166 5.6508e-05
6 *68:8 *2458:A3 6.93449e-05
7 *68:8 *323:96 9.28078e-06
8 *68:8 *323:112 0
9 *68:8 *397:12 0
10 *68:8 *405:12 0
11 *68:8 *643:178 0
12 *68:8 *646:172 0.000133316
13 *68:8 *654:16 0
14 *68:8 *654:105 0
*RES
1 *2496:X *68:8 43.075 
2 *68:8 *2647:D 39.6209 
*END

*D_NET *69 0.00161345
*CONN
*I *2648:D I *D sky130_fd_sc_hd__dfxtp_1
*I *2497:X O *D sky130_fd_sc_hd__mux2_1
*CAP
1 *2648:D 0.000250606
2 *2497:X 0.000119046
3 *69:8 0.000369652
4 *2648:D *2945:A 0.000141954
5 *2648:D *646:189 0.000126536
6 *2648:D *652:12 0.000224605
7 *2648:D *652:22 0.000353153
8 *69:8 *319:14 0
9 *69:8 *398:19 2.79004e-05
10 *69:8 *652:87 0
*RES
1 *2497:X *69:8 40.2579 
2 *69:8 *2648:D 45.338 
*END

*D_NET *70 0.000652564
*CONN
*I *2649:D I *D sky130_fd_sc_hd__dfxtp_1
*I *2500:X O *D sky130_fd_sc_hd__mux2_1
*CAP
1 *2649:D 1.26271e-05
2 *2500:X 0.000157761
3 *70:10 0.000170388
4 *2649:D *327:26 1.64354e-05
5 *70:10 *2787:CLK 9.4537e-06
6 *70:10 *2873:A 0.000185342
7 *70:10 *332:12 5.50049e-05
8 *70:10 *359:123 4.5553e-05
*RES
1 *2500:X *70:10 41.2314 
2 *70:10 *2649:D 38.1916 
*END

*D_NET *71 0.00152167
*CONN
*I *2650:D I *D sky130_fd_sc_hd__dfxtp_1
*I *2501:X O *D sky130_fd_sc_hd__mux2_1
*CAP
1 *2650:D 8.34493e-05
2 *2501:X 0.000267602
3 *71:8 0.000351051
4 *2650:D *361:12 4.17736e-05
5 *2650:D *361:16 0.000191382
6 *71:8 *332:153 0
7 *71:8 *342:67 0.000181585
8 *71:8 *361:66 0.000379413
9 *71:8 *535:8 2.5415e-05
*RES
1 *2501:X *71:8 45.54 
2 *71:8 *2650:D 40.5737 
*END

*D_NET *72 0.00082984
*CONN
*I *2651:D I *D sky130_fd_sc_hd__dfxtp_1
*I *2502:X O *D sky130_fd_sc_hd__mux2_1
*CAP
1 *2651:D 0.000103099
2 *2502:X 0.000189425
3 *72:8 0.000292524
4 *72:8 *88:8 0.000164291
5 *72:8 *336:77 8.05011e-05
6 *72:8 *356:51 0
*RES
1 *2502:X *72:8 42.3707 
2 *72:8 *2651:D 39.6209 
*END

*D_NET *73 0.00109316
*CONN
*I *2652:D I *D sky130_fd_sc_hd__dfxtp_1
*I *2503:X O *D sky130_fd_sc_hd__mux2_1
*CAP
1 *2652:D 6.80953e-05
2 *2503:X 0.000251638
3 *73:8 0.000319733
4 *2652:D *2684:CLK 0.000146207
5 *73:8 *2441:A2 0.000116324
6 *73:8 *2928:A 7.70737e-05
7 *73:8 *354:56 0
8 *73:8 *573:12 0
9 *73:8 *573:18 0.000114092
*RES
1 *2503:X *73:8 43.4271 
2 *73:8 *2652:D 39.6209 
*END

*D_NET *74 0.000897359
*CONN
*I *2653:D I *D sky130_fd_sc_hd__dfxtp_1
*I *2504:X O *D sky130_fd_sc_hd__mux2_1
*CAP
1 *2653:D 1.13183e-05
2 *2504:X 0.000324451
3 *74:10 0.000335769
4 *2653:D *347:65 1.64354e-05
5 *74:10 *170:10 8.43721e-05
6 *74:10 *329:145 0.000125013
7 *74:10 *628:12 0
*RES
1 *2504:X *74:10 44.6493 
2 *74:10 *2653:D 38.1916 
*END

*D_NET *75 0.00117478
*CONN
*I *2654:D I *D sky130_fd_sc_hd__dfxtp_1
*I *2505:X O *D sky130_fd_sc_hd__mux2_1
*CAP
1 *2654:D 0
2 *2505:X 0.000501629
3 *75:10 0.000501629
4 *75:10 *2654:CLK 5.92579e-05
5 *75:10 *310:22 1.21972e-05
6 *75:10 *655:20 0.000100069
*RES
1 *2505:X *75:10 30.3795 
2 *75:10 *2654:D 23 
*END

*D_NET *76 0.000895055
*CONN
*I *2655:D I *D sky130_fd_sc_hd__dfxtp_1
*I *2506:X O *D sky130_fd_sc_hd__mux2_1
*CAP
1 *2655:D 0
2 *2506:X 0.000371641
3 *76:10 0.000371641
4 *76:10 *389:8 5.67058e-05
5 *76:10 *653:25 4.21012e-05
6 *76:10 *653:43 5.29672e-05
*RES
1 *2506:X *76:10 30.3795 
2 *76:10 *2655:D 23 
*END

*D_NET *77 0.00113246
*CONN
*I *2656:D I *D sky130_fd_sc_hd__dfxtp_1
*I *2507:X O *D sky130_fd_sc_hd__mux2_1
*CAP
1 *2656:D 4.92943e-05
2 *2507:X 0.000437755
3 *77:8 0.00048705
4 *2656:D *353:26 0.000102732
5 *77:8 *2906:A 0
6 *77:8 *93:8 5.56306e-05
7 *77:8 *332:72 0
8 *77:8 *353:30 0
9 *77:8 *353:39 0
10 *77:8 *390:10 0
11 *77:8 *651:71 0
*RES
1 *2507:X *77:8 46.2443 
2 *77:8 *2656:D 39.1445 
*END

*D_NET *78 0.00153992
*CONN
*I *2657:D I *D sky130_fd_sc_hd__dfxtp_1
*I *2510:X O *D sky130_fd_sc_hd__mux2_1
*CAP
1 *2657:D 0.000151424
2 *2510:X 0.000267623
3 *78:10 0.000419047
4 *2657:D *2657:CLK 3.12775e-05
5 *2657:D *333:24 0.000143767
6 *2657:D *340:10 0.000137651
7 *2657:D *648:117 5.53001e-05
8 *78:10 *331:27 7.43348e-05
9 *78:10 *333:12 1.62648e-05
10 *78:10 *517:10 8.62876e-05
11 *78:10 *648:111 0.000156945
*RES
1 *2510:X *78:10 42.3086 
2 *78:10 *2657:D 42.0186 
*END

*D_NET *79 0.000690845
*CONN
*I *2658:D I *D sky130_fd_sc_hd__dfxtp_1
*I *2511:X O *D sky130_fd_sc_hd__mux2_1
*CAP
1 *2658:D 3.59816e-05
2 *2511:X 5.23918e-05
3 *79:8 8.83734e-05
4 *2658:D *285:24 0.00014698
5 *2658:D *642:33 0.000145274
6 *79:8 *338:18 0.000110922
7 *79:8 *665:46 0.000110922
*RES
1 *2511:X *79:8 39.5536 
2 *79:8 *2658:D 39.6209 
*END

*D_NET *80 0.00165447
*CONN
*I *2659:D I *D sky130_fd_sc_hd__dfxtp_1
*I *2512:X O *D sky130_fd_sc_hd__mux2_1
*CAP
1 *2659:D 1.13183e-05
2 *2512:X 0.000441463
3 *80:10 0.000452782
4 *2659:D *361:26 1.64354e-05
5 *80:10 *3000:A 0
6 *80:10 *331:56 5.70419e-05
7 *80:10 *345:72 0.000585051
8 *80:10 *369:14 0
9 *80:10 *425:10 0
10 *80:10 *650:76 9.03784e-05
*RES
1 *2512:X *80:10 46.99 
2 *80:10 *2659:D 38.1916 
*END

*D_NET *81 0.00165543
*CONN
*I *2660:D I *D sky130_fd_sc_hd__dfxtp_1
*I *2513:X O *D sky130_fd_sc_hd__mux2_1
*CAP
1 *2660:D 1.26271e-05
2 *2513:X 0.000675092
3 *81:10 0.000687719
4 *2660:D *333:136 1.64354e-05
5 *81:10 *329:107 0
6 *81:10 *333:136 9.04083e-05
7 *81:10 *342:117 0.000118143
8 *81:10 *659:77 5.50049e-05
*RES
1 *2513:X *81:10 49.1443 
2 *81:10 *2660:D 38.1916 
*END

*D_NET *82 0.00135865
*CONN
*I *2661:D I *D sky130_fd_sc_hd__dfxtp_1
*I *2514:X O *D sky130_fd_sc_hd__mux2_1
*CAP
1 *2661:D 7.21914e-05
2 *2514:X 0.000425391
3 *82:8 0.000497582
4 *2661:D *2532:A1 0.000143599
5 *82:8 *2445:S1 0
6 *82:8 *303:14 0.000219882
7 *82:8 *305:12 0
8 *82:8 *331:102 0
9 *82:8 *642:119 0
*RES
1 *2514:X *82:8 45.8921 
2 *82:8 *2661:D 39.6209 
*END

*D_NET *83 0.00124491
*CONN
*I *2662:D I *D sky130_fd_sc_hd__dfxtp_1
*I *2515:X O *D sky130_fd_sc_hd__mux2_1
*CAP
1 *2662:D 5.62016e-05
2 *2515:X 0.000146005
3 *83:8 0.000202206
4 *2662:D *2662:CLK 0.000143655
5 *2662:D *329:123 3.54023e-05
6 *2662:D *428:10 0.000215955
7 *83:8 *2451:A1 0.000194318
8 *83:8 *354:38 6.01556e-05
9 *83:8 *354:40 7.91596e-05
10 *83:8 *428:10 0.000111852
11 *83:8 *645:127 0
*RES
1 *2515:X *83:8 42.3707 
2 *83:8 *2662:D 40.843 
*END

*D_NET *84 0.000698623
*CONN
*I *2663:D I *D sky130_fd_sc_hd__dfxtp_1
*I *2516:X O *D sky130_fd_sc_hd__mux2_1
*CAP
1 *2663:D 5.08616e-05
2 *2516:X 0.000120835
3 *84:8 0.000171696
4 *2663:D *336:65 5.10495e-05
5 *2663:D *359:14 0.000143599
6 *84:8 *644:59 0.000160582
7 *84:8 *646:54 0
*RES
1 *2516:X *84:8 40.2579 
2 *84:8 *2663:D 39.6209 
*END

*D_NET *85 0.000412663
*CONN
*I *2664:D I *D sky130_fd_sc_hd__dfxtp_1
*I *2517:X O *D sky130_fd_sc_hd__mux2_1
*CAP
1 *2664:D 2.97856e-05
2 *2517:X 0.000110916
3 *85:8 0.000140702
4 *2664:D *323:151 0.000102732
5 *2664:D *632:26 2.85261e-05
6 *85:8 *325:97 0
7 *85:8 *513:10 0
*RES
1 *2517:X *85:8 39.5536 
2 *85:8 *2664:D 39.1445 
*END

*D_NET *86 0.00105265
*CONN
*I *2665:D I *D sky130_fd_sc_hd__dfxtp_1
*I *2519:X O *D sky130_fd_sc_hd__mux2_1
*CAP
1 *2665:D 8.45249e-06
2 *2519:X 0.000316234
3 *86:10 0.000324687
4 *2665:D *359:123 1.64354e-05
5 *86:10 *2500:S 0.000215791
6 *86:10 *323:54 5.50106e-05
7 *86:10 *323:62 8.4047e-05
8 *86:10 *327:26 2.02872e-05
9 *86:10 *359:123 1.17049e-05
10 *62:10 *86:10 0
*RES
1 *2519:X *86:10 43.8207 
2 *86:10 *2665:D 38.1916 
*END

*D_NET *87 0.000615644
*CONN
*I *2666:D I *D sky130_fd_sc_hd__dfxtp_1
*I *2520:X O *D sky130_fd_sc_hd__mux2_1
*CAP
1 *2666:D 6.92829e-05
2 *2520:X 0.000100277
3 *87:8 0.000169559
4 *2666:D *644:49 0.000191382
5 *87:8 *337:28 8.51432e-05
6 *87:8 *643:23 0
*RES
1 *2520:X *87:8 40.2579 
2 *87:8 *2666:D 40.0973 
*END

*D_NET *88 0.00117852
*CONN
*I *2667:D I *D sky130_fd_sc_hd__dfxtp_1
*I *2521:X O *D sky130_fd_sc_hd__mux2_1
*CAP
1 *2667:D 8.22113e-05
2 *2521:X 0.000153976
3 *88:8 0.000236187
4 *2667:D *356:41 0.000187073
5 *88:8 *336:77 0.000354778
6 *88:8 *356:51 0
7 *72:8 *88:8 0.000164291
*RES
1 *2521:X *88:8 42.7229 
2 *88:8 *2667:D 40.0973 
*END

*D_NET *89 0.000386518
*CONN
*I *2668:D I *D sky130_fd_sc_hd__dfxtp_1
*I *2522:X O *D sky130_fd_sc_hd__mux2_1
*CAP
1 *2668:D 4.9247e-05
2 *2522:X 9.17955e-05
3 *89:8 0.000141042
4 *2668:D *342:101 0.000104433
5 *89:8 *354:42 0
6 *89:8 *573:18 0
*RES
1 *2522:X *89:8 39.5536 
2 *89:8 *2668:D 39.1445 
*END

*D_NET *90 0.000902737
*CONN
*I *2669:D I *D sky130_fd_sc_hd__dfxtp_1
*I *2523:X O *D sky130_fd_sc_hd__mux2_1
*CAP
1 *2669:D 8.45249e-06
2 *2523:X 0.000371991
3 *90:10 0.000380443
4 *2669:D *2669:CLK 1.64354e-05
5 *90:10 *332:105 0.000125416
6 *90:10 *628:12 0
*RES
1 *2523:X *90:10 43.3857 
2 *90:10 *2669:D 38.1916 
*END

*D_NET *91 0.00100955
*CONN
*I *2670:D I *D sky130_fd_sc_hd__dfxtp_1
*I *2524:X O *D sky130_fd_sc_hd__mux2_1
*CAP
1 *2670:D 4.55262e-05
2 *2524:X 0.000235504
3 *91:10 0.00028103
4 *2670:D *2718:CLK 8.41382e-05
5 *91:10 *310:8 0
6 *91:10 *332:80 2.93845e-05
7 *91:10 *346:69 0.000141888
8 *91:10 *346:71 0.000192077
9 *91:10 *655:20 0
*RES
1 *2524:X *91:10 42.9921 
2 *91:10 *2670:D 38.9373 
*END

*D_NET *92 0.000490525
*CONN
*I *2671:D I *D sky130_fd_sc_hd__dfxtp_1
*I *2525:X O *D sky130_fd_sc_hd__mux2_1
*CAP
1 *2671:D 0.000117549
2 *2525:X 9.96431e-05
3 *92:8 0.000217192
4 *92:8 *2671:CLK 0
5 *92:8 *332:48 5.61414e-05
*RES
1 *2525:X *92:8 40.2579 
2 *92:8 *2671:D 40.0973 
*END

*D_NET *93 0.00049102
*CONN
*I *2672:D I *D sky130_fd_sc_hd__dfxtp_1
*I *2526:X O *D sky130_fd_sc_hd__mux2_1
*CAP
1 *2672:D 0.000139587
2 *2526:X 6.02756e-05
3 *93:8 0.000199863
4 *93:8 *2906:A 2.36844e-05
5 *93:8 *390:10 1.19796e-05
6 *77:8 *93:8 5.56306e-05
*RES
1 *2526:X *93:8 39.5536 
2 *93:8 *2672:D 40.0973 
*END

*D_NET *94 0.00124431
*CONN
*I *2673:D I *D sky130_fd_sc_hd__dfxtp_1
*I *2528:X O *D sky130_fd_sc_hd__mux2_1
*CAP
1 *2673:D 8.77079e-06
2 *2528:X 0.000207371
3 *94:10 0.000216142
4 *2673:D *666:106 1.74843e-05
5 *94:10 *2657:CLK 5.3304e-05
6 *94:10 *340:10 2.05503e-05
7 *94:10 *340:16 0.000355818
8 *94:10 *648:111 0.000364866
*RES
1 *2528:X *94:10 43.6964 
2 *94:10 *2673:D 38.1916 
*END

*D_NET *95 0.00112136
*CONN
*I *2674:D I *D sky130_fd_sc_hd__dfxtp_1
*I *2529:X O *D sky130_fd_sc_hd__mux2_1
*CAP
1 *2674:D 0.000169844
2 *2529:X 0.000187715
3 *95:10 0.000357559
4 *2674:D *368:14 6.82582e-05
5 *95:10 *2425:A1 1.14154e-05
6 *95:10 *331:100 0.000246748
7 *95:10 *633:18 7.98155e-05
*RES
1 *2529:X *95:10 42.1636 
2 *95:10 *2674:D 40.5737 
*END

*D_NET *96 0.00120639
*CONN
*I *2675:D I *D sky130_fd_sc_hd__dfxtp_1
*I *2530:X O *D sky130_fd_sc_hd__mux2_1
*CAP
1 *2675:D 0.000114215
2 *2530:X 6.04749e-05
3 *96:8 0.00017469
4 *2675:D *369:14 2.20111e-05
5 *2675:D *663:69 0.00027468
6 *96:8 *3000:A 0.000110922
7 *96:8 *650:66 5.21127e-05
8 *28:17 *2675:D 0.000397279
*RES
1 *2530:X *96:8 39.5536 
2 *96:8 *2675:D 42.4795 
*END

*D_NET *97 0.000767955
*CONN
*I *2676:D I *D sky130_fd_sc_hd__dfxtp_1
*I *2531:X O *D sky130_fd_sc_hd__mux2_1
*CAP
1 *2676:D 7.21662e-05
2 *2531:X 6.96504e-05
3 *97:8 0.000141817
4 *2676:D *331:108 0.000186829
5 *2676:D *370:10 4.93341e-05
6 *97:8 *329:107 0.000166522
7 *97:8 *659:77 8.16356e-05
*RES
1 *2531:X *97:8 40.2579 
2 *97:8 *2676:D 40.0973 
*END

*D_NET *98 0.00148407
*CONN
*I *2677:D I *D sky130_fd_sc_hd__dfxtp_1
*I *2532:X O *D sky130_fd_sc_hd__mux2_1
*CAP
1 *2677:D 8.86788e-05
2 *2532:X 0.000129781
3 *98:8 0.000218459
4 *2677:D *333:122 6.59525e-05
5 *2677:D *443:10 0.000358369
6 *2677:D *642:111 0.000139352
7 *98:8 *331:102 0.000159661
8 *98:8 *333:122 0.000323822
*RES
1 *2532:X *98:8 42.3707 
2 *98:8 *2677:D 42.003 
*END

*D_NET *99 0.00103053
*CONN
*I *2678:D I *D sky130_fd_sc_hd__dfxtp_1
*I *2533:X O *D sky130_fd_sc_hd__mux2_1
*CAP
1 *2678:D 1.01088e-05
2 *2533:X 0.000318886
3 *99:10 0.000328995
4 *2678:D *2678:CLK 1.64354e-05
5 *99:10 *2451:A1 7.70598e-05
6 *99:10 *354:38 0
7 *99:10 *428:10 2.76611e-06
8 *99:10 *645:121 5.36457e-05
9 *99:10 *645:127 7.62842e-05
10 *99:10 *656:32 7.59794e-05
11 *99:10 *656:44 7.03663e-05
*RES
1 *2533:X *99:10 45.0014 
2 *99:10 *2678:D 38.1916 
*END

*D_NET *100 0.00110085
*CONN
*I *2679:D I *D sky130_fd_sc_hd__dfxtp_1
*I *2534:X O *D sky130_fd_sc_hd__mux2_1
*CAP
1 *2679:D 0
2 *2534:X 0.00022013
3 *100:8 0.00022013
4 *100:8 *646:48 0.000447926
5 *100:8 *654:32 0.000129828
6 *100:8 *654:64 8.2832e-05
*RES
1 *2534:X *100:8 30.3587 
2 *100:8 *2679:D 23 
*END

*D_NET *101 0.000394968
*CONN
*I *2680:D I *D sky130_fd_sc_hd__dfxtp_1
*I *2535:X O *D sky130_fd_sc_hd__mux2_1
*CAP
1 *2680:D 5.48656e-06
2 *2535:X 0.000140607
3 *101:10 0.000146094
4 *2680:D *2908:A 1.64354e-05
5 *2680:D *339:40 7.10068e-06
6 *101:10 *2535:A1 1.39431e-05
7 *101:10 *374:25 2.5415e-05
8 *101:10 *637:104 0
9 *101:10 *639:109 3.98859e-05
*RES
1 *2535:X *101:10 40.5271 
2 *101:10 *2680:D 38.1916 
*END

*D_NET *102 0.000809641
*CONN
*I *2681:D I *D sky130_fd_sc_hd__dfxtp_1
*I *2537:X O *D sky130_fd_sc_hd__mux2_1
*CAP
1 *2681:D 3.54851e-05
2 *2537:X 0.000174294
3 *102:8 0.000209779
4 *2681:D *350:64 2.47564e-05
5 *2681:D *644:95 3.47095e-05
6 *102:8 *264:20 8.82421e-05
7 *102:8 *334:12 0
8 *102:8 *342:16 6.07611e-06
9 *102:8 *383:25 0.000140949
10 *102:8 *648:138 9.53499e-05
*RES
1 *2537:X *102:8 42.3707 
2 *102:8 *2681:D 39.1652 
*END

*D_NET *103 0.00122451
*CONN
*I *2682:D I *D sky130_fd_sc_hd__dfxtp_1
*I *2538:X O *D sky130_fd_sc_hd__mux2_1
*CAP
1 *2682:D 8.45249e-06
2 *2538:X 0.000270294
3 *103:10 0.000278747
4 *2682:D *361:12 1.64354e-05
5 *103:10 *340:16 0.000343054
6 *103:10 *488:35 0.000137651
7 *103:10 *664:54 0.000169878
*RES
1 *2538:X *103:10 44.2971 
2 *103:10 *2682:D 38.1916 
*END

*D_NET *104 0.00118237
*CONN
*I *2683:D I *D sky130_fd_sc_hd__dfxtp_1
*I *2539:X O *D sky130_fd_sc_hd__mux2_1
*CAP
1 *2683:D 0
2 *2539:X 0.000296862
3 *104:8 0.000296862
4 *104:8 *334:74 0
5 *104:8 *356:39 0.000588648
*RES
1 *2539:X *104:8 30.2345 
2 *104:8 *2683:D 23 
*END

*D_NET *105 0.000564832
*CONN
*I *2684:D I *D sky130_fd_sc_hd__dfxtp_1
*I *2540:X O *D sky130_fd_sc_hd__mux2_1
*CAP
1 *2684:D 0.000177717
2 *2540:X 9.53785e-05
3 *105:8 0.000273096
4 *2684:D *386:14 1.86404e-05
5 *105:8 *169:8 0
6 *105:8 *490:10 0
*RES
1 *2540:X *105:8 39.5536 
2 *105:8 *2684:D 41.0502 
*END

*D_NET *106 0.000600218
*CONN
*I *2685:D I *D sky130_fd_sc_hd__dfxtp_1
*I *2541:X O *D sky130_fd_sc_hd__mux2_1
*CAP
1 *2685:D 1.58638e-05
2 *2541:X 0.000170203
3 *106:10 0.000186066
4 *106:10 *2541:A0 3.52383e-05
5 *106:10 *387:25 2.54046e-05
6 *106:10 *584:25 0.000167443
7 *106:10 *657:32 0
*RES
1 *2541:X *106:10 41.3557 
2 *106:10 *2685:D 38.1916 
*END

*D_NET *107 0.000403312
*CONN
*I *2686:D I *D sky130_fd_sc_hd__dfxtp_1
*I *2542:X O *D sky130_fd_sc_hd__mux2_1
*CAP
1 *2686:D 0.000104061
2 *2542:X 7.97676e-05
3 *107:8 0.000183829
4 *107:8 *334:76 3.56537e-05
*RES
1 *2542:X *107:8 39.5536 
2 *107:8 *2686:D 39.6209 
*END

*D_NET *108 0.00111945
*CONN
*I *2687:D I *D sky130_fd_sc_hd__dfxtp_1
*I *2543:X O *D sky130_fd_sc_hd__mux2_1
*CAP
1 *2687:D 6.80147e-05
2 *2543:X 0.000380022
3 *108:18 0.000448037
4 *2687:D *332:42 2.80822e-05
5 *2687:D *357:133 0.000105058
6 *108:18 *2459:A1 2.5415e-05
7 *108:18 *2459:S0 6.86315e-06
8 *108:18 *653:56 5.79559e-05
*RES
1 *2543:X *108:18 45.2293 
2 *108:18 *2687:D 39.6209 
*END

*D_NET *109 0.00105075
*CONN
*I *2688:D I *D sky130_fd_sc_hd__dfxtp_1
*I *2544:X O *D sky130_fd_sc_hd__mux2_1
*CAP
1 *2688:D 7.49886e-06
2 *2544:X 0.000371205
3 *109:14 0.000378704
4 *2688:D *320:20 4.9054e-06
5 *2688:D *353:22 9.92992e-06
6 *109:14 *173:8 0
7 *109:14 *336:92 0
8 *109:14 *382:33 2.79167e-05
9 *109:14 *390:18 6.48049e-05
10 *109:14 *641:96 0.000107241
11 *109:14 *651:65 7.85467e-05
*RES
1 *2544:X *109:14 44.9393 
2 *109:14 *2688:D 38.1916 
*END

*D_NET *110 0.000423264
*CONN
*I *2689:D I *D sky130_fd_sc_hd__dfxtp_1
*I *2547:X O *D sky130_fd_sc_hd__mux2_1
*CAP
1 *2689:D 4.81616e-05
2 *2547:X 8.70232e-05
3 *110:8 0.000135185
4 *2689:D *646:82 0.000100782
5 *110:8 *327:49 5.21127e-05
6 *110:8 *336:57 0
*RES
1 *2547:X *110:8 39.5536 
2 *110:8 *2689:D 39.1445 
*END

*D_NET *111 0.000409131
*CONN
*I *2690:D I *D sky130_fd_sc_hd__dfxtp_1
*I *2548:X O *D sky130_fd_sc_hd__mux2_1
*CAP
1 *2690:D 1.13183e-05
2 *2548:X 0.000151241
3 *111:10 0.000162559
4 *2690:D *2690:CLK 1.64354e-05
5 *111:10 *2557:A0 1.39317e-05
6 *111:10 *337:28 0
7 *111:10 *543:8 5.36457e-05
*RES
1 *2548:X *111:10 40.8793 
2 *111:10 *2690:D 38.1916 
*END

*D_NET *112 0.000662636
*CONN
*I *2691:D I *D sky130_fd_sc_hd__dfxtp_1
*I *2549:X O *D sky130_fd_sc_hd__mux2_1
*CAP
1 *2691:D 0.000145101
2 *2549:X 5.88038e-05
3 *112:8 0.000203904
4 *112:8 *2549:A0 8.51432e-05
5 *112:8 *332:48 0.000169683
*RES
1 *2549:X *112:8 40.2579 
2 *112:8 *2691:D 40.0973 
*END

*D_NET *113 0.000840152
*CONN
*I *2692:D I *D sky130_fd_sc_hd__dfxtp_1
*I *2550:X O *D sky130_fd_sc_hd__mux2_1
*CAP
1 *2692:D 5.48656e-06
2 *2550:X 0.000386678
3 *113:10 0.000392164
4 *2692:D *355:29 1.64354e-05
5 *2692:D *641:34 7.10068e-06
6 *113:10 *2804:A 3.22879e-05
7 *113:10 *634:115 0
8 *113:10 *669:56 0
*RES
1 *2550:X *113:10 43.3857 
2 *113:10 *2692:D 38.1916 
*END

*D_NET *114 0.000954155
*CONN
*I *2693:D I *D sky130_fd_sc_hd__dfxtp_1
*I *2551:X O *D sky130_fd_sc_hd__mux2_1
*CAP
1 *2693:D 8.68963e-05
2 *2551:X 0.000295341
3 *114:8 0.000382237
4 *2693:D *347:12 0.000189681
5 *114:8 *329:107 0
6 *114:8 *347:18 0
7 *114:8 *658:33 0
*RES
1 *2551:X *114:8 43.4271 
2 *114:8 *2693:D 40.0973 
*END

*D_NET *115 0.00097161
*CONN
*I *2694:D I *D sky130_fd_sc_hd__dfxtp_1
*I *2552:X O *D sky130_fd_sc_hd__mux2_1
*CAP
1 *2694:D 0.00011828
2 *2552:X 6.68916e-05
3 *115:8 0.000185171
4 *2694:D *346:39 0.000230548
5 *115:8 *332:72 0.000194318
6 *115:8 *346:37 0.000169683
7 *115:8 *655:100 6.7177e-06
*RES
1 *2552:X *115:8 40.61 
2 *115:8 *2694:D 40.5737 
*END

*D_NET *116 0.000660185
*CONN
*I *2695:D I *D sky130_fd_sc_hd__dfxtp_1
*I *2553:X O *D sky130_fd_sc_hd__mux2_1
*CAP
1 *2695:D 0.000109781
2 *2553:X 7.59234e-05
3 *116:8 0.000185704
4 *2695:D *357:30 0.000233156
5 *116:8 *332:48 5.56203e-05
*RES
1 *2553:X *116:8 39.5536 
2 *116:8 *2695:D 40.5737 
*END

*D_NET *117 0.000754886
*CONN
*I *2696:D I *D sky130_fd_sc_hd__dfxtp_1
*I *2554:X O *D sky130_fd_sc_hd__mux2_1
*CAP
1 *2696:D 8.80966e-05
2 *2554:X 8.79312e-05
3 *117:8 0.000176028
4 *2696:D *2729:CLK 0.000233156
5 *117:8 *2704:CLK 0
6 *117:8 *336:77 0.000169674
7 *117:8 *353:39 0
*RES
1 *2554:X *117:8 40.2579 
2 *117:8 *2696:D 40.5737 
*END

*D_NET *118 0.000488754
*CONN
*I *2697:D I *D sky130_fd_sc_hd__dfxtp_1
*I *2556:X O *D sky130_fd_sc_hd__mux2_1
*CAP
1 *2697:D 6.59741e-05
2 *2556:X 5.34725e-05
3 *118:8 0.000119447
4 *2697:D *358:61 0.000100124
5 *118:8 *327:49 0.000114083
6 *118:8 *358:61 3.56537e-05
*RES
1 *2556:X *118:8 39.5536 
2 *118:8 *2697:D 39.1445 
*END

*D_NET *119 0.000505947
*CONN
*I *2698:D I *D sky130_fd_sc_hd__dfxtp_1
*I *2557:X O *D sky130_fd_sc_hd__mux2_1
*CAP
1 *2698:D 2.62104e-05
2 *2557:X 6.16572e-05
3 *119:8 8.78677e-05
4 *2698:D *2698:CLK 3.44735e-05
5 *2698:D *642:64 8.79002e-05
6 *119:8 *333:64 0.000140958
7 *119:8 *337:30 6.68793e-05
*RES
1 *2557:X *119:8 39.9057 
2 *119:8 *2698:D 38.9943 
*END

*D_NET *120 0.00111196
*CONN
*I *2699:D I *D sky130_fd_sc_hd__dfxtp_1
*I *2558:X O *D sky130_fd_sc_hd__mux2_1
*CAP
1 *2699:D 0
2 *2558:X 0.000260585
3 *120:8 0.000260585
4 *120:8 *2558:A1 9.01041e-05
5 *120:8 *2699:CLK 6.09588e-05
6 *120:8 *356:117 0.000439728
*RES
1 *2558:X *120:8 30.2345 
2 *120:8 *2699:D 23 
*END

*D_NET *121 0.00155021
*CONN
*I *2700:D I *D sky130_fd_sc_hd__dfxtp_1
*I *2559:X O *D sky130_fd_sc_hd__mux2_1
*CAP
1 *2700:D 0.000116655
2 *2559:X 0.000175152
3 *121:10 0.000291806
4 *2700:D *633:50 0.0004914
5 *2700:D *634:98 0.000314157
6 *121:10 *639:105 1.57571e-05
7 *121:10 *645:16 1.01436e-05
8 *121:10 *661:16 2.64616e-05
9 *121:10 *661:47 0.000108681
*RES
1 *2559:X *121:10 40.6514 
2 *121:10 *2700:D 43.4323 
*END

*D_NET *122 0.000560085
*CONN
*I *2701:D I *D sky130_fd_sc_hd__dfxtp_1
*I *2560:X O *D sky130_fd_sc_hd__mux2_1
*CAP
1 *2701:D 0.000142786
2 *2560:X 7.59388e-05
3 *122:8 0.000218725
4 *2701:D *639:73 8.51101e-05
5 *122:8 *347:18 0
6 *122:8 *628:23 3.14481e-05
7 *122:8 *658:33 6.07611e-06
*RES
1 *2560:X *122:8 39.5536 
2 *122:8 *2701:D 41.0502 
*END

*D_NET *123 0.000688546
*CONN
*I *2702:D I *D sky130_fd_sc_hd__dfxtp_1
*I *2561:X O *D sky130_fd_sc_hd__mux2_1
*CAP
1 *2702:D 0.000173194
2 *2561:X 8.62421e-05
3 *123:8 0.000259436
4 *123:8 *332:72 0.000169674
5 *123:8 *346:47 0
*RES
1 *2561:X *123:8 40.2579 
2 *123:8 *2702:D 41.0502 
*END

*D_NET *124 0.000439967
*CONN
*I *2703:D I *D sky130_fd_sc_hd__dfxtp_1
*I *2562:X O *D sky130_fd_sc_hd__mux2_1
*CAP
1 *2703:D 0.000125971
2 *2562:X 7.61803e-05
3 *124:8 0.000202151
4 *124:8 *332:48 3.5664e-05
5 *124:8 *357:43 0
*RES
1 *2562:X *124:8 39.5536 
2 *124:8 *2703:D 40.0973 
*END

*D_NET *125 0.000590122
*CONN
*I *2704:D I *D sky130_fd_sc_hd__dfxtp_1
*I *2563:X O *D sky130_fd_sc_hd__mux2_1
*CAP
1 *2704:D 0.0001219
2 *2563:X 8.83236e-05
3 *125:8 0.000210224
4 *125:8 *2704:CLK 0
5 *125:8 *618:10 0.000169674
*RES
1 *2563:X *125:8 40.2579 
2 *125:8 *2704:D 40.0973 
*END

*D_NET *126 0.000673937
*CONN
*I *2705:D I *D sky130_fd_sc_hd__dfxtp_1
*I *2565:X O *D sky130_fd_sc_hd__mux2_1
*CAP
1 *2705:D 1.36537e-05
2 *2565:X 0.000159874
3 *126:10 0.000173527
4 *126:10 *332:153 7.76364e-06
5 *126:10 *337:28 0.000114074
6 *126:10 *337:79 9.84794e-05
7 *126:10 *503:10 8.62783e-05
8 *126:10 *666:86 2.02872e-05
*RES
1 *2565:X *126:10 41.1279 
2 *126:10 *2705:D 38.1916 
*END

*D_NET *127 0.00120298
*CONN
*I *2706:D I *D sky130_fd_sc_hd__dfxtp_1
*I *2566:X O *D sky130_fd_sc_hd__mux2_1
*CAP
1 *2706:D 0
2 *2566:X 0.000314067
3 *127:8 0.000314067
4 *127:8 *647:122 0.000574845
*RES
1 *2566:X *127:8 29.8823 
2 *127:8 *2706:D 23 
*END

*D_NET *128 0.000535519
*CONN
*I *2707:D I *D sky130_fd_sc_hd__dfxtp_1
*I *2567:X O *D sky130_fd_sc_hd__mux2_1
*CAP
1 *2707:D 9.17034e-05
2 *2567:X 9.67411e-05
3 *128:8 0.000188445
4 *128:8 *339:36 8.51329e-05
5 *128:8 *663:43 0
6 *28:17 *2707:D 7.34972e-05
*RES
1 *2567:X *128:8 40.2579 
2 *128:8 *2707:D 39.6209 
*END

*D_NET *129 0.000438276
*CONN
*I *2708:D I *D sky130_fd_sc_hd__dfxtp_1
*I *2568:X O *D sky130_fd_sc_hd__mux2_1
*CAP
1 *2708:D 6.27977e-05
2 *2568:X 6.03125e-05
3 *129:8 0.00012311
4 *2708:D *2533:S 0.000100782
5 *129:8 *573:18 5.56203e-05
6 *129:8 *630:20 3.56537e-05
*RES
1 *2568:X *129:8 39.5536 
2 *129:8 *2708:D 39.1445 
*END

*D_NET *130 0.00057873
*CONN
*I *2709:D I *D sky130_fd_sc_hd__dfxtp_1
*I *2569:X O *D sky130_fd_sc_hd__mux2_1
*CAP
1 *2709:D 6.80953e-05
2 *2569:X 0.000148166
3 *130:8 0.000216261
4 *2709:D *347:129 0.000146207
5 *130:8 *628:12 0
6 *130:8 *647:45 0
*RES
1 *2569:X *130:8 40.61 
2 *130:8 *2709:D 39.6209 
*END

*D_NET *131 0.000849005
*CONN
*I *2710:D I *D sky130_fd_sc_hd__dfxtp_1
*I *2570:X O *D sky130_fd_sc_hd__mux2_1
*CAP
1 *2710:D 0
2 *2570:X 0.000412988
3 *131:8 0.000412988
4 *131:8 *436:8 2.30292e-05
*RES
1 *2570:X *131:8 29.8823 
2 *131:8 *2710:D 23 
*END

*D_NET *132 0.000757167
*CONN
*I *2711:D I *D sky130_fd_sc_hd__dfxtp_1
*I *2571:X O *D sky130_fd_sc_hd__mux2_1
*CAP
1 *2711:D 7.71373e-05
2 *2571:X 7.29039e-05
3 *132:8 0.000150041
4 *2711:D *357:12 0.000144256
5 *2711:D *646:48 0.000228603
6 *132:8 *2571:A1 3.21223e-05
7 *132:8 *357:8 5.21024e-05
*RES
1 *2571:X *132:8 39.5536 
2 *132:8 *2711:D 40.5737 
*END

*D_NET *133 0.000520567
*CONN
*I *2712:D I *D sky130_fd_sc_hd__dfxtp_1
*I *2572:X O *D sky130_fd_sc_hd__mux2_1
*CAP
1 *2712:D 8.47477e-05
2 *2572:X 7.59234e-05
3 *133:8 0.000160671
4 *2712:D *353:102 0.000143604
5 *133:8 *323:130 0
6 *133:8 *341:67 5.56203e-05
*RES
1 *2572:X *133:8 39.5536 
2 *133:8 *2712:D 39.6209 
*END

*D_NET *134 0.00111359
*CONN
*I *2713:D I *D sky130_fd_sc_hd__dfxtp_1
*I *2574:X O *D sky130_fd_sc_hd__mux2_1
*CAP
1 *2713:D 0.000282981
2 *2574:X 7.70005e-05
3 *134:8 0.000359981
4 *2713:D *331:27 0.000175967
5 *134:8 *329:90 7.95478e-05
6 *134:8 *342:67 2.49592e-05
7 *134:8 *439:8 0.000113153
*RES
1 *2574:X *134:8 40.2579 
2 *134:8 *2713:D 43.4323 
*END

*D_NET *135 0.00228842
*CONN
*I *2714:D I *D sky130_fd_sc_hd__dfxtp_1
*I *2575:X O *D sky130_fd_sc_hd__mux2_1
*CAP
1 *2714:D 0.000187524
2 *2575:X 0.000349956
3 *135:10 0.00053748
4 *2714:D *2658:CLK 0.000527062
5 *2714:D *285:24 0.000137651
6 *2714:D *642:54 7.41637e-05
7 *135:10 *2958:A 0.000221084
8 *135:10 *285:24 2.1199e-05
9 *135:10 *325:34 4.66036e-05
10 *135:10 *432:6 9.84794e-05
11 *135:10 *440:12 8.72173e-05
*RES
1 *2575:X *135:10 43.7379 
2 *135:10 *2714:D 43.9087 
*END

*D_NET *136 0.000766173
*CONN
*I *2715:D I *D sky130_fd_sc_hd__dfxtp_1
*I *2576:X O *D sky130_fd_sc_hd__mux2_1
*CAP
1 *2715:D 4.62744e-06
2 *2576:X 0.000219866
3 *136:10 0.000224493
4 *2715:D *358:34 1.64354e-05
5 *2715:D *650:76 1.74843e-05
6 *136:10 *2576:S 0.000140259
7 *136:10 *339:36 9.28842e-05
8 *136:10 *358:26 5.01247e-05
*RES
1 *2576:X *136:10 42.1843 
2 *136:10 *2715:D 38.1916 
*END

*D_NET *137 0.00081977
*CONN
*I *2716:D I *D sky130_fd_sc_hd__dfxtp_1
*I *2577:X O *D sky130_fd_sc_hd__mux2_1
*CAP
1 *2716:D 9.9465e-05
2 *2577:X 9.1633e-05
3 *137:8 0.000191098
4 *2716:D *2676:CLK 0.000187079
5 *137:8 *630:20 5.93381e-05
6 *137:8 *659:84 0.000191157
*RES
1 *2577:X *137:8 40.61 
2 *137:8 *2716:D 40.0973 
*END

*D_NET *138 0.000912296
*CONN
*I *2717:D I *D sky130_fd_sc_hd__dfxtp_1
*I *2578:X O *D sky130_fd_sc_hd__mux2_1
*CAP
1 *2717:D 5.48656e-06
2 *2578:X 0.000216749
3 *138:12 0.000222235
4 *2717:D *2717:CLK 1.64354e-05
5 *2717:D *333:122 7.10068e-06
6 *138:12 *338:38 0.000111852
7 *138:12 *347:51 3.95159e-06
8 *138:12 *347:55 9.48381e-06
9 *138:12 *347:129 0.000137651
10 *138:12 *435:6 1.5769e-05
11 *138:12 *647:45 0.000165583
*RES
1 *2578:X *138:12 42.8057 
2 *138:12 *2717:D 38.1916 
*END

*D_NET *139 0.000384272
*CONN
*I *2718:D I *D sky130_fd_sc_hd__dfxtp_1
*I *2579:X O *D sky130_fd_sc_hd__mux2_1
*CAP
1 *2718:D 8.77079e-06
2 *2579:X 8.97813e-05
3 *139:8 9.85521e-05
4 *2718:D *641:50 1.74843e-05
5 *139:8 *595:31 0.000169683
6 *139:8 *655:62 0
*RES
1 *2579:X *139:8 40.2579 
2 *139:8 *2718:D 38.1916 
*END

*D_NET *140 0.000332711
*CONN
*I *2719:D I *D sky130_fd_sc_hd__dfxtp_1
*I *2580:X O *D sky130_fd_sc_hd__mux2_1
*CAP
1 *2719:D 1.5148e-05
2 *2580:X 0.000125363
3 *140:10 0.000140511
4 *2719:D *312:6 3.24476e-06
5 *140:10 *2580:A1 0
6 *140:10 *334:62 0
7 *140:10 *341:42 2.30292e-05
8 *140:10 *511:10 2.5415e-05
*RES
1 *2580:X *140:10 40.175 
2 *140:10 *2719:D 38.1916 
*END

*D_NET *141 0.00116978
*CONN
*I *2720:D I *D sky130_fd_sc_hd__dfxtp_1
*I *2581:X O *D sky130_fd_sc_hd__mux2_1
*CAP
1 *2720:D 0.000320735
2 *2581:X 0.000188871
3 *141:10 0.000509606
4 *141:10 *323:130 0.000111852
5 *141:10 *341:67 0
6 *141:10 *645:72 3.87132e-05
*RES
1 *2581:X *141:10 41.1279 
2 *141:10 *2720:D 42.9559 
*END

*D_NET *142 0.000871972
*CONN
*I *2722:D I *D sky130_fd_sc_hd__dfxtp_1
*I *2583:X O *D sky130_fd_sc_hd__mux2_1
*CAP
1 *2722:D 0.000187147
2 *2583:X 6.17921e-05
3 *142:8 0.000248939
4 *2722:D *455:25 5.25848e-05
5 *2722:D *471:8 4.93341e-05
6 *2722:D *611:16 0.000104433
7 *142:8 *150:12 0.000113153
8 *142:8 *670:78 5.45887e-05
*RES
1 *2583:X *142:8 39.5536 
2 *142:8 *2722:D 42.0238 
*END

*D_NET *143 0.0022031
*CONN
*I *2723:D I *D sky130_fd_sc_hd__dfxtp_1
*I *2584:X O *D sky130_fd_sc_hd__mux2_1
*CAP
1 *2723:D 0.000162254
2 *2584:X 0.000258722
3 *143:8 0.000420976
4 *2723:D *2593:A1 7.53384e-06
5 *2723:D *456:10 5.50049e-05
6 *2723:D *464:27 0.000404202
7 *2723:D *642:64 0.000361629
8 *2723:D *664:10 7.88926e-05
9 *143:8 *340:24 8.92168e-05
10 *143:8 *361:10 0.000116314
11 *143:8 *551:38 7.42471e-05
12 *143:8 *664:10 3.31683e-05
13 *143:8 *664:28 0.000140944
*RES
1 *2584:X *143:8 45.1879 
2 *143:8 *2723:D 44.3852 
*END

*D_NET *144 0.00220069
*CONN
*I *2724:D I *D sky130_fd_sc_hd__dfxtp_1
*I *2585:X O *D sky130_fd_sc_hd__mux2_1
*CAP
1 *2724:D 2.7431e-05
2 *2585:X 0.000255884
3 *144:18 0.000472182
4 *144:10 0.000700635
5 *2724:D *2724:CLK 9.04092e-05
6 *2724:D *473:20 3.07898e-05
7 *144:10 *337:97 0
8 *144:10 *337:107 0
9 *144:10 *342:36 0.000290615
10 *144:10 *626:24 0.000101762
11 *144:18 *2432:A2 7.02666e-06
12 *144:18 *2432:S1 3.42479e-05
13 *144:18 *2950:A 0
14 *144:18 *292:12 1.6275e-05
15 *144:18 *527:8 0.000148048
16 *144:18 *643:66 2.53827e-05
*RES
1 *2585:X *144:10 43.1164 
2 *144:10 *144:18 37.4986 
3 *144:18 *2724:D 38.9943 
*END

*D_NET *145 0.00161254
*CONN
*I *2725:D I *D sky130_fd_sc_hd__dfxtp_1
*I *2586:X O *D sky130_fd_sc_hd__mux2_1
*CAP
1 *2725:D 0.000529955
2 *2586:X 7.59234e-05
3 *145:8 0.000605878
4 *2725:D *2954:A 0.000164364
5 *2725:D *336:22 0.000126664
6 *2725:D *458:14 5.41385e-05
7 *145:8 *329:107 0
8 *145:8 *342:77 5.56203e-05
*RES
1 *2586:X *145:8 39.5536 
2 *145:8 *2725:D 47.7202 
*END

*D_NET *146 0.00208891
*CONN
*I *2726:D I *D sky130_fd_sc_hd__dfxtp_1
*I *2587:X O *D sky130_fd_sc_hd__mux2_1
*CAP
1 *2726:D 0.000545484
2 *2587:X 0.000146117
3 *146:10 0.000691601
4 *2726:D *347:158 0.000311554
5 *2726:D *348:46 5.67058e-05
6 *2726:D *459:8 5.60363e-05
7 *146:10 *2797:A 0.000139647
8 *146:10 *340:45 9.58714e-05
9 *146:10 *642:41 4.58924e-05
*RES
1 *2587:X *146:10 41.0036 
2 *146:10 *2726:D 48.6886 
*END

*D_NET *147 0.000424481
*CONN
*I *2727:D I *D sky130_fd_sc_hd__dfxtp_1
*I *2588:X O *D sky130_fd_sc_hd__mux2_1
*CAP
1 *2727:D 9.54944e-06
2 *2588:X 0.000144187
3 *147:10 0.000153737
4 *2727:D *476:8 9.92992e-06
5 *147:10 *641:96 8.76088e-05
6 *147:10 *655:92 1.94693e-05
*RES
1 *2588:X *147:10 40.8793 
2 *147:10 *2727:D 38.1916 
*END

*D_NET *148 0.000379724
*CONN
*I *2728:D I *D sky130_fd_sc_hd__dfxtp_1
*I *2589:X O *D sky130_fd_sc_hd__mux2_1
*CAP
1 *2728:D 2.67375e-05
2 *2589:X 8.27711e-05
3 *148:8 0.000109509
4 *2728:D *357:24 2.19805e-05
5 *2728:D *477:8 8.41382e-05
6 *148:8 *2905:A 0
7 *148:8 *337:142 5.45887e-05
*RES
1 *2589:X *148:8 39.5536 
2 *148:8 *2728:D 38.9373 
*END

*D_NET *149 0.00150945
*CONN
*I *2729:D I *D sky130_fd_sc_hd__dfxtp_1
*I *2590:X O *D sky130_fd_sc_hd__mux2_1
*CAP
1 *2729:D 0.000178973
2 *2590:X 0.000249134
3 *149:10 0.000428107
4 *2729:D *462:12 0.00015067
5 *2729:D *645:95 0.000100061
6 *149:10 *342:42 0.000167443
7 *149:10 *632:26 0.00023506
*RES
1 *2590:X *149:10 42.785 
2 *149:10 *2729:D 42.003 
*END

*D_NET *150 0.00225985
*CONN
*I *2747:D I *D sky130_fd_sc_hd__dfxtp_1
*I *2592:X O *D sky130_fd_sc_hd__mux2_1
*CAP
1 *2747:D 0
2 *2592:X 0
3 *150:12 0.000635634
4 *150:6 0.000635634
5 *150:12 *2418:A3 7.45997e-05
6 *150:12 *2418:S0 4.29736e-05
7 *150:12 *2875:A 6.2155e-05
8 *150:12 *337:79 0.000111822
9 *150:12 *358:10 0.000177453
10 *150:12 *358:14 0.000144256
11 *150:12 *455:25 8.62876e-05
12 *150:12 *463:25 1.62655e-05
13 *150:12 *643:116 3.72861e-05
14 *150:12 *670:78 7.76364e-06
15 *150:12 *677:87 0.000114569
16 *142:8 *150:12 0.000113153
*RES
1 *2592:X *150:6 38 
2 *150:6 *150:12 29.7952 
3 *150:12 *2747:D 23 
*END

*D_NET *151 0.00189123
*CONN
*I *2748:D I *D sky130_fd_sc_hd__dfxtp_1
*I *2593:X O *D sky130_fd_sc_hd__mux2_1
*CAP
1 *2748:D 0.000105717
2 *2593:X 9.93246e-05
3 *151:8 0.000205041
4 *2748:D *2931:A 5.50049e-05
5 *2748:D *325:51 0.000666999
6 *2748:D *360:33 0.000501813
7 *151:8 *2424:A0 8.62876e-05
8 *151:8 *2931:A 8.72173e-05
9 *151:8 *340:24 0
10 *151:8 *341:105 1.34354e-05
11 *151:8 *360:39 7.03869e-05
*RES
1 *2593:X *151:8 40.61 
2 *151:8 *2748:D 45.338 
*END

*D_NET *152 0.00193844
*CONN
*I *2749:D I *D sky130_fd_sc_hd__dfxtp_1
*I *2594:X O *D sky130_fd_sc_hd__mux2_1
*CAP
1 *2749:D 0.000247363
2 *2594:X 0.000141821
3 *152:8 0.000389184
4 *2749:D *356:107 0.000490041
5 *152:8 *340:100 0.000178853
6 *152:8 *449:8 0.000140949
7 *152:8 *646:27 0.000240873
8 *152:8 *646:42 0.000109352
*RES
1 *2594:X *152:8 42.7229 
2 *152:8 *2749:D 43.4323 
*END

*D_NET *153 0.00152342
*CONN
*I *2750:D I *D sky130_fd_sc_hd__dfxtp_1
*I *2595:X O *D sky130_fd_sc_hd__mux2_1
*CAP
1 *2750:D 0.000182705
2 *2595:X 9.45323e-05
3 *153:8 0.000277237
4 *2750:D *297:20 0.00052421
5 *2750:D *634:94 0.000234885
6 *153:8 *299:16 3.3746e-05
7 *153:8 *337:30 3.04021e-05
8 *153:8 *450:10 8.62876e-05
9 *153:8 *637:90 5.94125e-05
*RES
1 *2595:X *153:8 40.2579 
2 *153:8 *2750:D 43.9087 
*END

*D_NET *154 0.000497919
*CONN
*I *2751:D I *D sky130_fd_sc_hd__dfxtp_1
*I *2596:X O *D sky130_fd_sc_hd__mux2_1
*CAP
1 *2751:D 3.23216e-05
2 *2596:X 0.00011069
3 *154:8 0.000143011
4 *2751:D *347:47 8.79002e-05
5 *2751:D *639:73 3.09254e-05
6 *154:8 *2596:S 8.16253e-05
7 *154:8 *347:34 1.14452e-05
8 *154:8 *628:23 0
*RES
1 *2596:X *154:8 40.2579 
2 *154:8 *2751:D 38.9943 
*END

*D_NET *155 0.00133699
*CONN
*I *2752:D I *D sky130_fd_sc_hd__dfxtp_1
*I *2597:X O *D sky130_fd_sc_hd__mux2_1
*CAP
1 *2752:D 0.000413329
2 *2597:X 7.51313e-05
3 *155:8 0.00048846
4 *2752:D *2948:A 0.000140927
5 *155:8 *334:76 5.26204e-05
6 *155:8 *641:73 0.000166522
*RES
1 *2597:X *155:8 40.2579 
2 *155:8 *2752:D 45.338 
*END

*D_NET *156 0.000330052
*CONN
*I *2753:D I *D sky130_fd_sc_hd__dfxtp_1
*I *2598:X O *D sky130_fd_sc_hd__mux2_1
*CAP
1 *2753:D 0.000154652
2 *2598:X 0.000154652
3 *2753:D *2753:CLK 2.07484e-05
*RES
1 *2598:X *2753:D 48.3873 
*END

*D_NET *157 0.000400976
*CONN
*I *2754:D I *D sky130_fd_sc_hd__dfxtp_1
*I *2599:X O *D sky130_fd_sc_hd__mux2_1
*CAP
1 *2754:D 0.000114278
2 *2599:X 0.000114278
3 *2754:D *618:31 0.00017242
*RES
1 *2599:X *2754:D 48.3873 
*END

*D_NET *158 0.00129664
*CONN
*I *2779:D I *D sky130_fd_sc_hd__dfxtp_1
*I *2600:X O *D sky130_fd_sc_hd__mux2_1
*CAP
1 *2779:D 0.000324206
2 *2600:X 0.000186876
3 *158:8 0.000511082
4 *158:8 *327:49 0
5 *158:8 *359:112 0.000136486
6 *158:8 *666:28 0.000126738
7 *46:8 *158:8 1.12487e-05
*RES
1 *2600:X *158:8 42.3707 
2 *158:8 *2779:D 42.9559 
*END

*D_NET *159 0.000380157
*CONN
*I *2780:D I *D sky130_fd_sc_hd__dfxtp_1
*I *2601:X O *D sky130_fd_sc_hd__mux2_1
*CAP
1 *2780:D 9.8283e-05
2 *2601:X 9.17955e-05
3 *159:8 0.000190079
4 *159:8 *325:26 0
5 *159:8 *341:103 0
*RES
1 *2601:X *159:8 39.5536 
2 *159:8 *2780:D 39.6209 
*END

*D_NET *160 0.00119499
*CONN
*I *2781:D I *D sky130_fd_sc_hd__dfxtp_1
*I *2602:X O *D sky130_fd_sc_hd__mux2_1
*CAP
1 *2781:D 0.000197281
2 *2602:X 0.000337871
3 *160:10 0.000535152
4 *160:10 *323:114 7.30978e-05
5 *160:10 *323:120 5.15848e-05
6 *160:10 *644:59 0
*RES
1 *2602:X *160:10 43.6964 
2 *160:10 *2781:D 41.0502 
*END

*D_NET *161 0.0014105
*CONN
*I *2782:D I *D sky130_fd_sc_hd__dfxtp_1
*I *2603:X O *D sky130_fd_sc_hd__mux2_1
*CAP
1 *2782:D 0.000129007
2 *2603:X 5.44519e-05
3 *161:8 0.000183459
4 *2782:D *2535:S 0.000438151
5 *2782:D *2782:CLK 0.000228597
6 *2782:D *355:75 0.000168396
7 *161:8 *333:72 8.62783e-05
8 *161:8 *345:22 1.12487e-05
9 *161:8 *678:40 0.000110913
*RES
1 *2603:X *161:8 39.5536 
2 *161:8 *2782:D 42.9559 
*END

*D_NET *162 0.000576991
*CONN
*I *2783:D I *D sky130_fd_sc_hd__dfxtp_1
*I *2604:X O *D sky130_fd_sc_hd__mux2_1
*CAP
1 *2783:D 4.62744e-06
2 *2604:X 6.79832e-05
3 *162:8 7.26107e-05
4 *2783:D *348:36 1.64354e-05
5 *2783:D *419:16 1.74843e-05
6 *162:8 *2446:A2 0.000117244
7 *162:8 *2961:A 8.62876e-05
8 *162:8 *705:33 0.000194318
*RES
1 *2604:X *162:8 40.61 
2 *162:8 *2783:D 38.1916 
*END

*D_NET *163 0.000656827
*CONN
*I *2784:D I *D sky130_fd_sc_hd__dfxtp_1
*I *2605:X O *D sky130_fd_sc_hd__mux2_1
*CAP
1 *2784:D 0.000227467
2 *2605:X 8.43627e-05
3 *163:8 0.000311829
4 *163:8 *339:44 0
5 *163:8 *633:50 0
6 *163:8 *655:75 3.31683e-05
*RES
1 *2605:X *163:8 39.5536 
2 *163:8 *2784:D 41.5266 
*END

*D_NET *164 0.000391148
*CONN
*I *2785:D I *D sky130_fd_sc_hd__dfxtp_1
*I *2606:X O *D sky130_fd_sc_hd__mux2_1
*CAP
1 *2785:D 7.0595e-05
2 *2606:X 4.88633e-05
3 *164:8 0.000119458
4 *164:8 *315:14 0.000114092
5 *52:8 *164:8 3.81391e-05
*RES
1 *2606:X *164:8 39.5536 
2 *164:8 *2785:D 39.1445 
*END

*D_NET *165 0.00132459
*CONN
*I *2786:D I *D sky130_fd_sc_hd__dfxtp_1
*I *2607:X O *D sky130_fd_sc_hd__mux2_1
*CAP
1 *2786:D 8.20156e-06
2 *2607:X 0.000371858
3 *165:12 0.00038006
4 *2786:D *618:31 1.64354e-05
5 *165:12 *323:120 0.000106532
6 *165:12 *646:16 4.85126e-05
7 *165:12 *646:189 0.000193099
8 *165:12 *650:84 0.000140949
9 *165:12 *652:22 3.49587e-05
10 *53:8 *165:12 2.39807e-05
*RES
1 *2607:X *165:12 46.4307 
2 *165:12 *2786:D 38.1916 
*END

*D_NET *166 0.000737107
*CONN
*I *2787:D I *D sky130_fd_sc_hd__dfxtp_1
*I *2609:X O *D sky130_fd_sc_hd__mux2_1
*CAP
1 *2787:D 1.31802e-05
2 *2609:X 0.000138614
3 *166:10 0.000151794
4 *166:10 *284:12 0.000171906
5 *166:10 *325:67 9.41704e-05
6 *166:10 *383:12 0.000167443
*RES
1 *2609:X *166:10 41.3557 
2 *166:10 *2787:D 38.1916 
*END

*D_NET *167 0.00198067
*CONN
*I *2788:D I *D sky130_fd_sc_hd__dfxtp_1
*I *2610:X O *D sky130_fd_sc_hd__mux2_1
*CAP
1 *2788:D 0.000100305
2 *2610:X 0.000289955
3 *167:8 0.00039026
4 *2788:D *2520:A1 0.000184471
5 *167:8 *336:10 0.000721807
6 *167:8 *342:67 0.000108487
7 *167:8 *342:71 3.24466e-05
8 *167:8 *376:12 0.000152941
*RES
1 *2610:X *167:8 47.6529 
2 *167:8 *2788:D 40.0973 
*END

*D_NET *168 0.000951973
*CONN
*I *2789:D I *D sky130_fd_sc_hd__dfxtp_1
*I *2611:X O *D sky130_fd_sc_hd__mux2_1
*CAP
1 *2789:D 1.31914e-05
2 *2611:X 0.000424491
3 *168:8 0.000437682
4 *168:8 *337:107 0
5 *168:8 *356:79 7.66085e-05
6 *168:8 *377:12 0
7 *168:8 *385:14 0
*RES
1 *2611:X *168:8 45.8921 
2 *168:8 *2789:D 38.1916 
*END

*D_NET *169 0.00127205
*CONN
*I *2790:D I *D sky130_fd_sc_hd__dfxtp_1
*I *2612:X O *D sky130_fd_sc_hd__mux2_1
*CAP
1 *2790:D 2.17262e-05
2 *2612:X 0.000433787
3 *169:8 0.000455514
4 *2790:D *334:93 0.000147908
5 *2790:D *659:18 0.000146207
6 *169:8 *2441:S1 4.48568e-05
7 *169:8 *300:14 0
8 *169:8 *630:20 0
9 *169:8 *659:18 0
10 *169:8 *659:29 2.20561e-05
11 *105:8 *169:8 0
*RES
1 *2612:X *169:8 45.1879 
2 *169:8 *2790:D 39.6209 
*END

*D_NET *170 0.0012543
*CONN
*I *2791:D I *D sky130_fd_sc_hd__dfxtp_1
*I *2613:X O *D sky130_fd_sc_hd__mux2_1
*CAP
1 *2791:D 8.77079e-06
2 *2613:X 0.000350162
3 *170:10 0.000358932
4 *2791:D *2541:S 1.74843e-05
5 *170:10 *329:145 5.3304e-05
6 *170:10 *347:88 7.66085e-05
7 *170:10 *530:8 8.16356e-05
8 *170:10 *628:12 0
9 *170:10 *657:44 0.000223034
10 *74:10 *170:10 8.43721e-05
*RES
1 *2613:X *170:10 46.5136 
2 *170:10 *2791:D 38.1916 
*END

*D_NET *171 0.00121365
*CONN
*I *2792:D I *D sky130_fd_sc_hd__dfxtp_1
*I *2614:X O *D sky130_fd_sc_hd__mux2_1
*CAP
1 *2792:D 0
2 *2614:X 0.000502244
3 *171:8 0.000502244
4 *171:8 *2614:A1 0.000139357
5 *171:8 *492:10 6.9805e-05
*RES
1 *2614:X *171:8 32.6166 
2 *171:8 *2792:D 23 
*END

*D_NET *172 0.000673051
*CONN
*I *2793:D I *D sky130_fd_sc_hd__dfxtp_1
*I *2615:X O *D sky130_fd_sc_hd__mux2_1
*CAP
1 *2793:D 3.57504e-05
2 *2615:X 0.000197373
3 *172:10 0.000233123
4 *2793:D *357:133 5.99823e-05
5 *172:10 *332:42 0.000146822
*RES
1 *2615:X *172:10 41.1279 
2 *172:10 *2793:D 38.668 
*END

*D_NET *173 0.002248
*CONN
*I *2794:D I *D sky130_fd_sc_hd__dfxtp_1
*I *2616:X O *D sky130_fd_sc_hd__mux2_1
*CAP
1 *2794:D 0.000501422
2 *2616:X 0.000300832
3 *173:8 0.000802254
4 *2794:D *494:14 8.5521e-05
5 *173:8 *334:121 3.76854e-05
6 *173:8 *494:14 1.22906e-05
7 *173:8 *533:8 0.000507996
8 *173:8 *641:96 0
9 *109:14 *173:8 0
*RES
1 *2616:X *173:8 45.1879 
2 *173:8 *2794:D 46.2909 
*END

*D_NET *174 0.00152372
*CONN
*I *2381:A I *D sky130_fd_sc_hd__nand2_1
*I *2380:A I *D sky130_fd_sc_hd__nor2_1
*I *2290:Y O *D sky130_fd_sc_hd__inv_2
*CAP
1 *2381:A 1.31028e-05
2 *2380:A 8.41597e-05
3 *2290:Y 0.000367061
4 *174:8 0.000464323
5 *2380:A *2381:B 4.66969e-05
6 *2380:A *257:10 4.96717e-05
7 *2381:A *2381:B 5.90675e-06
8 *2381:A *198:18 0
9 *174:8 *2386:B 5.3304e-05
10 *174:8 *198:18 0.000397596
11 *174:8 *363:18 4.18979e-05
*RES
1 *2290:Y *174:8 30.3121 
2 *174:8 *2380:A 25.0714 
3 *174:8 *2381:A 23.4971 
*END

*D_NET *175 0.00556016
*CONN
*I *2305:A I *D sky130_fd_sc_hd__or2_1
*I *2307:A I *D sky130_fd_sc_hd__xnor2_1
*I *2478:A I *D sky130_fd_sc_hd__nand2_4
*I *2468:A I *D sky130_fd_sc_hd__or3b_4
*I *2291:Y O *D sky130_fd_sc_hd__inv_2
*CAP
1 *2305:A 0.00023904
2 *2307:A 0
3 *2478:A 0
4 *2468:A 0
5 *2291:Y 5.35583e-05
6 *175:46 0.000183552
7 *175:40 0.00089554
8 *175:26 0.00026829
9 *175:16 0.000717515
10 *175:6 0.000975731
11 *2305:A *2305:B 0.000129522
12 *2305:A *188:16 0.0002263
13 *175:6 *2291:A 5.50049e-05
14 *175:16 *2291:A 7.88828e-05
15 *175:16 *2368:B 0.000223698
16 *175:16 *2368:C 2.30292e-05
17 *175:16 *2370:A 1.37232e-05
18 *175:16 *2370:B 2.78638e-05
19 *175:16 *249:12 0.00026808
20 *175:16 *249:16 9.67916e-05
21 *175:16 *324:10 6.74169e-05
22 *175:16 *730:29 2.25419e-05
23 *175:26 *2368:B 0
24 *175:26 *2370:A 1.94693e-05
25 *175:26 *2370:B 9.84851e-05
26 *175:26 *2468:B 0.000185428
27 *175:26 *249:16 1.41077e-05
28 *175:26 *322:10 6.33511e-05
29 *175:26 *324:10 2.76611e-06
30 *175:26 *326:8 0
31 *175:26 *735:10 0
32 *175:46 *2307:B 0.000188256
33 *175:46 *188:16 0.000194327
34 *175:46 *190:21 0
35 *175:46 *363:33 6.7177e-06
36 *175:46 *366:12 0.000221172
*RES
1 *2291:Y *175:6 24.0979 
2 *175:6 *175:16 11.0614 
3 *175:16 *175:26 36.1107 
4 *175:26 *2468:A 23 
5 *175:16 *2478:A 23 
6 *175:6 *175:40 7.78857 
7 *175:40 *175:46 35.7793 
8 *175:46 *2307:A 23 
9 *175:40 *2305:A 28.3857 
*END

*D_NET *176 0.00267261
*CONN
*I *2308:A1 I *D sky130_fd_sc_hd__a21o_1
*I *2325:A1 I *D sky130_fd_sc_hd__a211o_1
*I *2322:A I *D sky130_fd_sc_hd__nand3_1
*I *2324:A1_N I *D sky130_fd_sc_hd__a2bb2o_1
*I *2292:Y O *D sky130_fd_sc_hd__inv_2
*CAP
1 *2308:A1 0
2 *2325:A1 0.000141497
3 *2322:A 6.15326e-05
4 *2324:A1_N 0
5 *2292:Y 0.000499959
6 *176:12 6.15326e-05
7 *176:10 0.000270512
8 *176:6 0.000628973
9 *2322:A *2324:B1 0
10 *2322:A *190:30 0.000151674
11 *2322:A *191:12 7.59794e-05
12 *2325:A1 *180:16 9.20311e-06
13 *2325:A1 *181:8 5.50106e-05
14 *2325:A1 *190:43 9.39159e-05
15 *2325:A1 *208:10 0.000141879
16 *2325:A1 *676:64 1.94685e-05
17 *176:6 *2306:B 4.5051e-05
18 *176:6 *2308:A2 0.000141052
19 *176:6 *363:33 9.84851e-05
20 *176:10 *180:16 4.21594e-06
21 *176:10 *191:18 9.63712e-05
22 *176:10 *194:10 0
23 *176:10 *206:10 0
24 *176:10 *676:64 7.62945e-05
*RES
1 *2292:Y *176:6 31.2443 
2 *176:6 *176:10 18.3143 
3 *176:10 *176:12 15 
4 *176:12 *2324:A1_N 23 
5 *176:12 *2322:A 25.0714 
6 *176:10 *2325:A1 41.5836 
7 *176:6 *2308:A1 23 
*END

*D_NET *177 0.00208222
*CONN
*I *2317:B1 I *D sky130_fd_sc_hd__a21o_1
*I *2328:A1 I *D sky130_fd_sc_hd__a32o_1
*I *2293:Y O *D sky130_fd_sc_hd__inv_2
*CAP
1 *2317:B1 0
2 *2328:A1 0.000252038
3 *2293:Y 0.000406304
4 *177:10 0.000658341
5 *2328:A1 *2317:A1 0.000106299
6 *2328:A1 *2328:A2 0.00017849
7 *2328:A1 *2328:B1 1.76557e-05
8 *2328:A1 *212:8 2.9938e-05
9 *177:10 *2329:A 5.67058e-05
10 *177:10 *212:8 0.000223299
11 *177:10 *344:10 0.000153145
*RES
1 *2293:Y *177:10 33.3157 
2 *177:10 *2328:A1 28.655 
3 *177:10 *2317:B1 23 
*END

*D_NET *178 0.00158491
*CONN
*I *2327:A1 I *D sky130_fd_sc_hd__a32o_1
*I *2319:B1 I *D sky130_fd_sc_hd__a21o_1
*I *2294:Y O *D sky130_fd_sc_hd__inv_2
*CAP
1 *2327:A1 0.000223423
2 *2319:B1 0
3 *2294:Y 0.000474073
4 *178:12 0.000223423
5 *178:10 0.000474073
6 *2327:A1 *2319:A1 2.4754e-05
7 *2327:A1 *2319:A2 0.00014196
8 *2327:A1 *2327:A2 2.32004e-05
*RES
1 *2294:Y *178:10 45.1257 
2 *178:10 *178:12 15 
3 *178:12 *2319:B1 23 
4 *178:12 *2327:A1 27.9507 
*END

*D_NET *179 0.00105025
*CONN
*I *2326:A1 I *D sky130_fd_sc_hd__a32o_1
*I *2321:B1 I *D sky130_fd_sc_hd__a21o_1
*I *2295:Y O *D sky130_fd_sc_hd__inv_2
*CAP
1 *2326:A1 0.000225963
2 *2321:B1 0
3 *2295:Y 0.000199671
4 *179:12 0.000225963
5 *179:10 0.000199671
6 *2326:A1 *2321:A2 0.00014196
7 *2326:A1 *2326:A2 5.0948e-05
8 *179:10 *195:12 6.07611e-06
9 *179:10 *207:10 0
*RES
1 *2295:Y *179:10 40.5271 
2 *179:10 *179:12 15 
3 *179:12 *2321:B1 23 
4 *179:12 *2326:A1 27.4536 
*END

*D_NET *180 0.00135316
*CONN
*I *2323:B1 I *D sky130_fd_sc_hd__a21o_1
*I *2324:B2 I *D sky130_fd_sc_hd__a2bb2o_1
*I *2296:Y O *D sky130_fd_sc_hd__inv_2
*CAP
1 *2323:B1 2.34823e-05
2 *2324:B2 0
3 *2296:Y 5.6312e-05
4 *180:16 0.000230804
5 *180:6 0.000310598
6 *180:6 *181:8 0.00010655
7 *180:6 *207:10 8.60475e-05
8 *180:16 *2324:B1 5.67058e-05
9 *180:16 *2326:B2 7.53384e-06
10 *180:16 *181:8 0.000123944
11 *180:16 *190:43 0.000169683
12 *180:16 *206:10 3.93272e-05
13 *180:16 *207:10 1.24376e-05
14 *180:16 *209:8 0.000116314
15 *2325:A1 *180:16 9.20311e-06
16 *176:10 *180:16 4.21594e-06
*RES
1 *2296:Y *180:6 25.0507 
2 *180:6 *180:16 35.7586 
3 *180:16 *2324:B2 23 
4 *180:6 *2323:B1 23.4971 
*END

*D_NET *181 0.00114519
*CONN
*I *2325:C1 I *D sky130_fd_sc_hd__a211o_1
*I *2297:Y O *D sky130_fd_sc_hd__inv_2
*CAP
1 *2325:C1 0
2 *2297:Y 0.000429843
3 *181:8 0.000429843
4 *2325:A1 *181:8 5.50106e-05
5 *180:6 *181:8 0.00010655
6 *180:16 *181:8 0.000123944
*RES
1 *2297:Y *181:8 31.7414 
2 *181:8 *2325:C1 23 
*END

*D_NET *182 0.00139929
*CONN
*I *2362:A1 I *D sky130_fd_sc_hd__a32o_1
*I *2352:B1 I *D sky130_fd_sc_hd__a21o_1
*I *2298:Y O *D sky130_fd_sc_hd__inv_2
*CAP
1 *2362:A1 0.000358778
2 *2352:B1 6.80015e-05
3 *2298:Y 3.62665e-05
4 *182:6 0.000463046
5 *2352:B1 *2362:B1 9.84794e-05
6 *2362:A1 *2352:A1 0
7 *2362:A1 *2352:A2 3.71311e-05
8 *2362:A1 *2362:B1 0.000337589
*RES
1 *2298:Y *182:6 23.6214 
2 *182:6 *2352:B1 24.5743 
3 *182:6 *2362:A1 29.2557 
*END

*D_NET *183 0.00277261
*CONN
*I *2301:B I *D sky130_fd_sc_hd__nand2_1
*I *2312:B I *D sky130_fd_sc_hd__nor2_1
*I *2300:B I *D sky130_fd_sc_hd__and2_1
*I *2302:B I *D sky130_fd_sc_hd__xor2_2
*I *2299:Y O *D sky130_fd_sc_hd__xnor2_2
*CAP
1 *2301:B 0.000153667
2 *2312:B 0
3 *2300:B 0
4 *2302:B 0
5 *2299:Y 0.000367275
6 *183:28 0.000203648
7 *183:21 0.000461596
8 *183:10 0.00077889
9 *2301:B *2301:A 5.67058e-05
10 *2301:B *732:34 5.18836e-05
11 *183:10 *254:8 0
12 *183:10 *676:54 0.000250617
13 *183:10 *732:21 0
14 *183:21 *184:10 3.22879e-05
15 *183:21 *254:8 0
16 *183:21 *731:21 0
17 *183:21 *732:21 0
18 *183:21 *732:25 0.000272383
19 *183:28 *732:25 8.6949e-05
20 *183:28 *732:34 5.67058e-05
*RES
1 *2299:Y *183:10 45.8714 
2 *183:10 *2302:B 15 
3 *183:10 *183:21 23.7829 
4 *183:21 *2300:B 23 
5 *183:21 *183:28 1.57429 
6 *183:28 *2312:B 23 
7 *183:28 *2301:B 26.5214 
*END

*D_NET *184 0.00121139
*CONN
*I *2318:A1 I *D sky130_fd_sc_hd__o211ai_1
*I *2313:C1 I *D sky130_fd_sc_hd__a211o_1
*I *2300:X O *D sky130_fd_sc_hd__and2_1
*CAP
1 *2318:A1 0.000141544
2 *2313:C1 4.94653e-05
3 *2300:X 0.000192319
4 *184:10 0.000383328
5 *2313:C1 *2313:A1 0.0001082
6 *2313:C1 *2313:B1 4.07902e-05
7 *2318:A1 *187:27 5.19255e-05
8 *2318:A1 *195:36 1.83667e-05
9 *2318:A1 *195:49 0.000145419
10 *2318:A1 *202:10 2.93845e-05
11 *184:10 *195:49 1.83564e-05
12 *184:10 *196:8 0
13 *183:21 *184:10 3.22879e-05
*RES
1 *2300:X *184:10 40.8793 
2 *184:10 *2313:C1 39.595 
3 *184:10 *2318:A1 41.5836 
*END

*D_NET *185 0.000685915
*CONN
*I *2315:A I *D sky130_fd_sc_hd__nand3_1
*I *2316:A1 I *D sky130_fd_sc_hd__a21o_1
*I *2301:Y O *D sky130_fd_sc_hd__nand2_1
*CAP
1 *2315:A 0.000119497
2 *2316:A1 3.75247e-05
3 *2301:Y 5.57175e-05
4 *185:10 0.000157021
5 *185:8 5.57175e-05
6 *2315:A *2313:B1 0
7 *2315:A *2315:B 1.41077e-05
8 *2315:A *2315:C 8.60475e-05
9 *2315:A *2316:B1 4.70534e-05
10 *2316:A1 *2315:B 1.94693e-05
11 *185:8 *196:8 3.81391e-05
12 *185:8 *198:27 5.56203e-05
*RES
1 *2301:Y *185:8 39.5536 
2 *185:8 *185:10 15 
3 *185:10 *2316:A1 23.6214 
4 *185:10 *2315:A 25.6929 
*END

*D_NET *186 0.00160786
*CONN
*I *2303:B I *D sky130_fd_sc_hd__nand2_1
*I *2309:B I *D sky130_fd_sc_hd__or2_1
*I *2304:B I *D sky130_fd_sc_hd__xnor2_2
*I *2302:X O *D sky130_fd_sc_hd__xor2_2
*CAP
1 *2303:B 0.000108169
2 *2309:B 0
3 *2304:B 3.01523e-05
4 *2302:X 0.00024157
5 *186:16 0.000135769
6 *186:12 0.000213785
7 *186:10 0.00024157
8 *2303:B *2303:A 6.00453e-05
9 *2304:B *2303:A 0.00010018
10 *186:10 *198:18 2.93845e-05
11 *186:10 *731:21 0.000380352
12 *186:10 *732:21 0
13 *186:16 *2303:A 6.68822e-05
*RES
1 *2302:X *186:10 43.6964 
2 *186:10 *186:12 15 
3 *186:12 *186:16 2.07143 
4 *186:16 *2304:B 24.0979 
5 *186:16 *2309:B 23 
6 *186:12 *2303:B 25.5479 
*END

*D_NET *187 0.00160675
*CONN
*I *2313:A1 I *D sky130_fd_sc_hd__a211o_1
*I *2318:C1 I *D sky130_fd_sc_hd__o211ai_1
*I *2310:A I *D sky130_fd_sc_hd__nand2_1
*I *2303:Y O *D sky130_fd_sc_hd__nand2_1
*CAP
1 *2313:A1 0.000131865
2 *2318:C1 0
3 *2310:A 3.84776e-05
4 *2303:Y 9.97368e-05
5 *187:27 0.000101158
6 *187:21 0.000535779
7 *187:10 0.000341233
8 *187:8 9.97368e-05
9 *2313:A1 *2313:B1 2.75825e-05
10 *2313:A1 *2316:A2 1.37232e-05
11 *187:8 *193:10 4.58924e-05
12 *187:27 *195:36 1.14452e-05
13 *2313:C1 *2313:A1 0.0001082
14 *2318:A1 *187:27 5.19255e-05
*RES
1 *2303:Y *187:8 39.9057 
2 *187:8 *187:10 15 
3 *187:10 *2310:A 23.6214 
4 *187:10 *187:21 5.28214 
5 *187:21 *187:27 32.2579 
6 *187:27 *2318:C1 23 
7 *187:21 *2313:A1 25.9 
*END

*D_NET *188 0.00241158
*CONN
*I *2305:B I *D sky130_fd_sc_hd__or2_1
*I *2307:B I *D sky130_fd_sc_hd__xnor2_1
*I *2306:B I *D sky130_fd_sc_hd__xor2_1
*I *2304:Y O *D sky130_fd_sc_hd__xnor2_2
*CAP
1 *2305:B 6.75976e-05
2 *2307:B 9.37539e-05
3 *2306:B 7.27538e-05
4 *2304:Y 0.000235377
5 *188:16 0.000373895
6 *188:10 0.000274985
7 *188:8 0.000235377
8 *2306:B *363:33 5.50106e-05
9 *2307:B *2308:A2 0
10 *2307:B *190:21 0
11 *188:8 *363:33 0.000137727
12 *188:8 *676:64 0
13 *188:16 *2308:A2 0
14 *188:16 *363:33 8.16459e-05
15 *2305:A *2305:B 0.000129522
16 *2305:A *188:16 0.0002263
17 *175:46 *2307:B 0.000188256
18 *175:46 *188:16 0.000194327
19 *176:6 *2306:B 4.5051e-05
*RES
1 *2304:Y *188:8 43.4271 
2 *188:8 *188:10 15 
3 *188:10 *188:16 20.1371 
4 *188:16 *2306:B 39.5743 
5 *188:16 *2307:B 40.61 
6 *188:10 *2305:B 24.5743 
*END

*D_NET *189 0.00112003
*CONN
*I *2320:A I *D sky130_fd_sc_hd__nand3_1
*I *2311:A1 I *D sky130_fd_sc_hd__a21o_1
*I *2305:X O *D sky130_fd_sc_hd__or2_1
*CAP
1 *2320:A 0.000158113
2 *2311:A1 0
3 *2305:X 0.000293991
4 *189:12 0.000158113
5 *189:10 0.000293991
6 *2320:A *2320:C 9.3487e-05
7 *2320:A *192:15 4.04598e-06
8 *2320:A *192:38 2.07242e-05
9 *2320:A *195:6 5.67058e-05
10 *189:10 *194:10 4.08641e-05
11 *189:10 *676:64 0
*RES
1 *2305:X *189:10 42.205 
2 *189:10 *189:12 15 
3 *189:12 *2311:A1 23 
4 *189:12 *2320:A 26.5214 
*END

*D_NET *190 0.0019188
*CONN
*I *2325:A2 I *D sky130_fd_sc_hd__a211o_1
*I *2324:A2_N I *D sky130_fd_sc_hd__a2bb2o_1
*I *2322:B I *D sky130_fd_sc_hd__nand3_1
*I *2308:A2 I *D sky130_fd_sc_hd__a21o_1
*I *2306:X O *D sky130_fd_sc_hd__xor2_1
*CAP
1 *2325:A2 0
2 *2324:A2_N 0
3 *2322:B 0
4 *2308:A2 0.00011517
5 *2306:X 0
6 *190:43 0.000108083
7 *190:30 0.000254768
8 *190:21 0.000251976
9 *190:6 0.000220462
10 *2308:A2 *676:64 9.26098e-05
11 *190:21 *676:64 0.000194318
12 *190:30 *2326:B2 0
13 *190:30 *191:8 0
14 *190:30 *191:12 2.25927e-05
15 *190:30 *208:10 5.67058e-05
16 *190:43 *2324:B1 6.17437e-06
17 *190:43 *191:12 2.93747e-05
18 *190:43 *206:10 1.02387e-05
19 *2307:B *2308:A2 0
20 *2307:B *190:21 0
21 *2322:A *190:30 0.000151674
22 *2325:A1 *190:43 9.39159e-05
23 *175:46 *190:21 0
24 *176:6 *2308:A2 0.000141052
25 *180:16 *190:43 0.000169683
26 *188:16 *2308:A2 0
*RES
1 *2306:X *190:6 38 
2 *190:6 *2308:A2 40.7757 
3 *190:6 *190:21 17.61 
4 *190:21 *2322:B 23 
5 *190:21 *190:30 3.02429 
6 *190:30 *2324:A2_N 23 
7 *190:30 *190:43 33.2314 
8 *190:43 *2325:A2 23 
*END

*D_NET *191 0.00174751
*CONN
*I *2322:C I *D sky130_fd_sc_hd__nand3_1
*I *2324:B1 I *D sky130_fd_sc_hd__a2bb2o_1
*I *2308:B1 I *D sky130_fd_sc_hd__a21o_1
*I *2307:Y O *D sky130_fd_sc_hd__xnor2_1
*CAP
1 *2322:C 0
2 *2324:B1 6.6074e-05
3 *2308:B1 0
4 *2307:Y 0.00013761
5 *191:18 0.000117721
6 *191:12 0.000404545
7 *191:8 0.00035836
8 *2324:B1 *2326:A2 0
9 *2324:B1 *2326:B2 1.40958e-05
10 *2324:B1 *206:10 0.000127821
11 *191:12 *206:10 0.000224605
12 *191:18 *192:21 0
13 *191:18 *192:38 0
14 *191:18 *194:10 0
15 *191:18 *206:10 9.48381e-06
16 *2322:A *2324:B1 0
17 *2322:A *191:12 7.59794e-05
18 *176:10 *191:18 9.63712e-05
19 *180:16 *2324:B1 5.67058e-05
20 *190:30 *191:8 0
21 *190:30 *191:12 2.25927e-05
22 *190:43 *2324:B1 6.17437e-06
23 *190:43 *191:12 2.93747e-05
*RES
1 *2307:Y *191:8 25.0714 
2 *191:8 *191:12 5.15786 
3 *191:12 *191:18 32.61 
4 *191:18 *2308:B1 23 
5 *191:12 *2324:B1 25.0714 
6 *191:8 *2322:C 23 
*END

*D_NET *192 0.00170953
*CONN
*I *2320:B I *D sky130_fd_sc_hd__nand3_1
*I *2323:A1 I *D sky130_fd_sc_hd__a21o_1
*I *2311:A2 I *D sky130_fd_sc_hd__a21o_1
*I *2308:X O *D sky130_fd_sc_hd__a21o_1
*CAP
1 *2320:B 0
2 *2323:A1 0
3 *2311:A2 5.07307e-05
4 *2308:X 4.64022e-05
5 *192:38 0.000314012
6 *192:21 0.000188682
7 *192:15 0.000549793
8 *192:6 0.000144232
9 *2311:A2 *2320:C 1.37232e-05
10 *192:21 *204:8 0
11 *192:21 *206:10 0.000218962
12 *192:21 *207:10 5.56306e-05
13 *192:38 *2320:C 5.41288e-05
14 *192:38 *194:10 1.27424e-05
15 *192:38 *195:12 8.61037e-06
16 *192:38 *204:8 1.01436e-05
17 *192:38 *210:8 1.69668e-05
18 *2320:A *192:15 4.04598e-06
19 *2320:A *192:38 2.07242e-05
20 *191:18 *192:21 0
21 *191:18 *192:38 0
*RES
1 *2308:X *192:6 23.6214 
2 *192:6 *2311:A2 24.2014 
3 *192:6 *192:15 0.621429 
4 *192:15 *192:21 34.0186 
5 *192:21 *2323:A1 23 
6 *192:15 *192:38 34.8471 
7 *192:38 *2320:B 23 
*END

*D_NET *193 0.000458154
*CONN
*I *2310:B I *D sky130_fd_sc_hd__nand2_1
*I *2309:X O *D sky130_fd_sc_hd__or2_1
*CAP
1 *2310:B 0
2 *2309:X 0.00015604
3 *193:10 0.00015604
4 *193:10 *2303:A 0.00010018
5 *187:8 *193:10 4.58924e-05
*RES
1 *2309:X *193:10 41.0036 
2 *193:10 *2310:B 38 
*END

*D_NET *194 0.00121859
*CONN
*I *2320:C I *D sky130_fd_sc_hd__nand3_1
*I *2311:B1 I *D sky130_fd_sc_hd__a21o_1
*I *2310:Y O *D sky130_fd_sc_hd__nand2_1
*CAP
1 *2320:C 0.000122021
2 *2311:B1 0
3 *2310:Y 0.000316785
4 *194:12 0.000122021
5 *194:10 0.000316785
6 *2320:C *2327:B2 5.67058e-05
7 *2320:C *195:6 6.93242e-05
8 *194:10 *195:12 0
9 *2311:A2 *2320:C 1.37232e-05
10 *2320:A *2320:C 9.3487e-05
11 *176:10 *194:10 0
12 *189:10 *194:10 4.08641e-05
13 *191:18 *194:10 0
14 *192:38 *2320:C 5.41288e-05
15 *192:38 *194:10 1.27424e-05
*RES
1 *2310:Y *194:10 43.3443 
2 *194:10 *194:12 15 
3 *194:12 *2311:B1 23 
4 *194:12 *2320:C 27.1429 
*END

*D_NET *195 0.00304827
*CONN
*I *2313:A2 I *D sky130_fd_sc_hd__a211o_1
*I *2318:B1 I *D sky130_fd_sc_hd__o211ai_1
*I *2321:A1 I *D sky130_fd_sc_hd__a21o_1
*I *2326:A2 I *D sky130_fd_sc_hd__a32o_1
*I *2311:X O *D sky130_fd_sc_hd__a21o_1
*CAP
1 *2313:A2 0
2 *2318:B1 0
3 *2321:A1 0
4 *2326:A2 0.000151535
5 *2311:X 0.000155374
6 *195:49 0.000209399
7 *195:36 0.000523696
8 *195:12 0.000360053
9 *195:6 0.000678189
10 *2326:A2 *2321:A2 0.00014196
11 *2326:A2 *2326:B2 0
12 *195:6 *2327:B2 1.40958e-05
13 *195:12 *204:8 0
14 *195:12 *205:8 0
15 *195:12 *210:8 7.03869e-05
16 *195:36 *2327:B1 9.84794e-05
17 *195:36 *2327:B2 6.70749e-05
18 *195:36 *197:34 0
19 *195:49 *2318:A2 7.77255e-05
20 *195:49 *196:8 4.21594e-06
21 *195:49 *197:34 6.6869e-05
22 *195:49 *202:10 4.39607e-05
23 *2318:A1 *195:36 1.83667e-05
24 *2318:A1 *195:49 0.000145419
25 *2320:A *195:6 5.67058e-05
26 *2320:C *195:6 6.93242e-05
27 *2324:B1 *2326:A2 0
28 *2326:A1 *2326:A2 5.0948e-05
29 *179:10 *195:12 6.07611e-06
30 *184:10 *195:49 1.83564e-05
31 *187:27 *195:36 1.14452e-05
32 *192:38 *195:12 8.61037e-06
33 *194:10 *195:12 0
*RES
1 *2311:X *195:6 25.5271 
2 *195:6 *195:12 34.0186 
3 *195:12 *2326:A2 26.5214 
4 *195:12 *2321:A1 23 
5 *195:6 *195:36 35.2614 
6 *195:36 *2318:B1 23 
7 *195:36 *195:49 35.0129 
8 *195:49 *2313:A2 23 
*END

*D_NET *196 0.00162165
*CONN
*I *2318:A2 I *D sky130_fd_sc_hd__o211ai_1
*I *2313:B1 I *D sky130_fd_sc_hd__a211o_1
*I *2312:Y O *D sky130_fd_sc_hd__nor2_1
*CAP
1 *2318:A2 0.000342481
2 *2313:B1 0.000196135
3 *2312:Y 0.000103147
4 *196:8 0.000641763
5 *2313:B1 *2316:A2 5.90075e-05
6 *2318:A2 *197:34 8.62783e-05
7 *2318:A2 *200:10 0
8 *2318:A2 *202:10 4.38068e-06
9 *196:8 *198:27 0
10 *2313:A1 *2313:B1 2.75825e-05
11 *2313:C1 *2313:B1 4.07902e-05
12 *2315:A *2313:B1 0
13 *184:10 *196:8 0
14 *185:8 *196:8 3.81391e-05
15 *195:49 *2318:A2 7.77255e-05
16 *195:49 *196:8 4.21594e-06
*RES
1 *2312:Y *196:8 39.9057 
2 *196:8 *2313:B1 42.1429 
3 *196:8 *2318:A2 42.785 
*END

*D_NET *197 0.00266243
*CONN
*I *2319:A1 I *D sky130_fd_sc_hd__a21o_1
*I *2327:A2 I *D sky130_fd_sc_hd__a32o_1
*I *2315:B I *D sky130_fd_sc_hd__nand3_1
*I *2316:A2 I *D sky130_fd_sc_hd__a21o_1
*I *2313:X O *D sky130_fd_sc_hd__a211o_1
*CAP
1 *2319:A1 7.09856e-05
2 *2327:A2 6.61387e-05
3 *2315:B 0.000364248
4 *2316:A2 5.75783e-05
5 *2313:X 0
6 *197:34 0.000306488
7 *197:6 0.000441884
8 *197:4 0.000189422
9 *2315:B *2315:C 0.000325089
10 *2315:B *2316:B1 5.50049e-05
11 *2315:B *200:10 5.67058e-05
12 *2316:A2 *2316:B1 1.37232e-05
13 *2319:A1 *2319:A2 9.84851e-05
14 *2327:A2 *2319:A2 5.3304e-05
15 *197:34 *200:10 0
16 *197:34 *202:10 0.000111852
17 *197:34 *211:8 0.00014411
18 *2313:A1 *2316:A2 1.37232e-05
19 *2313:B1 *2316:A2 5.90075e-05
20 *2315:A *2315:B 1.41077e-05
21 *2316:A1 *2315:B 1.94693e-05
22 *2318:A2 *197:34 8.62783e-05
23 *2327:A1 *2319:A1 2.4754e-05
24 *2327:A1 *2327:A2 2.32004e-05
25 *195:36 *197:34 0
26 *195:49 *197:34 6.6869e-05
*RES
1 *2313:X *197:4 23 
2 *197:4 *197:6 0.497143 
3 *197:6 *2316:A2 25.0921 
4 *197:6 *2315:B 31.6379 
5 *197:4 *197:34 34.3707 
6 *197:34 *2327:A2 24.0979 
7 *197:34 *2319:A1 24.5743 
*END

*D_NET *198 0.00581924
*CONN
*I *2315:C I *D sky130_fd_sc_hd__nand3_1
*I *2316:B1 I *D sky130_fd_sc_hd__a21o_1
*I *2386:A I *D sky130_fd_sc_hd__xnor2_1
*I *2314:X O *D sky130_fd_sc_hd__xor2_2
*CAP
1 *2315:C 4.90923e-05
2 *2316:B1 3.19886e-05
3 *2386:A 0
4 *2314:X 0.0002493
5 *198:27 0.000599493
6 *198:18 0.00124221
7 *198:8 0.00200992
8 *198:8 *2758:RESET_B 0
9 *198:8 *254:8 0
10 *198:8 *352:90 0
11 *198:8 *728:16 0.000168754
12 *198:18 *2290:A 0.000139346
13 *198:18 *2302:A 0.000182826
14 *198:18 *261:10 1.5769e-05
15 *198:18 *363:18 0.000121021
16 *198:27 *254:8 0
17 *198:27 *352:90 0
18 *2315:A *2315:C 8.60475e-05
19 *2315:A *2316:B1 4.70534e-05
20 *2315:B *2315:C 0.000325089
21 *2315:B *2316:B1 5.50049e-05
22 *2316:A2 *2316:B1 1.37232e-05
23 *2381:A *198:18 0
24 *174:8 *198:18 0.000397596
25 *185:8 *198:27 5.56203e-05
26 *186:10 *198:18 2.93845e-05
27 *196:8 *198:27 0
*RES
1 *2314:X *198:8 42.7229 
2 *198:8 *198:18 39.1529 
3 *198:18 *2386:A 23 
4 *198:8 *198:27 24.3007 
5 *198:27 *2316:B1 24.1186 
6 *198:27 *2315:C 26.0243 
*END

*D_NET *199 0.000908947
*CONN
*I *2317:A1 I *D sky130_fd_sc_hd__a21o_1
*I *2328:A2 I *D sky130_fd_sc_hd__a32o_1
*I *2315:Y O *D sky130_fd_sc_hd__nand3_1
*CAP
1 *2317:A1 2.33581e-05
2 *2328:A2 5.49509e-05
3 *2315:Y 0.000101699
4 *199:10 7.8309e-05
5 *199:8 0.000101699
6 *2317:A1 *2317:A2 5.50106e-05
7 *2317:A1 *212:8 2.4754e-05
8 *2328:A2 *2317:A2 9.67842e-05
9 *2328:A2 *2328:B1 2.32004e-05
10 *199:8 *200:10 6.4393e-05
11 *2328:A1 *2317:A1 0.000106299
12 *2328:A1 *2328:A2 0.00017849
*RES
1 *2315:Y *199:8 39.9057 
2 *199:8 *199:10 15 
3 *199:10 *2328:A2 25.0714 
4 *199:10 *2317:A1 24.595 
*END

*D_NET *200 0.000800504
*CONN
*I *2317:A2 I *D sky130_fd_sc_hd__a21o_1
*I *2328:A3 I *D sky130_fd_sc_hd__a32o_1
*I *2316:X O *D sky130_fd_sc_hd__a21o_1
*CAP
1 *2317:A2 4.19864e-05
2 *2328:A3 0
3 *2316:X 0.000165961
4 *200:12 4.19864e-05
5 *200:10 0.000165961
6 *2317:A2 *2328:B1 5.50106e-05
7 *2317:A2 *212:8 5.67058e-05
8 *200:10 *211:8 0
9 *2315:B *200:10 5.67058e-05
10 *2317:A1 *2317:A2 5.50106e-05
11 *2318:A2 *200:10 0
12 *2328:A2 *2317:A2 9.67842e-05
13 *197:34 *200:10 0
14 *199:8 *200:10 6.4393e-05
*RES
1 *2316:X *200:10 40.8793 
2 *200:10 *200:12 15 
3 *200:12 *2328:A3 23 
4 *200:12 *2317:A2 24.5743 
*END

*D_NET *201 9.87992e-05
*CONN
*I *2329:A I *D sky130_fd_sc_hd__and2_1
*I *2317:X O *D sky130_fd_sc_hd__a21o_1
*CAP
1 *2329:A 2.10467e-05
2 *2317:X 2.10467e-05
3 *177:10 *2329:A 5.67058e-05
*RES
1 *2317:X *2329:A 46.6214 
*END

*D_NET *202 0.00121484
*CONN
*I *2319:A2 I *D sky130_fd_sc_hd__a21o_1
*I *2327:A3 I *D sky130_fd_sc_hd__a32o_1
*I *2318:Y O *D sky130_fd_sc_hd__o211ai_1
*CAP
1 *2319:A2 3.4373e-05
2 *2327:A3 0
3 *2318:Y 0.000331382
4 *202:12 3.4373e-05
5 *202:10 0.000331382
6 *202:10 *205:8 0
7 *2318:A1 *202:10 2.93845e-05
8 *2318:A2 *202:10 4.38068e-06
9 *2319:A1 *2319:A2 9.84851e-05
10 *2327:A1 *2319:A2 0.00014196
11 *2327:A2 *2319:A2 5.3304e-05
12 *195:49 *202:10 4.39607e-05
13 *197:34 *202:10 0.000111852
*RES
1 *2318:Y *202:10 42.9093 
2 *202:10 *202:12 15 
3 *202:12 *2327:A3 23 
4 *202:12 *2319:A2 24.5743 
*END

*D_NET *203 0.000503822
*CONN
*I *2328:B1 I *D sky130_fd_sc_hd__a32o_1
*I *2319:X O *D sky130_fd_sc_hd__a21o_1
*CAP
1 *2328:B1 0.000112182
2 *2319:X 9.17955e-05
3 *203:8 0.000203978
4 *203:8 *211:8 0
5 *2317:A2 *2328:B1 5.50106e-05
6 *2328:A1 *2328:B1 1.76557e-05
7 *2328:A2 *2328:B1 2.32004e-05
*RES
1 *2319:X *203:8 39.5536 
2 *203:8 *2328:B1 40.1854 
*END

*D_NET *204 0.000615354
*CONN
*I *2321:A2 I *D sky130_fd_sc_hd__a21o_1
*I *2326:A3 I *D sky130_fd_sc_hd__a32o_1
*I *2320:Y O *D sky130_fd_sc_hd__nand3_1
*CAP
1 *2321:A2 2.53239e-05
2 *2326:A3 0
3 *2320:Y 0.000113652
4 *204:10 2.53239e-05
5 *204:8 0.000113652
6 *204:8 *210:8 4.334e-05
7 *2326:A1 *2321:A2 0.00014196
8 *2326:A2 *2321:A2 0.00014196
9 *192:21 *204:8 0
10 *192:38 *204:8 1.01436e-05
11 *195:12 *204:8 0
*RES
1 *2320:Y *204:8 40.2579 
2 *204:8 *204:10 15 
3 *204:10 *2326:A3 23 
4 *204:10 *2321:A2 24.5743 
*END

*D_NET *205 0.000585225
*CONN
*I *2327:B1 I *D sky130_fd_sc_hd__a32o_1
*I *2321:X O *D sky130_fd_sc_hd__a21o_1
*CAP
1 *2327:B1 6.81523e-05
2 *2321:X 0.000148151
3 *205:8 0.000216304
4 *2327:B1 *2327:B2 5.41385e-05
5 *195:12 *205:8 0
6 *195:36 *2327:B1 9.84794e-05
7 *202:10 *205:8 0
*RES
1 *2321:X *205:8 40.61 
2 *205:8 *2327:B1 39.8125 
*END

*D_NET *206 0.00155274
*CONN
*I *2323:A2 I *D sky130_fd_sc_hd__a21o_1
*I *2322:Y O *D sky130_fd_sc_hd__nand3_1
*CAP
1 *2323:A2 0
2 *2322:Y 0.000404105
3 *206:10 0.000404105
4 *206:10 *209:8 0.000114092
5 *206:10 *671:10 0
6 *2324:B1 *206:10 0.000127821
7 *176:10 *206:10 0
8 *180:16 *206:10 3.93272e-05
9 *190:43 *206:10 1.02387e-05
10 *191:12 *206:10 0.000224605
11 *191:18 *206:10 9.48381e-06
12 *192:21 *206:10 0.000218962
*RES
1 *2322:Y *206:10 45.6229 
2 *206:10 *2323:A2 38 
*END

*D_NET *207 0.000491707
*CONN
*I *2326:B1 I *D sky130_fd_sc_hd__a32o_1
*I *2323:X O *D sky130_fd_sc_hd__a21o_1
*CAP
1 *2326:B1 1.9927e-05
2 *2323:X 0.000148868
3 *207:10 0.000168795
4 *179:10 *207:10 0
5 *180:6 *207:10 8.60475e-05
6 *180:16 *207:10 1.24376e-05
7 *192:21 *207:10 5.56306e-05
*RES
1 *2323:X *207:10 40.6514 
2 *207:10 *2326:B1 38.2796 
*END

*D_NET *208 0.00044946
*CONN
*I *2325:B1 I *D sky130_fd_sc_hd__a211o_1
*I *2324:X O *D sky130_fd_sc_hd__a2bb2o_1
*CAP
1 *2325:B1 0
2 *2324:X 9.76277e-05
3 *208:10 9.76277e-05
4 *208:10 *676:64 5.56203e-05
5 *2325:A1 *208:10 0.000141879
6 *190:30 *208:10 5.67058e-05
*RES
1 *2324:X *208:10 40.5271 
2 *208:10 *2325:B1 38 
*END

*D_NET *209 0.00053798
*CONN
*I *2326:B2 I *D sky130_fd_sc_hd__a32o_1
*I *2325:X O *D sky130_fd_sc_hd__a211o_1
*CAP
1 *2326:B2 0.000103587
2 *2325:X 3.93847e-05
3 *209:8 0.000142972
4 *2324:B1 *2326:B2 1.40958e-05
5 *2326:A2 *2326:B2 0
6 *180:16 *2326:B2 7.53384e-06
7 *180:16 *209:8 0.000116314
8 *190:30 *2326:B2 0
9 *206:10 *209:8 0.000114092
*RES
1 *2325:X *209:8 39.5536 
2 *209:8 *2326:B2 39.595 
*END

*D_NET *210 0.000820725
*CONN
*I *2327:B2 I *D sky130_fd_sc_hd__a32o_1
*I *2326:X O *D sky130_fd_sc_hd__a32o_1
*CAP
1 *2327:B2 0.000183768
2 *2326:X 6.52397e-05
3 *210:8 0.000249008
4 *2320:C *2327:B2 5.67058e-05
5 *2327:B1 *2327:B2 5.41385e-05
6 *192:38 *210:8 1.69668e-05
7 *195:6 *2327:B2 1.40958e-05
8 *195:12 *210:8 7.03869e-05
9 *195:36 *2327:B2 6.70749e-05
10 *204:8 *210:8 4.334e-05
*RES
1 *2326:X *210:8 39.9057 
2 *210:8 *2327:B2 41.9564 
*END

*D_NET *211 0.000287602
*CONN
*I *2328:B2 I *D sky130_fd_sc_hd__a32o_1
*I *2327:X O *D sky130_fd_sc_hd__a32o_1
*CAP
1 *2328:B2 0
2 *2327:X 7.17459e-05
3 *211:8 7.17459e-05
4 *197:34 *211:8 0.00014411
5 *200:10 *211:8 0
6 *203:8 *211:8 0
*RES
1 *2327:X *211:8 39.9057 
2 *211:8 *2328:B2 38 
*END

*D_NET *212 0.000738802
*CONN
*I *2329:B I *D sky130_fd_sc_hd__and2_1
*I *2328:X O *D sky130_fd_sc_hd__a32o_1
*CAP
1 *2329:B 0
2 *2328:X 0.000202053
3 *212:8 0.000202053
4 *2317:A1 *212:8 2.4754e-05
5 *2317:A2 *212:8 5.67058e-05
6 *2328:A1 *212:8 2.9938e-05
7 *177:10 *212:8 0.000223299
*RES
1 *2328:X *212:8 27.93 
2 *212:8 *2329:B 23 
*END

*D_NET *213 0.00327516
*CONN
*I *2334:B I *D sky130_fd_sc_hd__xor2_2
*I *2331:B I *D sky130_fd_sc_hd__or2_1
*I *2332:B I *D sky130_fd_sc_hd__nand2_1
*I *2330:Y O *D sky130_fd_sc_hd__xnor2_2
*CAP
1 *2334:B 0
2 *2331:B 8.1212e-05
3 *2332:B 2.34823e-05
4 *2330:Y 0.000263535
5 *213:16 0.000434518
6 *213:10 0.000629497
7 *213:8 0.000563207
8 *2331:B *2331:A 5.67058e-05
9 *213:8 *2346:A 7.42621e-05
10 *213:8 *229:6 0.000267173
11 *213:8 *708:25 1.22822e-05
12 *213:8 *708:34 0.000394994
13 *213:8 *756:20 9.84851e-05
14 *213:10 *217:8 3.92407e-05
15 *213:10 *668:55 0
16 *213:10 *708:40 3.70187e-05
17 *213:10 *713:8 1.86869e-05
18 *213:10 *754:33 0
19 *213:16 *217:8 0.000280866
20 *213:16 *754:33 0
*RES
1 *2330:Y *213:8 45.2914 
2 *213:8 *213:10 6.13143 
3 *213:10 *213:16 21.67 
4 *213:16 *2332:B 23.4971 
5 *213:16 *2331:B 24.5743 
6 *213:10 *2334:B 15 
*END

*D_NET *214 0.00127995
*CONN
*I *2348:A1 I *D sky130_fd_sc_hd__a21o_1
*I *2347:A I *D sky130_fd_sc_hd__nand3_1
*I *2333:A I *D sky130_fd_sc_hd__and2_1
*I *2331:X O *D sky130_fd_sc_hd__or2_1
*CAP
1 *2348:A1 0
2 *2347:A 0
3 *2333:A 0
4 *2331:X 3.6316e-05
5 *214:34 0.000253841
6 *214:16 0.000164897
7 *214:8 0.000219583
8 *214:6 0.000344843
9 *214:8 *2348:A2 5.90675e-06
10 *214:8 *2348:B1 0
11 *214:16 *2347:C 0
12 *214:16 *215:8 0
13 *214:16 *227:42 8.18424e-05
14 *214:16 *668:55 0
15 *214:34 *2348:A2 2.56542e-05
16 *214:34 *2348:B1 2.02872e-05
17 *214:34 *2730:SET_B 0
18 *214:34 *228:10 1.22803e-05
19 *214:34 *669:10 0.000112717
20 *214:34 *673:16 1.77821e-06
*RES
1 *2331:X *214:6 23.6214 
2 *214:6 *214:8 1.20143 
3 *214:8 *214:16 33.2314 
4 *214:16 *2333:A 23 
5 *214:8 *2347:A 23 
6 *214:6 *214:34 33.7286 
7 *214:34 *2348:A1 23 
*END

*D_NET *215 0.000510706
*CONN
*I *2333:B I *D sky130_fd_sc_hd__and2_1
*I *2332:Y O *D sky130_fd_sc_hd__nand2_1
*CAP
1 *2333:B 2.67488e-05
2 *2332:Y 0.000117331
3 *215:8 0.000144079
4 *2333:B *2736:RESET_B 7.88926e-05
5 *2333:B *668:16 0.000143655
6 *215:8 *668:55 0
7 *214:16 *215:8 0
*RES
1 *2332:Y *215:8 39.9057 
2 *215:8 *2333:B 39.5743 
*END

*D_NET *216 0.00183652
*CONN
*I *2344:B1 I *D sky130_fd_sc_hd__o21ai_2
*I *2351:A I *D sky130_fd_sc_hd__or3_1
*I *2333:X O *D sky130_fd_sc_hd__and2_1
*CAP
1 *2344:B1 0.000165959
2 *2351:A 0.000185269
3 *2333:X 0.000284828
4 *216:8 0.000636056
5 *2344:B1 *2344:A1 4.05745e-05
6 *2344:B1 *2344:A2 0.00014196
7 *2344:B1 *218:6 2.64616e-05
8 *2351:A *2342:A 2.93845e-05
9 *2351:A *2344:A2 1.69668e-05
10 *2351:A *2351:C 5.67058e-05
11 *2351:A *217:14 0
12 *2351:A *218:12 0.000139647
13 *2351:A *224:10 0
14 *2351:A *245:10 3.35491e-05
15 *216:8 *217:14 0
16 *216:8 *227:42 0
17 *216:8 *245:10 7.91596e-05
18 *216:8 *668:8 0
*RES
1 *2333:X *216:8 42.3707 
2 *216:8 *2351:A 42.4121 
3 *216:8 *2344:B1 41.0036 
*END

*D_NET *217 0.00240884
*CONN
*I *2336:B I *D sky130_fd_sc_hd__xnor2_2
*I *2341:B I *D sky130_fd_sc_hd__and2_1
*I *2335:B I *D sky130_fd_sc_hd__nor2_1
*I *2334:X O *D sky130_fd_sc_hd__xor2_2
*CAP
1 *2336:B 5.17978e-05
2 *2341:B 0.000139089
3 *2335:B 0
4 *2334:X 0.000194504
5 *217:14 0.000488298
6 *217:8 0.00059551
7 *2336:B *2736:RESET_B 0.000128391
8 *2336:B *668:20 0.000128391
9 *2341:B *2335:A 9.76121e-05
10 *2341:B *218:6 2.4754e-05
11 *2341:B *224:10 9.24795e-06
12 *217:8 *668:55 0.000154704
13 *217:8 *754:33 0
14 *217:14 *218:6 5.67058e-05
15 *217:14 *668:55 1.97329e-05
16 *217:14 *754:33 0
17 *2351:A *217:14 0
18 *213:10 *217:8 3.92407e-05
19 *213:16 *217:8 0.000280866
20 *216:8 *217:14 0
*RES
1 *2334:X *217:8 44.1314 
2 *217:8 *217:14 21.4007 
3 *217:14 *2335:B 23 
4 *217:14 *2341:B 26.5214 
5 *217:8 *2336:B 40.5271 
*END

*D_NET *218 0.0023653
*CONN
*I *2344:A1 I *D sky130_fd_sc_hd__o21ai_2
*I *2351:B I *D sky130_fd_sc_hd__or3_1
*I *2342:A I *D sky130_fd_sc_hd__or2_1
*I *2335:Y O *D sky130_fd_sc_hd__nor2_1
*CAP
1 *2344:A1 0.000165979
2 *2351:B 0
3 *2342:A 0.000293516
4 *2335:Y 0.000278245
5 *218:12 0.000346898
6 *218:6 0.000497607
7 *2342:A *225:10 7.02038e-05
8 *2342:A *234:8 0
9 *2344:A1 *2344:A2 0.000226306
10 *218:6 *224:10 2.93747e-05
11 *218:12 *245:10 0.000139647
12 *2341:B *218:6 2.4754e-05
13 *2344:B1 *2344:A1 4.05745e-05
14 *2344:B1 *218:6 2.64616e-05
15 *2351:A *2342:A 2.93845e-05
16 *2351:A *218:12 0.000139647
17 *217:14 *218:6 5.67058e-05
*RES
1 *2335:Y *218:6 28.3857 
2 *218:6 *218:12 31.9057 
3 *218:12 *2342:A 28.3029 
4 *218:12 *2351:B 23 
5 *218:6 *2344:A1 26.48 
*END

*D_NET *219 0.00254993
*CONN
*I *2338:B I *D sky130_fd_sc_hd__xnor2_1
*I *2337:B I *D sky130_fd_sc_hd__and2b_1
*I *2339:B I *D sky130_fd_sc_hd__xor2_1
*I *2336:Y O *D sky130_fd_sc_hd__xnor2_2
*CAP
1 *2338:B 0
2 *2337:B 0.000252756
3 *2339:B 0
4 *2336:Y 0.000421011
5 *219:14 0.000451525
6 *219:8 0.000619781
7 *2337:B *2337:A_N 9.45591e-05
8 *2337:B *222:10 9.84794e-05
9 *2337:B *642:137 2.4754e-05
10 *219:8 *640:55 0.000206416
11 *219:8 *753:16 0.000280472
12 *219:14 *221:12 0
13 *219:14 *642:137 0.00010018
*RES
1 *2336:Y *219:8 49.4136 
2 *219:8 *219:14 18.7079 
3 *219:14 *2339:B 23 
4 *219:14 *2337:B 27.93 
5 *219:8 *2338:B 38 
*END

*D_NET *220 0.00106497
*CONN
*I *2343:A1 I *D sky130_fd_sc_hd__o21ba_1
*I *2353:A I *D sky130_fd_sc_hd__nor3b_1
*I *2337:X O *D sky130_fd_sc_hd__and2b_1
*CAP
1 *2343:A1 0
2 *2353:A 0.000274788
3 *2337:X 0.000102349
4 *220:8 0.000377137
5 *2353:A *2353:B 1.76557e-05
6 *2353:A *2353:C_N 0.000184527
7 *2353:A *2355:B1 0
8 *2353:A *223:14 5.50106e-05
9 *2353:A *223:23 5.35005e-05
10 *220:8 *223:23 0
*RES
1 *2337:X *220:8 25.0714 
2 *220:8 *2353:A 28.9036 
3 *220:8 *2343:A1 23 
*END

*D_NET *221 0.00261749
*CONN
*I *2340:A2 I *D sky130_fd_sc_hd__a21oi_1
*I *2359:B I *D sky130_fd_sc_hd__xor2_1
*I *2356:B I *D sky130_fd_sc_hd__and3_1
*I *2338:Y O *D sky130_fd_sc_hd__xnor2_1
*CAP
1 *2340:A2 0
2 *2359:B 2.61504e-05
3 *2356:B 0.000343384
4 *2338:Y 0.000431524
5 *221:18 0.00044478
6 *221:14 7.5246e-05
7 *221:12 0.000431524
8 *2356:B *223:10 0.000404502
9 *2356:B *242:12 2.4754e-05
10 *2359:B *2340:B1 5.67058e-05
11 *2359:B *2356:C 1.76557e-05
12 *2359:B *223:10 0.00010018
13 *221:12 *222:10 5.26204e-05
14 *221:12 *629:21 0.000185428
15 *221:12 *648:20 0
16 *221:18 *2340:A1 2.30292e-05
17 *219:14 *221:12 0
*RES
1 *2338:Y *221:12 45.395 
2 *221:12 *221:14 15 
3 *221:14 *221:18 1.595 
4 *221:18 *2356:B 29.235 
5 *221:18 *2359:B 24.5743 
6 *221:14 *2340:A2 23 
*END

*D_NET *222 0.00149658
*CONN
*I *2356:C I *D sky130_fd_sc_hd__and3_1
*I *2340:B1 I *D sky130_fd_sc_hd__a21oi_1
*I *2339:X O *D sky130_fd_sc_hd__xor2_1
*CAP
1 *2356:C 0.00029789
2 *2340:B1 6.04871e-05
3 *2339:X 0.000122209
4 *222:12 0.000358377
5 *222:10 0.000122209
6 *2340:B1 *2356:A 0
7 *2356:C *2356:A 0.000128401
8 *2356:C *223:10 9.24795e-06
9 *2356:C *242:12 3.29354e-05
10 *222:10 *2337:A_N 5.67058e-05
11 *222:10 *648:20 8.26569e-05
12 *2337:B *222:10 9.84794e-05
13 *2359:B *2340:B1 5.67058e-05
14 *2359:B *2356:C 1.76557e-05
15 *221:12 *222:10 5.26204e-05
*RES
1 *2339:X *222:10 41.3557 
2 *222:10 *222:12 15 
3 *222:12 *2340:B1 24.4707 
4 *222:12 *2356:C 27.5157 
*END

*D_NET *223 0.00311558
*CONN
*I *2353:B I *D sky130_fd_sc_hd__nor3b_1
*I *2358:A1 I *D sky130_fd_sc_hd__o21a_1
*I *2357:B I *D sky130_fd_sc_hd__or3_1
*I *2343:A2 I *D sky130_fd_sc_hd__o21ba_1
*I *2340:Y O *D sky130_fd_sc_hd__a21oi_1
*CAP
1 *2353:B 8.34807e-05
2 *2358:A1 0
3 *2357:B 0.000240477
4 *2343:A2 0
5 *2340:Y 0.000252802
6 *223:27 0.000384556
7 *223:23 0.000374569
8 *223:14 0.000172396
9 *223:10 0.000278189
10 *2353:B *2353:C_N 7.27182e-05
11 *2353:B *226:6 0.000143655
12 *2353:B *226:36 4.93812e-05
13 *2357:B *239:16 0.000123425
14 *2357:B *240:10 0
15 *2357:B *606:12 0
16 *2357:B *678:12 1.32939e-05
17 *223:10 *2356:A 9.90162e-05
18 *223:10 *242:12 9.84794e-05
19 *223:10 *648:20 0
20 *223:23 *2353:C_N 2.64616e-05
21 *223:27 *225:10 6.25829e-05
22 *223:27 *240:10 0
23 *2353:A *2353:B 1.76557e-05
24 *2353:A *223:14 5.50106e-05
25 *2353:A *223:23 5.35005e-05
26 *2356:B *223:10 0.000404502
27 *2356:C *223:10 9.24795e-06
28 *2359:B *223:10 0.00010018
29 *220:8 *223:23 0
*RES
1 *2340:Y *223:10 45.7471 
2 *223:10 *223:14 15.6214 
3 *223:14 *2343:A2 23 
4 *223:14 *223:23 2.9 
5 *223:23 *223:27 18.3143 
6 *223:27 *2357:B 41.8321 
7 *223:27 *2358:A1 38 
8 *223:23 *2353:B 26.0243 
*END

*D_NET *224 0.000529421
*CONN
*I *2342:B I *D sky130_fd_sc_hd__or2_1
*I *2341:X O *D sky130_fd_sc_hd__and2_1
*CAP
1 *2342:B 0
2 *2341:X 0.000229255
3 *224:10 0.000229255
4 *224:10 *2335:A 3.22879e-05
5 *2341:B *224:10 9.24795e-06
6 *2351:A *224:10 0
7 *218:6 *224:10 2.93747e-05
*RES
1 *2341:X *224:10 41.8321 
2 *224:10 *2342:B 38 
*END

*D_NET *225 0.00130474
*CONN
*I *2353:C_N I *D sky130_fd_sc_hd__nor3b_1
*I *2343:B1_N I *D sky130_fd_sc_hd__o21ba_1
*I *2342:X O *D sky130_fd_sc_hd__or2_1
*CAP
1 *2353:C_N 4.79885e-05
2 *2343:B1_N 0
3 *2342:X 0.000396134
4 *225:12 4.79885e-05
5 *225:10 0.000396134
6 *225:10 *226:10 0
7 *225:10 *648:20 0
8 *2342:A *225:10 7.02038e-05
9 *2353:A *2353:C_N 0.000184527
10 *2353:B *2353:C_N 7.27182e-05
11 *223:23 *2353:C_N 2.64616e-05
12 *223:27 *225:10 6.25829e-05
*RES
1 *2342:X *225:10 44.6493 
2 *225:10 *225:12 15 
3 *225:12 *2343:B1_N 23 
4 *225:12 *2353:C_N 25.0507 
*END

*D_NET *226 0.00351587
*CONN
*I *2354:B I *D sky130_fd_sc_hd__or3_1
*I *2355:A1 I *D sky130_fd_sc_hd__o21a_1
*I *2344:A2 I *D sky130_fd_sc_hd__o21ai_2
*I *2351:C I *D sky130_fd_sc_hd__or3_1
*I *2343:X O *D sky130_fd_sc_hd__o21ba_1
*CAP
1 *2354:B 9.02071e-05
2 *2355:A1 0
3 *2344:A2 0.000276102
4 *2351:C 4.98019e-05
5 *2343:X 9.21973e-05
6 *226:44 7.87903e-05
7 *226:36 0.000380717
8 *226:10 0.00059753
9 *226:6 0.000575543
10 *2344:A2 *2362:A2 0
11 *2344:A2 *227:8 0
12 *2344:A2 *245:10 0.000166522
13 *2351:C *245:10 1.40958e-05
14 *2354:B *2354:C 9.75779e-05
15 *2354:B *236:6 4.2573e-05
16 *2354:B *627:8 1.14154e-05
17 *226:10 *2362:A2 0
18 *226:10 *238:8 0
19 *226:10 *244:8 0
20 *226:36 *236:6 0.000185428
21 *226:44 *2354:C 4.17736e-05
22 *226:44 *2355:B1 9.84794e-05
23 *226:44 *236:6 5.50106e-05
24 *226:44 *243:8 2.71291e-05
25 *2344:A1 *2344:A2 0.000226306
26 *2344:B1 *2344:A2 0.00014196
27 *2351:A *2344:A2 1.69668e-05
28 *2351:A *2351:C 5.67058e-05
29 *2353:B *226:6 0.000143655
30 *2353:B *226:36 4.93812e-05
31 *225:10 *226:10 0
*RES
1 *2343:X *226:6 24.5743 
2 *226:6 *226:10 19.7229 
3 *226:10 *2351:C 39.0979 
4 *226:10 *2344:A2 44.7943 
5 *226:6 *226:36 4.12214 
6 *226:36 *226:44 31.9471 
7 *226:44 *2355:A1 23 
8 *226:36 *2354:B 25.0714 
*END

*D_NET *227 0.00293074
*CONN
*I *2348:A2 I *D sky130_fd_sc_hd__a21o_1
*I *2347:B I *D sky130_fd_sc_hd__nand3_1
*I *2352:A1 I *D sky130_fd_sc_hd__a21o_1
*I *2362:A2 I *D sky130_fd_sc_hd__a32o_1
*I *2344:Y O *D sky130_fd_sc_hd__o21ai_2
*CAP
1 *2348:A2 8.79024e-05
2 *2347:B 0
3 *2352:A1 0.000217765
4 *2362:A2 0.000127932
5 *2344:Y 0
6 *227:42 0.000442595
7 *227:8 0.000523358
8 *227:6 0.000532354
9 *2348:A2 *2348:B1 5.3304e-05
10 *2348:A2 *230:14 5.98263e-05
11 *2352:A1 *2352:A2 5.36519e-05
12 *2352:A1 *2362:B1 2.4754e-05
13 *2352:A1 *2362:B2 0.000185434
14 *2352:A1 *234:8 2.93845e-05
15 *2362:A2 *2352:A2 4.17736e-05
16 *2362:A2 *234:8 5.50106e-05
17 *2362:A2 *244:8 2.96154e-05
18 *227:8 *245:10 0
19 *227:42 *2347:C 4.6318e-06
20 *227:42 *245:10 0
21 *227:42 *668:8 0.000166513
22 *227:42 *669:10 0.000181532
23 *2344:A2 *2362:A2 0
24 *2344:A2 *227:8 0
25 *2362:A1 *2352:A1 0
26 *214:8 *2348:A2 5.90675e-06
27 *214:16 *227:42 8.18424e-05
28 *214:34 *2348:A2 2.56542e-05
29 *216:8 *227:42 0
30 *226:10 *2362:A2 0
*RES
1 *2344:Y *227:6 38 
2 *227:6 *227:8 2.96214 
3 *227:8 *2362:A2 40.2993 
4 *227:8 *2352:A1 43.0957 
5 *227:6 *227:42 23.3064 
6 *227:42 *2347:B 23 
7 *227:42 *2348:A2 25.2164 
*END

*D_NET *228 0.00136602
*CONN
*I *2348:B1 I *D sky130_fd_sc_hd__a21o_1
*I *2347:C I *D sky130_fd_sc_hd__nand3_1
*I *2345:X O *D sky130_fd_sc_hd__xor2_1
*CAP
1 *2348:B1 8.27097e-05
2 *2347:C 4.32179e-05
3 *2345:X 0.000350722
4 *228:10 0.00047665
5 *2347:C *637:172 0
6 *2347:C *669:10 6.16439e-05
7 *2348:B1 *230:14 6.03391e-05
8 *2348:B1 *669:10 0.000139352
9 *228:10 *2345:B 1.01436e-05
10 *228:10 *637:172 0
11 *228:10 *669:10 3.70187e-05
12 *228:10 *673:16 0
13 *228:10 *739:29 1.37246e-05
14 *2348:A2 *2348:B1 5.3304e-05
15 *214:8 *2348:B1 0
16 *214:16 *2347:C 0
17 *214:34 *2348:B1 2.02872e-05
18 *214:34 *228:10 1.22803e-05
19 *227:42 *2347:C 4.6318e-06
*RES
1 *2345:X *228:10 44.8771 
2 *228:10 *2347:C 38.8493 
3 *228:10 *2348:B1 40.5479 
*END

*D_NET *229 0.00177012
*CONN
*I *2407:B2 I *D sky130_fd_sc_hd__o221a_1
*I *2406:A1 I *D sky130_fd_sc_hd__a21oi_1
*I *2346:Y O *D sky130_fd_sc_hd__xnor2_1
*CAP
1 *2407:B2 0
2 *2406:A1 0.000122325
3 *2346:Y 0.000336541
4 *229:19 6.74688e-05
5 *229:6 0.000526334
6 *2406:A1 *668:77 0.000136743
7 *229:6 *668:77 8.52481e-05
8 *229:6 *708:34 2.02872e-05
9 *229:19 *273:10 1.14452e-05
10 *229:19 *273:14 0.000138727
11 *229:19 *668:77 4.08641e-05
12 *229:19 *708:40 1.69668e-05
13 *213:8 *229:6 0.000267173
*RES
1 *2346:Y *229:6 27.9093 
2 *229:6 *2406:A1 24.5743 
3 *229:6 *229:19 31.9057 
4 *229:19 *2407:B2 23 
*END

*D_NET *230 0.00220213
*CONN
*I *2349:B I *D sky130_fd_sc_hd__and3b_1
*I *2350:A1 I *D sky130_fd_sc_hd__a21bo_1
*I *2347:Y O *D sky130_fd_sc_hd__nand3_1
*CAP
1 *2349:B 0.000225671
2 *2350:A1 4.62172e-05
3 *2347:Y 0.000398958
4 *230:14 0.000670846
5 *2349:B *2350:B1_N 3.17516e-05
6 *2349:B *232:12 0.000128401
7 *2350:A1 *231:10 9.168e-05
8 *2350:A1 *678:10 0
9 *230:14 *2730:SET_B 0.000133316
10 *230:14 *231:10 0.000341027
11 *230:14 *669:10 1.40958e-05
12 *230:14 *678:10 0
13 *2348:A2 *230:14 5.98263e-05
14 *2348:B1 *230:14 6.03391e-05
*RES
1 *2347:Y *230:14 46.0164 
2 *230:14 *2350:A1 39.2014 
3 *230:14 *2349:B 41.48 
*END

*D_NET *231 0.001769
*CONN
*I *2350:A2 I *D sky130_fd_sc_hd__a21bo_1
*I *2349:C I *D sky130_fd_sc_hd__and3b_1
*I *2348:X O *D sky130_fd_sc_hd__a21o_1
*CAP
1 *2350:A2 0
2 *2349:C 0.000194088
3 *2348:X 0.000265939
4 *231:12 0.000194088
5 *231:10 0.000265939
6 *2349:C *2350:B1_N 0.000141954
7 *2349:C *232:12 0.00012377
8 *2349:C *669:28 0
9 *231:10 *343:10 7.03766e-05
10 *231:10 *669:10 8.01363e-05
11 *2350:A1 *231:10 9.168e-05
12 *230:14 *231:10 0.000341027
*RES
1 *2348:X *231:10 44.1729 
2 *231:10 *231:12 15 
3 *231:12 *2349:C 27.4536 
4 *231:12 *2350:A2 23 
*END

*D_NET *232 0.00173176
*CONN
*I *2363:B1 I *D sky130_fd_sc_hd__a21oi_1
*I *2349:X O *D sky130_fd_sc_hd__and3b_1
*CAP
1 *2363:B1 0
2 *2349:X 0.000332149
3 *232:12 0.000332149
4 *232:12 *2350:B1_N 5.67058e-05
5 *232:12 *2363:A1 0.000412528
6 *232:12 *343:10 0.00012239
7 *232:12 *669:28 0.000223665
8 *2349:B *232:12 0.000128401
9 *2349:C *232:12 0.00012377
*RES
1 *2349:X *232:12 34.6414 
2 *232:12 *2363:B1 23 
*END

*D_NET *233 0.000729314
*CONN
*I *2363:A1 I *D sky130_fd_sc_hd__a21oi_1
*I *2350:X O *D sky130_fd_sc_hd__a21bo_1
*CAP
1 *2363:A1 7.34911e-05
2 *2350:X 7.34911e-05
3 *2363:A1 *669:14 5.50049e-05
4 *2363:A1 *669:28 0.000114798
5 *232:12 *2363:A1 0.000412528
*RES
1 *2350:X *2363:A1 49.48 
*END

*D_NET *234 0.000865817
*CONN
*I *2352:A2 I *D sky130_fd_sc_hd__a21o_1
*I *2362:A3 I *D sky130_fd_sc_hd__a32o_1
*I *2351:X O *D sky130_fd_sc_hd__or3_1
*CAP
1 *2352:A2 5.69559e-05
2 *2362:A3 0
3 *2351:X 0.000102287
4 *234:8 0.000159242
5 *2352:A2 *2362:B1 0.000121918
6 *2352:A2 *2362:B2 0.000185434
7 *234:8 *245:10 2.30292e-05
8 *2342:A *234:8 0
9 *2352:A1 *2352:A2 5.36519e-05
10 *2352:A1 *234:8 2.93845e-05
11 *2362:A1 *2352:A2 3.71311e-05
12 *2362:A2 *2352:A2 4.17736e-05
13 *2362:A2 *234:8 5.50106e-05
*RES
1 *2351:X *234:8 25.4236 
2 *234:8 *2362:A3 23 
3 *234:8 *2352:A2 26.0036 
*END

*D_NET *235 0.000712631
*CONN
*I *2362:B1 I *D sky130_fd_sc_hd__a32o_1
*I *2352:X O *D sky130_fd_sc_hd__a21o_1
*CAP
1 *2362:B1 6.49457e-05
2 *2352:X 6.49457e-05
3 *2352:A1 *2362:B1 2.4754e-05
4 *2352:A2 *2362:B1 0.000121918
5 *2352:B1 *2362:B1 9.84794e-05
6 *2362:A1 *2362:B1 0.000337589
*RES
1 *2352:X *2362:B1 49.7182 
*END

*D_NET *236 0.000726228
*CONN
*I *2354:C I *D sky130_fd_sc_hd__or3_1
*I *2355:A2 I *D sky130_fd_sc_hd__o21a_1
*I *2353:Y O *D sky130_fd_sc_hd__nor3b_1
*CAP
1 *2354:C 4.07253e-05
2 *2355:A2 0
3 *2353:Y 6.76556e-05
4 *236:6 0.000108381
5 *2354:C *2355:B1 6.23487e-05
6 *236:6 *2355:B1 2.4754e-05
7 *2354:B *2354:C 9.75779e-05
8 *2354:B *236:6 4.2573e-05
9 *226:36 *236:6 0.000185428
10 *226:44 *2354:C 4.17736e-05
11 *226:44 *236:6 5.50106e-05
*RES
1 *2353:Y *236:6 25.5271 
2 *236:6 *2355:A2 23 
3 *236:6 *2354:C 24.595 
*END

*D_NET *237 0.000874171
*CONN
*I *2361:B1 I *D sky130_fd_sc_hd__o21ai_1
*I *2354:X O *D sky130_fd_sc_hd__or3_1
*CAP
1 *2361:B1 0.000130708
2 *2354:X 0.00010233
3 *237:8 0.000233038
4 *2361:B1 *629:21 0.000359326
5 *237:8 *238:8 0
6 *237:8 *243:8 0
7 *237:8 *629:21 1.58805e-05
8 *237:8 *678:10 3.28876e-05
*RES
1 *2354:X *237:8 39.9057 
2 *237:8 *2361:B1 41.9564 
*END

*D_NET *238 0.000387755
*CONN
*I *2361:A1 I *D sky130_fd_sc_hd__o21ai_1
*I *2355:X O *D sky130_fd_sc_hd__o21a_1
*CAP
1 *2361:A1 3.2572e-05
2 *2355:X 0.000146618
3 *238:8 0.00017919
4 *2361:A1 *629:21 2.93747e-05
5 *238:8 *243:8 0
6 *226:10 *238:8 0
7 *237:8 *238:8 0
*RES
1 *2355:X *238:8 40.2579 
2 *238:8 *2361:A1 38.6214 
*END

*D_NET *239 0.000811252
*CONN
*I *2358:A2 I *D sky130_fd_sc_hd__o21a_1
*I *2357:C I *D sky130_fd_sc_hd__or3_1
*I *2356:X O *D sky130_fd_sc_hd__and3_1
*CAP
1 *2358:A2 0
2 *2357:C 0
3 *2356:X 0.000108919
4 *239:16 0.000123644
5 *239:8 0.000232563
6 *239:8 *2358:B1 4.00259e-06
7 *239:8 *242:12 7.36613e-05
8 *239:16 *606:12 4.48568e-05
9 *239:16 *678:12 0.00010018
10 *2357:B *239:16 0.000123425
*RES
1 *2356:X *239:8 25.0714 
2 *239:8 *239:16 33.3557 
3 *239:16 *2357:C 23 
4 *239:8 *2358:A2 23 
*END

*D_NET *240 0.000388752
*CONN
*I *2360:B1 I *D sky130_fd_sc_hd__o31a_1
*I *2357:X O *D sky130_fd_sc_hd__or3_1
*CAP
1 *2360:B1 0
2 *2357:X 0.000185706
3 *240:10 0.000185706
4 *240:10 *606:12 0
5 *240:10 *678:12 1.73399e-05
6 *2357:B *240:10 0
7 *223:27 *240:10 0
*RES
1 *2357:X *240:10 40.8793 
2 *240:10 *2360:B1 38 
*END

*D_NET *241 0.000444356
*CONN
*I *2360:A2 I *D sky130_fd_sc_hd__o31a_1
*I *2358:X O *D sky130_fd_sc_hd__o21a_1
*CAP
1 *2360:A2 5.71309e-05
2 *2358:X 5.71309e-05
3 *2360:A2 *242:12 0.000102093
4 *2360:A2 *606:6 0.000228001
*RES
1 *2358:X *2360:A2 48.5271 
*END

*D_NET *242 0.00127726
*CONN
*I *2360:A3 I *D sky130_fd_sc_hd__o31a_1
*I *2359:X O *D sky130_fd_sc_hd__xor2_1
*CAP
1 *2360:A3 0
2 *2359:X 0.000410765
3 *242:12 0.000410765
4 *242:12 *2356:A 5.67058e-05
5 *242:12 *2358:B1 5.67058e-05
6 *242:12 *606:6 1.03955e-05
7 *2356:B *242:12 2.4754e-05
8 *2356:C *242:12 3.29354e-05
9 *2360:A2 *242:12 0.000102093
10 *223:10 *242:12 9.84794e-05
11 *239:8 *242:12 7.36613e-05
*RES
1 *2359:X *242:12 32.2593 
2 *242:12 *2360:A3 23 
*END

*D_NET *243 0.00115894
*CONN
*I *2361:A2 I *D sky130_fd_sc_hd__o21ai_1
*I *2360:X O *D sky130_fd_sc_hd__o31a_1
*CAP
1 *2361:A2 0.000157533
2 *2360:X 0.000294768
3 *243:8 0.000452301
4 *2361:A2 *629:21 0.000227208
5 *243:8 *678:10 0
6 *226:44 *243:8 2.71291e-05
7 *237:8 *243:8 0
8 *238:8 *243:8 0
*RES
1 *2360:X *243:8 42.0186 
2 *243:8 *2361:A2 40.5271 
*END

*D_NET *244 0.000790184
*CONN
*I *2362:B2 I *D sky130_fd_sc_hd__a32o_1
*I *2361:Y O *D sky130_fd_sc_hd__o21ai_1
*CAP
1 *2362:B2 3.04956e-05
2 *2361:Y 0.000164354
3 *244:8 0.00019485
4 *244:8 *629:21 0
5 *2352:A1 *2362:B2 0.000185434
6 *2352:A2 *2362:B2 0.000185434
7 *2362:A2 *244:8 2.96154e-05
8 *226:10 *244:8 0
*RES
1 *2361:Y *244:8 40.61 
2 *244:8 *2362:B2 40.0507 
*END

*D_NET *245 0.00116218
*CONN
*I *2363:A2 I *D sky130_fd_sc_hd__a21oi_1
*I *2362:X O *D sky130_fd_sc_hd__a32o_1
*CAP
1 *2363:A2 0
2 *2362:X 0.000353088
3 *245:10 0.000353088
4 *2344:A2 *245:10 0.000166522
5 *2351:A *245:10 3.35491e-05
6 *2351:C *245:10 1.40958e-05
7 *216:8 *245:10 7.91596e-05
8 *218:12 *245:10 0.000139647
9 *227:8 *245:10 0
10 *227:42 *245:10 0
11 *234:8 *245:10 2.30292e-05
*RES
1 *2362:X *245:10 44.7736 
2 *245:10 *2363:A2 38 
*END

*D_NET *246 0.00511659
*CONN
*I *2488:C_N I *D sky130_fd_sc_hd__or3b_4
*I *2468:C_N I *D sky130_fd_sc_hd__or3b_4
*I *2368:C I *D sky130_fd_sc_hd__and3_2
*I *2366:B I *D sky130_fd_sc_hd__and2_1
*I *2365:B I *D sky130_fd_sc_hd__nor2_1
*I *2364:X O *D sky130_fd_sc_hd__and2b_1
*CAP
1 *2488:C_N 0
2 *2468:C_N 1.80909e-05
3 *2368:C 0.000284385
4 *2366:B 0.00027864
5 *2365:B 0.000120815
6 *2364:X 0.000161873
7 *246:61 0.000535557
8 *246:40 0.000986481
9 *246:23 0.000755194
10 *246:8 0.000574612
11 *2365:B *247:12 0.000143655
12 *2365:B *677:27 0
13 *2365:B *677:31 7.88926e-05
14 *2366:B *2367:A 6.82514e-05
15 *2366:B *2367:B 2.02517e-05
16 *2366:B *2740:CLK 0.000105453
17 *2366:B *248:19 9.58714e-05
18 *2368:C *2379:B 6.84987e-06
19 *2368:C *2382:B 2.96051e-05
20 *2368:C *250:10 2.76611e-06
21 *2368:C *730:29 9.48909e-05
22 *2368:C *744:8 3.90229e-05
23 *2468:C_N *2468:B 5.67058e-05
24 *246:8 *366:12 0
25 *246:23 *366:12 0.000125404
26 *246:40 *2367:A 7.81073e-05
27 *246:40 *2382:B 6.22372e-05
28 *246:61 *2468:B 8.29052e-05
29 *246:61 *250:10 0.000181131
30 *246:61 *730:19 0.000105913
31 *175:16 *2368:C 2.30292e-05
*RES
1 *2364:X *246:8 40.9621 
2 *246:8 *2365:B 41.48 
3 *246:8 *246:23 19.4329 
4 *246:23 *2366:B 28.0957 
5 *246:23 *246:40 19.0186 
6 *246:40 *2368:C 43.0543 
7 *246:40 *246:61 22.6643 
8 *246:61 *2468:C_N 23.6214 
9 *246:61 *2488:C_N 23 
*END

*D_NET *247 0.00271196
*CONN
*I *2367:A I *D sky130_fd_sc_hd__nor2_1
*I *2382:B I *D sky130_fd_sc_hd__xnor2_1
*I *2365:Y O *D sky130_fd_sc_hd__nor2_1
*CAP
1 *2367:A 0.000429252
2 *2382:B 0.000115462
3 *2365:Y 0.000178263
4 *247:12 0.000722977
5 *2367:A *2367:B 6.07084e-05
6 *2367:A *2740:CLK 0.000183331
7 *2367:A *248:19 2.9938e-05
8 *2367:A *350:71 1.69668e-05
9 *2382:B *250:10 1.58805e-05
10 *2382:B *350:71 4.48731e-05
11 *247:12 *2365:A 2.02517e-05
12 *247:12 *2742:RESET_B 2.62876e-05
13 *247:12 *677:31 0.000153497
14 *247:12 *729:8 0.000300125
15 *247:12 *729:48 3.22879e-05
16 *2365:B *247:12 0.000143655
17 *2366:B *2367:A 6.82514e-05
18 *2368:C *2382:B 2.96051e-05
19 *246:40 *2367:A 7.81073e-05
20 *246:40 *2382:B 6.22372e-05
*RES
1 *2365:Y *247:12 45.4571 
2 *247:12 *2382:B 40.61 
3 *247:12 *2367:A 47.1971 
*END

*D_NET *248 0.00305212
*CONN
*I *2369:B I *D sky130_fd_sc_hd__nor2_1
*I *2478:B I *D sky130_fd_sc_hd__nand2_4
*I *2367:B I *D sky130_fd_sc_hd__nor2_1
*I *2366:X O *D sky130_fd_sc_hd__and2_1
*CAP
1 *2369:B 0.0002986
2 *2478:B 5.66039e-05
3 *2367:B 4.82105e-05
4 *2366:X 0
5 *248:19 0.00066825
6 *248:4 0.000361257
7 *2369:B *2369:A 0.00012522
8 *2369:B *730:19 6.08617e-05
9 *2369:B *730:45 9.84851e-05
10 *2478:B *2368:B 0.000168754
11 *2478:B *350:71 0.000166522
12 *248:19 *2366:A 0.00021356
13 *248:19 *2368:B 2.55642e-05
14 *248:19 *2740:CLK 9.85378e-05
15 *248:19 *350:71 0.000293804
16 *248:19 *729:10 0.000161121
17 *2366:B *2367:B 2.02517e-05
18 *2366:B *248:19 9.58714e-05
19 *2367:A *2367:B 6.07084e-05
20 *2367:A *248:19 2.9938e-05
*RES
1 *2366:X *248:4 23 
2 *248:4 *2367:B 24.4707 
3 *248:4 *248:19 22.4779 
4 *248:19 *2478:B 40.2579 
5 *248:19 *2369:B 43.4064 
*END

*D_NET *249 0.00507895
*CONN
*I *2499:B I *D sky130_fd_sc_hd__nand3b_4
*I *2372:B I *D sky130_fd_sc_hd__and2_1
*I *2371:B I *D sky130_fd_sc_hd__nor2_1
*I *2573:C_N I *D sky130_fd_sc_hd__or3b_4
*I *2370:A I *D sky130_fd_sc_hd__nor2_1
*I *2368:X O *D sky130_fd_sc_hd__and3_2
*CAP
1 *2499:B 0
2 *2372:B 0
3 *2371:B 0
4 *2573:C_N 0
5 *2370:A 0.000125738
6 *2368:X 0.000142024
7 *249:45 0.00013142
8 *249:39 0.000167226
9 *249:37 0.00029577
10 *249:29 0.000627963
11 *249:16 0.000644413
12 *249:12 0.0002927
13 *2370:A *2370:B 1.92007e-05
14 *249:12 *2291:A 0
15 *249:12 *2370:B 0.0001164
16 *249:12 *324:10 5.50106e-05
17 *249:12 *326:8 5.94125e-05
18 *249:29 *259:23 0
19 *249:29 *322:10 0.000107776
20 *249:29 *324:10 0.00028723
21 *249:29 *326:25 0.00021673
22 *249:29 *326:29 0.00022488
23 *249:29 *635:78 4.38375e-05
24 *249:37 *2479:A 0.0002263
25 *249:37 *259:23 0
26 *249:37 *326:29 0.000187986
27 *249:37 *633:115 0.000349813
28 *249:37 *636:46 3.21327e-05
29 *249:39 *2479:A 5.50106e-05
30 *249:39 *251:10 0.000140259
31 *249:45 *2573:B 1.34542e-05
32 *249:45 *252:10 2.96369e-05
33 *249:45 *252:12 1.19692e-05
34 *249:45 *323:16 5.64066e-05
35 *249:45 *636:46 6.07611e-06
36 *175:16 *2370:A 1.37232e-05
37 *175:16 *249:12 0.00026808
38 *175:16 *249:16 9.67916e-05
39 *175:26 *2370:A 1.94693e-05
40 *175:26 *249:16 1.41077e-05
*RES
1 *2368:X *249:12 42.35 
2 *249:12 *249:16 17.0507 
3 *249:16 *2370:A 25.2993 
4 *249:16 *249:29 25.3571 
5 *249:29 *249:37 22.4157 
6 *249:37 *249:39 1.57429 
7 *249:39 *249:45 32.61 
8 *249:45 *2573:C_N 23 
9 *249:39 *2371:B 23 
10 *249:37 *2372:B 23 
11 *249:29 *2499:B 38 
*END

*D_NET *250 0.00374748
*CONN
*I *2370:B I *D sky130_fd_sc_hd__nor2_1
*I *2379:B I *D sky130_fd_sc_hd__xnor2_1
*I *2369:Y O *D sky130_fd_sc_hd__nor2_1
*CAP
1 *2370:B 0.000411256
2 *2379:B 0.000295383
3 *2369:Y 0.000231347
4 *250:10 0.000937986
5 *2370:B *324:10 0.000139352
6 *2370:B *735:10 5.50049e-05
7 *2379:B *2303:A 5.3304e-05
8 *2379:B *350:71 0.000482041
9 *2379:B *744:8 0
10 *250:10 *2369:A 0.000228001
11 *250:10 *350:71 0.000208827
12 *250:10 *730:19 5.50106e-05
13 *250:10 *730:29 0.000140958
14 *250:10 *730:45 4.04303e-05
15 *2368:C *2379:B 6.84987e-06
16 *2368:C *250:10 2.76611e-06
17 *2370:A *2370:B 1.92007e-05
18 *2382:B *250:10 1.58805e-05
19 *175:16 *2370:B 2.78638e-05
20 *175:26 *2370:B 9.84851e-05
21 *246:61 *250:10 0.000181131
22 *249:12 *2370:B 0.0001164
*RES
1 *2369:Y *250:10 44.9186 
2 *250:10 *2379:B 45.105 
3 *250:10 *2370:B 45.7886 
*END

*D_NET *251 0.00159362
*CONN
*I *2373:A I *D sky130_fd_sc_hd__nor2_1
*I *2377:B I *D sky130_fd_sc_hd__xnor2_1
*I *2371:Y O *D sky130_fd_sc_hd__nor2_1
*CAP
1 *2373:A 0
2 *2377:B 0.000101348
3 *2371:Y 0.000322889
4 *251:10 0.000424236
5 *2377:B *350:54 2.11887e-05
6 *2377:B *635:101 0.000191148
7 *2377:B *736:10 6.93449e-05
8 *2377:B *745:14 1.37349e-05
9 *251:10 *2372:A 2.64616e-05
10 *251:10 *2479:A 2.32004e-05
11 *251:10 *252:10 9.75779e-05
12 *251:10 *350:54 4.38375e-05
13 *251:10 *633:115 4.02798e-05
14 *251:10 *745:14 7.81176e-05
15 *249:39 *251:10 0.000140259
*RES
1 *2371:Y *251:10 44.6907 
2 *251:10 *2377:B 40.9621 
3 *251:10 *2373:A 38 
*END

*D_NET *252 0.00540996
*CONN
*I *2385:B I *D sky130_fd_sc_hd__nand2_1
*I *2373:B I *D sky130_fd_sc_hd__nor2_1
*I *2374:B I *D sky130_fd_sc_hd__nor2_1
*I *2546:B I *D sky130_fd_sc_hd__nand2b_4
*I *2372:X O *D sky130_fd_sc_hd__and2_1
*CAP
1 *2385:B 0.000124822
2 *2373:B 1.57088e-05
3 *2374:B 0.000652261
4 *2546:B 5.66322e-05
5 *2372:X 0.000206042
6 *252:36 0.000277769
7 *252:12 0.000838563
8 *252:10 0.00047295
9 *2373:B *2508:A 4.00259e-06
10 *2374:B *2374:A 0.000218389
11 *2374:B *350:43 0.000221992
12 *2374:B *350:54 8.34394e-05
13 *2374:B *636:8 4.39152e-05
14 *2374:B *746:6 3.17516e-05
15 *2385:B *2385:A 0.0002263
16 *2385:B *2829:A 0.00010018
17 *2385:B *260:8 0.000223611
18 *2385:B *635:6 5.3304e-05
19 *2385:B *635:8 7.31454e-05
20 *2546:B *326:41 0.000168744
21 *2546:B *350:30 1.14452e-05
22 *2546:B *350:43 0.000155068
23 *252:10 *2479:A 3.17634e-05
24 *252:10 *2573:B 0.000101708
25 *252:12 *2573:B 3.70187e-05
26 *252:12 *323:16 0
27 *252:12 *326:29 7.28231e-05
28 *252:12 *326:41 2.77955e-05
29 *252:12 *339:12 0.00010403
30 *252:12 *350:43 3.70187e-05
31 *252:36 *2508:B 5.3304e-05
32 *252:36 *260:8 0.000392386
33 *252:36 *330:10 2.93747e-05
34 *252:36 *339:8 2.93747e-05
35 *252:36 *635:8 4.34973e-05
36 *252:36 *635:14 5.0644e-05
37 *249:45 *252:10 2.96369e-05
38 *249:45 *252:12 1.19692e-05
39 *251:10 *252:10 9.75779e-05
*RES
1 *2372:X *252:10 41.6043 
2 *252:10 *252:12 4.01857 
3 *252:12 *2546:B 40.2579 
4 *252:12 *2374:B 49.6 
5 *252:10 *252:36 19.4329 
6 *252:36 *2373:B 23.4971 
7 *252:36 *2385:B 28.075 
*END

*D_NET *253 0.00293024
*CONN
*I *2375:B I *D sky130_fd_sc_hd__xnor2_1
*I *2414:A_N I *D sky130_fd_sc_hd__and2b_1
*I *2374:Y O *D sky130_fd_sc_hd__nor2_1
*CAP
1 *2375:B 0.000726466
2 *2414:A_N 0
3 *2374:Y 0.000254505
4 *253:12 8.60403e-05
5 *253:6 0.00106701
6 *2375:B *260:35 1.94812e-05
7 *2375:B *733:37 0.000198206
8 *2375:B *746:27 8.52481e-05
9 *253:6 *746:6 0.000140259
10 *253:6 *746:27 0.000226306
11 *253:12 *677:27 6.33614e-05
12 *253:12 *746:27 6.33614e-05
*RES
1 *2374:Y *253:6 26.9564 
2 *253:6 *253:12 31.9057 
3 *253:12 *2414:A_N 23 
4 *253:6 *2375:B 35.0971 
*END

*D_NET *254 0.00354127
*CONN
*I *2389:A I *D sky130_fd_sc_hd__nor2_1
*I *2376:Y O *D sky130_fd_sc_hd__xnor2_1
*CAP
1 *2389:A 0
2 *2376:Y 0.000578272
3 *254:14 0.00116089
4 *254:8 0.00173916
5 *254:8 *681:10 0
6 *254:8 *728:16 0
7 *254:8 *732:21 0
8 *254:14 *2387:A 6.29487e-05
9 *183:10 *254:8 0
10 *183:21 *254:8 0
11 *198:8 *254:8 0
12 *198:27 *254:8 0
*RES
1 *2376:Y *254:8 48.005 
2 *254:8 *254:14 33.27 
3 *254:14 *2389:A 23 
*END

*D_NET *255 0.000295353
*CONN
*I *2388:A I *D sky130_fd_sc_hd__or4b_1
*I *2378:X O *D sky130_fd_sc_hd__xor2_1
*CAP
1 *2388:A 0.000111241
2 *2378:X 0.000111241
3 *2388:A *2388:C 7.28721e-05
*RES
1 *2378:X *2388:A 48.0714 
*END

*D_NET *256 0.000533164
*CONN
*I *2388:B I *D sky130_fd_sc_hd__or4b_1
*I *2380:Y O *D sky130_fd_sc_hd__nor2_1
*CAP
1 *2388:B 0.000110963
2 *2380:Y 6.55145e-05
3 *256:8 0.000176477
4 *2388:B *633:115 0.000139346
5 *256:8 *257:10 4.08641e-05
6 *256:8 *327:99 0
*RES
1 *2380:Y *256:8 39.2014 
2 *256:8 *2388:B 39.5743 
*END

*D_NET *257 0.000598277
*CONN
*I *2388:D_N I *D sky130_fd_sc_hd__or4b_1
*I *2381:Y O *D sky130_fd_sc_hd__nand2_1
*CAP
1 *2388:D_N 0
2 *2381:Y 0.000172199
3 *257:10 0.000172199
4 *257:10 *327:99 0
5 *257:10 *744:16 0.000163343
6 *2380:A *257:10 4.96717e-05
7 *256:8 *257:10 4.08641e-05
*RES
1 *2381:Y *257:10 41.3557 
2 *257:10 *2388:D_N 38 
*END

*D_NET *258 0.000412109
*CONN
*I *2387:A I *D sky130_fd_sc_hd__nand2_1
*I *2383:Y O *D sky130_fd_sc_hd__xnor2_1
*CAP
1 *2387:A 0.00017458
2 *2383:Y 0.00017458
3 *254:14 *2387:A 6.29487e-05
*RES
1 *2383:Y *2387:A 49.5214 
*END

*D_NET *259 0.00420177
*CONN
*I *2469:A I *D sky130_fd_sc_hd__nor2_4
*I *2489:A I *D sky130_fd_sc_hd__nor2_4
*I *2479:A I *D sky130_fd_sc_hd__nor2_4
*I *2384:Y O *D sky130_fd_sc_hd__nand2_2
*CAP
1 *2469:A 0.000121962
2 *2489:A 0.000126957
3 *2479:A 0.0002241
4 *2384:Y 0.000182055
5 *259:23 0.000375643
6 *259:8 0.000532881
7 *2469:A *323:10 5.46706e-05
8 *2469:A *323:16 0.000164291
9 *2469:A *324:10 0
10 *2479:A *323:16 0.000182585
11 *2479:A *636:46 3.63546e-05
12 *2489:A *2489:B 0.000264564
13 *2489:A *327:12 9.13962e-05
14 *259:8 *2384:B 9.84851e-05
15 *259:8 *350:64 0.000692398
16 *259:8 *635:63 0.000137668
17 *259:8 *635:78 4.95081e-05
18 *259:8 *636:82 0.000236369
19 *259:23 *323:16 0.000244517
20 *259:23 *635:78 4.90891e-05
21 *249:29 *259:23 0
22 *249:37 *2479:A 0.0002263
23 *249:37 *259:23 0
24 *249:39 *2479:A 5.50106e-05
25 *251:10 *2479:A 2.32004e-05
26 *252:10 *2479:A 3.17634e-05
*RES
1 *2384:Y *259:8 45.7679 
2 *259:8 *2479:A 43.6343 
3 *259:8 *259:23 3.31429 
4 *259:23 *2489:A 41.5007 
5 *259:23 *2469:A 40.9621 
*END

*D_NET *260 0.0160965
*CONN
*I *2827:A I *D sky130_fd_sc_hd__buf_4
*I *2606:S I *D sky130_fd_sc_hd__mux2_1
*I *2385:Y O *D sky130_fd_sc_hd__nand2_1
*CAP
1 *2827:A 0
2 *2606:S 0.000353189
3 *2385:Y 0
4 *260:35 0.000830212
5 *260:16 0.00202003
6 *260:8 0.00451119
7 *260:4 0.00367456
8 *2606:S *315:14 0
9 *2606:S *334:62 0.000111148
10 *2606:S *342:30 0
11 *2606:S *643:178 9.28078e-06
12 *2606:S *654:105 4.46114e-05
13 *260:8 *2573:B 5.12254e-05
14 *260:8 *2829:A 0.000143655
15 *260:8 *334:29 0.000643707
16 *260:8 *635:14 7.43025e-06
17 *260:8 *635:18 2.43944e-05
18 *260:8 *637:36 0.000252836
19 *260:8 *639:28 0.000111575
20 *260:16 *2460:S0 7.32953e-06
21 *260:16 *312:14 0.000142422
22 *260:16 *315:14 0.00022296
23 *260:16 *316:8 0.000959255
24 *260:16 *637:36 0.000505225
25 *260:16 *639:143 0.000112207
26 *260:35 *2829:A 0.000348774
27 *260:35 *363:10 0.000148391
28 *260:35 *364:8 0
29 *260:35 *633:93 2.13733e-05
30 *260:35 *633:99 6.47578e-05
31 *260:35 *676:64 0
32 *260:35 *737:6 1.94693e-05
33 *2375:B *260:35 1.94812e-05
34 *2385:B *260:8 0.000223611
35 *52:8 *2606:S 0.000119772
36 *252:36 *260:8 0.000392386
*RES
1 *2385:Y *260:4 23 
2 *260:4 *260:8 40.4239 
3 *260:8 *260:16 47.4696 
4 *260:16 *2606:S 45.8921 
5 *260:4 *260:35 43.3607 
6 *260:35 *2827:A 23 
*END

*D_NET *261 0.000559357
*CONN
*I *2387:B I *D sky130_fd_sc_hd__nand2_1
*I *2386:Y O *D sky130_fd_sc_hd__xnor2_1
*CAP
1 *2387:B 0
2 *2386:Y 0.000175778
3 *261:10 0.000175778
4 *261:10 *363:18 5.3304e-05
5 *261:10 *363:33 0.000138727
6 *261:10 *676:64 0
7 *198:18 *261:10 1.5769e-05
*RES
1 *2386:Y *261:10 41.0036 
2 *261:10 *2387:B 38 
*END

*D_NET *262 0.00140345
*CONN
*I *2388:C I *D sky130_fd_sc_hd__or4b_1
*I *2387:Y O *D sky130_fd_sc_hd__nand2_1
*CAP
1 *2388:C 0.000215218
2 *2387:Y 0.000205097
3 *262:8 0.000420315
4 *2388:C *2378:A 7.53384e-06
5 *2388:C *263:10 5.50106e-05
6 *2388:C *633:115 0.000109895
7 *262:8 *263:10 0
8 *262:8 *363:10 0.00021673
9 *262:8 *363:33 0.000100778
10 *2388:A *2388:C 7.28721e-05
*RES
1 *2387:Y *262:8 42.3707 
2 *262:8 *2388:C 42.4536 
*END

*D_NET *263 0.000935518
*CONN
*I *2389:B I *D sky130_fd_sc_hd__nor2_1
*I *2388:X O *D sky130_fd_sc_hd__or4b_1
*CAP
1 *2389:B 0
2 *2388:X 0.000266021
3 *263:10 0.000266021
4 *263:10 *363:33 0
5 *263:10 *677:27 0.000348465
6 *2388:C *263:10 5.50106e-05
7 *262:8 *263:10 0
*RES
1 *2388:X *263:10 43.3443 
2 *263:10 *2389:B 38 
*END

*D_NET *264 0.0229902
*CONN
*I *2828:A I *D sky130_fd_sc_hd__clkbuf_4
*I *2461:S I *D sky130_fd_sc_hd__mux2_1
*I *2423:S I *D sky130_fd_sc_hd__mux2_1
*I *2390:X O *D sky130_fd_sc_hd__and2b_2
*CAP
1 *2828:A 0
2 *2461:S 0
3 *2423:S 9.76337e-05
4 *2390:X 0.00015984
5 *264:39 0.00109492
6 *264:20 0.00393869
7 *264:18 0.00712132
8 *264:10 0.00453502
9 *2423:S *2857:A 2.93747e-05
10 *264:10 *2431:A0 3.16784e-05
11 *264:10 *678:50 0.000163783
12 *264:10 *739:10 7.44842e-05
13 *264:18 *2575:S 0
14 *264:18 *291:20 0
15 *264:18 *339:140 0
16 *264:18 *551:38 0
17 *264:18 *637:16 0.000876077
18 *264:18 *637:26 0.000624447
19 *264:18 *642:33 0
20 *264:18 *678:50 2.33476e-05
21 *264:18 *739:10 1.05658e-05
22 *264:20 *2422:A2 0.000406027
23 *264:20 *2574:S 1.05658e-05
24 *264:20 *2609:A1 4.06512e-05
25 *264:20 *2898:A 0
26 *264:20 *2965:A 2.47015e-05
27 *264:20 *2999:A 0.000400528
28 *264:20 *284:12 0
29 *264:20 *329:107 0.000542586
30 *264:20 *336:10 0.00032256
31 *264:20 *342:67 0
32 *264:20 *345:117 3.87221e-06
33 *264:20 *383:12 3.14377e-05
34 *264:20 *383:25 0.000261824
35 *264:20 *384:10 0
36 *264:20 *431:23 0
37 *264:20 *439:16 0.000136486
38 *264:20 *480:16 0.000188916
39 *264:20 *480:31 8.30722e-05
40 *264:20 *488:20 6.7825e-05
41 *264:20 *540:10 3.0647e-05
42 *264:20 *540:18 0.00021621
43 *264:20 *637:30 0
44 *264:20 *644:82 0
45 *264:20 *644:101 6.6869e-05
46 *264:20 *648:98 0.000110479
47 *264:20 *648:127 0.000205014
48 *264:20 *648:138 0
49 *264:20 *664:43 0
50 *264:20 *664:54 0
51 *264:20 *667:14 7.03317e-05
52 *264:39 *2617:CLK 0.00023668
53 *264:39 *2617:RESET_B 0.000111824
54 *264:39 *540:10 6.32688e-05
55 empty *264:18 0.000285772
56 *2617:D *264:39 0.000202653
57 *102:8 *264:20 8.82421e-05
*RES
1 *2390:X *264:10 41.3557 
2 *264:10 *264:18 28.656 
3 *264:18 *264:20 62.6504 
4 *264:20 *2423:S 39.5743 
5 *264:20 *264:39 32.8143 
6 *264:39 *2461:S 23 
7 *264:10 *2828:A 38 
*END

*D_NET *265 0.00100561
*CONN
*I *2404:B I *D sky130_fd_sc_hd__xnor2_1
*I *2393:A I *D sky130_fd_sc_hd__nor2_1
*I *2391:Y O *D sky130_fd_sc_hd__nor2_1
*CAP
1 *2404:B 1.42646e-05
2 *2393:A 0
3 *2391:Y 3.62613e-05
4 *265:14 0.000138963
5 *265:6 0.000189489
6 *2404:B *650:20 2.32101e-05
7 *2404:B *669:28 5.50106e-05
8 *265:6 *634:146 5.50049e-05
9 *265:6 *650:20 2.02872e-05
10 *265:6 *669:28 9.58714e-05
11 *265:14 *2392:B 5.50106e-05
12 *265:14 *642:99 1.22803e-05
13 *265:14 *642:101 9.64022e-05
14 *265:14 *668:26 0.000213551
*RES
1 *2391:Y *265:6 24.0979 
2 *265:6 *265:14 33.5836 
3 *265:14 *2393:A 23 
4 *265:6 *2404:B 23.6214 
*END

*D_NET *266 0.000631736
*CONN
*I *2393:B I *D sky130_fd_sc_hd__nor2_1
*I *2392:X O *D sky130_fd_sc_hd__and2_1
*CAP
1 *2393:B 0.00017804
2 *2392:X 0.00017804
3 *2393:B *2392:B 4.5051e-05
4 *2393:B *2840:A 0.000230604
*RES
1 *2392:X *2393:B 49.9771 
*END

*D_NET *267 0.00125792
*CONN
*I *2396:A I *D sky130_fd_sc_hd__nor2_1
*I *2400:B I *D sky130_fd_sc_hd__xnor2_1
*I *2394:Y O *D sky130_fd_sc_hd__a21oi_1
*CAP
1 *2396:A 0
2 *2400:B 0.000108571
3 *2394:Y 0.000195636
4 *267:12 0.000108571
5 *267:10 0.000195636
6 *2400:B *2396:B 8.47993e-05
7 *2400:B *640:20 0.000223692
8 *267:10 *363:10 0.000159802
9 *267:10 *551:26 1.24487e-05
10 *267:10 *634:40 3.7122e-06
11 *267:10 *669:87 0.000165054
*RES
1 *2394:Y *267:10 41.3557 
2 *267:10 *267:12 15 
3 *267:12 *2400:B 26.0243 
4 *267:12 *2396:A 23 
*END

*D_NET *268 0.00642074
*CONN
*I *2403:C I *D sky130_fd_sc_hd__and3_1
*I *2398:B I *D sky130_fd_sc_hd__and2_1
*I *2408:A2 I *D sky130_fd_sc_hd__a21oi_1
*I *2397:B I *D sky130_fd_sc_hd__nor2_1
*I *2396:B I *D sky130_fd_sc_hd__nor2_1
*I *2395:X O *D sky130_fd_sc_hd__and3_1
*CAP
1 *2403:C 0.000632598
2 *2398:B 5.85698e-05
3 *2408:A2 0.0003811
4 *2397:B 0
5 *2396:B 0.000326084
6 *2395:X 0
7 *268:35 7.63814e-05
8 *268:27 0.000747654
9 *268:21 0.000572545
10 *268:6 0.000588721
11 *268:4 0.000671432
12 *2396:B *2835:A 5.67058e-05
13 *2396:B *640:20 1.76557e-05
14 *2396:B *642:6 0.000170388
15 *2396:B *642:12 0.000265466
16 *2398:B *2395:B 0
17 *2398:B *269:25 6.16531e-05
18 *2398:B *639:43 2.16507e-05
19 *2403:C *2395:C 1.95448e-05
20 *2403:C *2403:B 1.17801e-06
21 *2403:C *2835:A 9.77541e-05
22 *2408:A2 *2408:A1 6.87362e-05
23 *2408:A2 *2408:B1 3.45967e-05
24 *2408:A2 *637:157 0.000267167
25 *2408:A2 *639:6 0.000547836
26 *2408:A2 *639:8 5.50106e-05
27 *268:6 *2835:A 2.4754e-05
28 *268:21 *2395:B 0
29 *268:21 *639:43 0.000133748
30 *268:27 *269:6 0.000253028
31 *268:27 *269:14 5.50106e-05
32 *268:27 *639:8 1.72202e-05
33 *268:35 *2837:A 2.96154e-05
34 *268:35 *639:8 5.50049e-05
35 *268:35 *672:40 2.71291e-05
36 *2400:B *2396:B 8.47993e-05
*RES
1 *2395:X *268:4 23 
2 *268:4 *268:6 0.621429 
3 *268:6 *2396:B 30.8093 
4 *268:6 *268:21 19.0186 
5 *268:21 *268:27 19.4536 
6 *268:27 *268:35 31.4707 
7 *268:35 *2397:B 23 
8 *268:27 *2408:A2 32.57 
9 *268:21 *2398:B 39.2014 
10 *268:4 *2403:C 30.8507 
*END

*D_NET *269 0.00253724
*CONN
*I *2411:B I *D sky130_fd_sc_hd__xnor2_1
*I *2399:A I *D sky130_fd_sc_hd__nor2_1
*I *2397:Y O *D sky130_fd_sc_hd__nor2_1
*CAP
1 *2411:B 0
2 *2399:A 0
3 *2397:Y 7.39132e-05
4 *269:25 0.000168536
5 *269:14 0.000263869
6 *269:6 0.000506318
7 *269:6 *639:8 0.000209554
8 *269:6 *639:10 5.50106e-05
9 *269:14 *2733:CLK 3.5471e-05
10 *269:14 *270:10 0.000183733
11 *269:14 *363:10 0
12 *269:14 *639:10 0.000125213
13 *269:14 *639:18 0.000268074
14 *269:14 *720:48 0.000188436
15 *269:25 *2395:B 3.66742e-05
16 *269:25 *644:23 4.66699e-05
17 *269:25 *648:70 6.07611e-06
18 *2398:B *269:25 6.16531e-05
19 *268:27 *269:6 0.000253028
20 *268:27 *269:14 5.50106e-05
*RES
1 *2397:Y *269:6 26.0036 
2 *269:6 *269:14 37.0429 
3 *269:14 *2399:A 23 
4 *269:6 *269:25 33.6664 
5 *269:25 *2411:B 23 
*END

*D_NET *270 0.000823705
*CONN
*I *2399:B I *D sky130_fd_sc_hd__nor2_1
*I *2398:X O *D sky130_fd_sc_hd__and2_1
*CAP
1 *2399:B 0
2 *2398:X 0.000238231
3 *270:10 0.000238231
4 *270:10 *639:43 0
5 *270:10 *720:48 0.000163509
6 *269:14 *270:10 0.000183733
*RES
1 *2398:X *270:10 42.3086 
2 *270:10 *2399:B 38 
*END

*D_NET *271 0.000793699
*CONN
*I *2407:A1 I *D sky130_fd_sc_hd__o221a_1
*I *2401:X O *D sky130_fd_sc_hd__and2_1
*CAP
1 *2407:A1 0
2 *2401:X 0.000152902
3 *271:10 0.000152902
4 *271:10 *551:18 0.000107451
5 *271:10 *634:24 0.000284573
6 *271:10 *754:33 9.58714e-05
*RES
1 *2401:X *271:10 27.4743 
2 *271:10 *2407:A1 23 
*END

*D_NET *272 0.00066632
*CONN
*I *2407:A2 I *D sky130_fd_sc_hd__o221a_1
*I *2402:Y O *D sky130_fd_sc_hd__nor2_1
*CAP
1 *2407:A2 0
2 *2402:Y 0.00025864
3 *272:10 0.00025864
4 *272:10 *273:6 8.08139e-06
5 *272:10 *273:10 6.33511e-05
6 *272:10 *273:47 8.08139e-06
7 *272:10 *708:40 6.33511e-05
8 *272:10 *720:28 6.17437e-06
*RES
1 *2402:Y *272:10 41.9564 
2 *272:10 *2407:A2 38 
*END

*D_NET *273 0.00355067
*CONN
*I *2416:A I *D sky130_fd_sc_hd__nor2_1
*I *2407:B1 I *D sky130_fd_sc_hd__o221a_1
*I *2417:B I *D sky130_fd_sc_hd__xor2_1
*I *2406:A2 I *D sky130_fd_sc_hd__a21oi_1
*I *2403:X O *D sky130_fd_sc_hd__and3_1
*CAP
1 *2416:A 0
2 *2407:B1 0
3 *2417:B 7.24346e-05
4 *2406:A2 3.20452e-05
5 *2403:X 0.000204125
6 *273:47 0.000489783
7 *273:14 0.000196637
8 *273:10 0.000258658
9 *273:6 0.000860409
10 *2406:A2 *668:77 5.3304e-05
11 *2417:B *275:12 0
12 *2417:B *668:77 0.00014196
13 *273:6 *2402:A 2.93747e-05
14 *273:6 *720:28 2.63049e-05
15 *273:10 *708:40 0
16 *273:10 *754:33 2.55642e-05
17 *273:10 *755:14 0.00012303
18 *273:14 *668:77 6.7177e-06
19 *273:14 *754:33 0.000187996
20 *273:47 *2416:B 5.3304e-05
21 *273:47 *276:12 0.000372802
22 *273:47 *668:112 0.00018036
23 *273:47 *712:10 6.17437e-06
24 *229:19 *273:10 1.14452e-05
25 *229:19 *273:14 0.000138727
26 *272:10 *273:6 8.08139e-06
27 *272:10 *273:10 6.33511e-05
28 *272:10 *273:47 8.08139e-06
*RES
1 *2403:X *273:6 25.5271 
2 *273:6 *273:10 19.0186 
3 *273:10 *273:14 17.61 
4 *273:14 *2406:A2 23.6214 
5 *273:14 *2417:B 25.0714 
6 *273:10 *2407:B1 38 
7 *273:6 *273:47 39.1764 
8 *273:47 *2416:A 23 
*END

*D_NET *274 0.00111059
*CONN
*I *2406:B1 I *D sky130_fd_sc_hd__a21oi_1
*I *2405:X O *D sky130_fd_sc_hd__xor2_1
*CAP
1 *2406:B1 0
2 *2405:X 0.000349004
3 *274:10 0.000349004
4 *274:10 *275:12 3.92407e-05
5 *274:10 *640:55 0.000161736
6 *274:10 *754:33 7.76364e-06
7 *274:10 *755:14 0.000203837
*RES
1 *2405:X *274:10 47.135 
2 *274:10 *2406:B1 38 
*END

*D_NET *275 0.000810137
*CONN
*I *2407:C1 I *D sky130_fd_sc_hd__o221a_1
*I *2406:Y O *D sky130_fd_sc_hd__a21oi_1
*CAP
1 *2407:C1 2.32701e-05
2 *2406:Y 0.000187341
3 *275:12 0.000210611
4 *2407:C1 *551:18 5.3304e-05
5 *2407:C1 *754:33 5.3304e-05
6 *275:12 *640:55 0
7 *275:12 *668:77 1.94812e-05
8 *275:12 *720:28 4.6318e-06
9 *275:12 *755:14 0.000218952
10 *2417:B *275:12 0
11 *274:10 *275:12 3.92407e-05
*RES
1 *2406:Y *275:12 42.0807 
2 *275:12 *2407:C1 38.6214 
*END

*D_NET *276 0.00270876
*CONN
*I *2413:A I *D sky130_fd_sc_hd__and3_1
*I *2407:X O *D sky130_fd_sc_hd__o221a_1
*CAP
1 *2413:A 0
2 *2407:X 0
3 *276:12 0.000555266
4 *276:6 0.000555266
5 *276:12 *2413:C 0.000315857
6 *276:12 *277:10 0.000513117
7 *276:12 *278:10 0
8 *276:12 *668:112 0.000138159
9 *276:12 *708:40 0.000258293
10 *273:47 *276:12 0.000372802
*RES
1 *2407:X *276:6 38 
2 *276:6 *276:12 32.3586 
3 *276:12 *2413:A 23 
*END

*D_NET *277 0.0021426
*CONN
*I *2416:B I *D sky130_fd_sc_hd__nor2_1
*I *2409:B I *D sky130_fd_sc_hd__xnor2_1
*I *2408:Y O *D sky130_fd_sc_hd__a21oi_1
*CAP
1 *2416:B 9.86051e-05
2 *2409:B 0
3 *2408:Y 0
4 *277:10 0.000265195
5 *277:4 0.0003638
6 *2416:B *2408:B1 5.15762e-05
7 *2416:B *637:172 7.28721e-05
8 *2416:B *712:10 1.5769e-05
9 *277:10 *278:10 0
10 *277:10 *708:40 0.000671346
11 *277:10 *708:50 3.70187e-05
12 *277:10 *755:10 0
13 *273:47 *2416:B 5.3304e-05
14 *276:12 *277:10 0.000513117
*RES
1 *2408:Y *277:4 23 
2 *277:4 *277:10 39.3007 
3 *277:10 *2409:B 23 
4 *277:4 *2416:B 25.5686 
*END

*D_NET *278 0.000533553
*CONN
*I *2413:B I *D sky130_fd_sc_hd__and3_1
*I *2410:Y O *D sky130_fd_sc_hd__xnor2_1
*CAP
1 *2413:B 0
2 *2410:Y 0.000211676
3 *278:10 0.000211676
4 *278:10 *722:8 3.71251e-05
5 *278:10 *756:20 7.30771e-05
6 *276:12 *278:10 0
7 *277:10 *278:10 0
*RES
1 *2410:Y *278:10 42.06 
2 *278:10 *2413:B 38 
*END

*D_NET *279 0.00139136
*CONN
*I *2413:C I *D sky130_fd_sc_hd__and3_1
*I *2412:Y O *D sky130_fd_sc_hd__xnor2_1
*CAP
1 *2413:C 0.000455375
2 *2412:Y 6.19464e-05
3 *279:8 0.000517321
4 *279:8 *708:40 4.08641e-05
5 *279:8 *755:14 0
6 *276:12 *2413:C 0.000315857
*RES
1 *2412:Y *279:8 39.2014 
2 *279:8 *2413:C 44.4214 
*END

*D_NET *280 0.00364977
*CONN
*I *2422:A2 I *D sky130_fd_sc_hd__mux4_1
*I *2418:X O *D sky130_fd_sc_hd__mux4_1
*CAP
1 *2422:A2 0.000362186
2 *2418:X 0.000184447
3 *280:8 0.000546633
4 *2422:A2 *2422:A3 3.32734e-05
5 *2422:A2 *336:10 0.000164291
6 *2422:A2 *336:51 0.000331074
7 *2422:A2 *342:67 0
8 *2422:A2 *639:34 0.000271382
9 *280:8 *2900:A 0.00031495
10 *280:8 *333:24 0.000781048
11 *280:8 *337:22 0.000254456
12 *264:20 *2422:A2 0.000406027
*RES
1 *2418:X *280:8 46.7207 
2 *280:8 *2422:A2 49.4446 
*END

*D_NET *281 0.00231324
*CONN
*I *2422:A0 I *D sky130_fd_sc_hd__mux4_1
*I *2419:X O *D sky130_fd_sc_hd__mux4_1
*CAP
1 *2422:A0 0
2 *2419:X 0.000182137
3 *281:14 0.00065775
4 *281:8 0.000839887
5 *281:8 *331:27 1.6273e-05
6 *281:14 *329:16 1.94693e-05
7 *281:14 *333:12 0
8 *281:14 *334:12 8.16253e-05
9 *281:14 *334:16 0.000399763
10 *281:14 *340:10 7.32852e-07
11 *281:14 *340:16 2.92149e-05
12 *281:14 *576:10 0
13 *281:14 *648:111 8.63907e-05
*RES
1 *2419:X *281:8 40.0507 
2 *281:8 *281:14 28.7957 
3 *281:14 *2422:A0 23 
*END

*D_NET *282 0.00284353
*CONN
*I *2422:A3 I *D sky130_fd_sc_hd__mux4_1
*I *2420:X O *D sky130_fd_sc_hd__mux4_1
*CAP
1 *2422:A3 0.000218244
2 *2420:X 0.000631152
3 *282:10 0.000849396
4 *2422:A3 *284:8 6.82514e-05
5 *2422:A3 *329:16 0.000103637
6 *2422:A3 *334:35 9.67842e-05
7 *282:10 *329:90 0.000135008
8 *282:10 *332:153 0
9 *282:10 *334:29 1.17256e-05
10 *282:10 *342:67 9.39977e-05
11 *282:10 *375:10 3.83778e-05
12 *282:10 *667:24 0.00025304
13 *282:10 *667:30 0.000310641
14 *2422:A2 *2422:A3 3.32734e-05
*RES
1 *2420:X *282:10 49.0614 
2 *282:10 *2422:A3 42.9093 
*END

*D_NET *283 0.00221839
*CONN
*I *2422:A1 I *D sky130_fd_sc_hd__mux4_1
*I *2421:X O *D sky130_fd_sc_hd__mux4_1
*CAP
1 *2422:A1 0.000237178
2 *2421:X 0.000703052
3 *283:8 0.00094023
4 *2422:A1 *334:12 0.000107686
5 *2422:A1 *479:10 0
6 *283:8 *2421:A0 1.94693e-05
7 *283:8 *2421:A2 0.000115247
8 *283:8 *332:12 3.88177e-05
9 *283:8 *667:24 5.67058e-05
*RES
1 *2421:X *283:8 47.1971 
2 *283:8 *2422:A1 42.7229 
*END

*D_NET *284 0.00258186
*CONN
*I *2423:A1 I *D sky130_fd_sc_hd__mux2_1
*I *2422:X O *D sky130_fd_sc_hd__mux4_1
*CAP
1 *2423:A1 0
2 *2422:X 0.000177741
3 *284:12 0.000662715
4 *284:8 0.000840456
5 *284:8 *334:35 9.67842e-05
6 *284:12 *329:16 8.4047e-05
7 *284:12 *342:67 0.000285787
8 *284:12 *383:12 9.27917e-05
9 *284:12 *540:18 5.44006e-05
10 *284:12 *587:8 0
11 *284:12 *644:101 4.48568e-05
12 *284:12 *667:24 2.12347e-06
13 *2422:A3 *284:8 6.82514e-05
14 *166:10 *284:12 0.000171906
15 *264:20 *284:12 0
*RES
1 *2422:X *284:8 40.5271 
2 *284:8 *284:12 30.2871 
3 *284:12 *2423:A1 23 
*END

*D_NET *285 0.00590252
*CONN
*I *2426:A1 I *D sky130_fd_sc_hd__mux2_1
*I *2424:X O *D sky130_fd_sc_hd__mux4_1
*CAP
1 *2426:A1 0
2 *2424:X 0.00119986
3 *285:24 0.000766928
4 *285:6 0.00196679
5 *285:6 *2424:A3 0.000243257
6 *285:6 *432:6 5.50106e-05
7 *285:6 *647:122 0.000604791
8 *285:24 *2658:CLK 3.46255e-05
9 *285:24 *286:14 8.05849e-05
10 *285:24 *287:10 2.93845e-05
11 *285:24 *345:128 0.000141879
12 *285:24 *424:8 9.21543e-05
13 *285:24 *440:12 5.95743e-05
14 *285:24 *440:27 8.04316e-05
15 *285:24 *640:20 1.37232e-05
16 *285:24 *642:33 0.000227691
17 *2658:D *285:24 0.00014698
18 *2714:D *285:24 0.000137651
19 *135:10 *285:24 2.1199e-05
*RES
1 *2424:X *285:6 40.7729 
2 *285:6 *285:24 46.7993 
3 *285:24 *2426:A1 23 
*END

*D_NET *286 0.00342367
*CONN
*I *2426:A0 I *D sky130_fd_sc_hd__mux2_1
*I *2425:X O *D sky130_fd_sc_hd__mux4_1
*CAP
1 *2426:A0 0
2 *2425:X 0.00104409
3 *286:14 0.000213853
4 *286:6 0.00125794
5 *286:6 *2425:A1 0.000308039
6 *286:6 *2425:S0 1.39431e-05
7 *286:6 *368:14 3.3577e-05
8 *286:6 *432:14 9.81081e-06
9 *286:6 *440:27 6.23119e-06
10 *286:6 *705:12 4.96675e-06
11 *286:6 *705:20 2.79819e-05
12 *286:14 *2425:A1 0.000153724
13 *286:14 *333:98 5.84579e-05
14 *286:14 *665:85 0.000210473
15 *285:24 *286:14 8.05849e-05
*RES
1 *2425:X *286:6 36.0086 
2 *286:6 *286:14 35.5721 
3 *286:14 *2426:A0 23 
*END

*D_NET *287 0.00276744
*CONN
*I *2430:A0 I *D sky130_fd_sc_hd__mux2_1
*I *2426:X O *D sky130_fd_sc_hd__mux2_1
*CAP
1 *2430:A0 0.000276484
2 *2426:X 0.000328936
3 *287:10 0.00060542
4 *2430:A0 *2430:S 0.000103725
5 *2430:A0 *291:10 0.000477349
6 *2430:A0 *349:64 0.00012239
7 *287:10 *331:100 7.08673e-05
8 *287:10 *633:18 0.000251605
9 *287:10 *637:60 3.23193e-05
10 *287:10 *639:20 0.000243034
11 *287:10 *642:33 0.000117244
12 *287:10 *716:10 0.000108681
13 *285:24 *287:10 2.93845e-05
*RES
1 *2426:X *287:10 47.2179 
2 *287:10 *2430:A0 45.2914 
*END

*D_NET *288 0.00213902
*CONN
*I *2429:A1 I *D sky130_fd_sc_hd__mux2_1
*I *2427:X O *D sky130_fd_sc_hd__mux4_1
*CAP
1 *2429:A1 0
2 *2427:X 0.000672592
3 *288:10 0.000672592
4 *288:10 *2427:S1 0.000391621
5 *288:10 *325:34 0.000293776
6 *288:10 *644:27 8.62783e-05
7 *288:10 *664:82 2.21565e-05
*RES
1 *2427:X *288:10 49.31 
2 *288:10 *2429:A1 38 
*END

*D_NET *289 0.00304708
*CONN
*I *2429:A0 I *D sky130_fd_sc_hd__mux2_1
*I *2428:X O *D sky130_fd_sc_hd__mux4_1
*CAP
1 *2429:A0 0
2 *2428:X 3.89734e-05
3 *289:12 0.000831122
4 *289:8 0.000870095
5 *289:8 *565:8 8.62876e-05
6 *289:8 *637:26 8.62876e-05
7 *289:12 *333:98 8.06804e-06
8 *289:12 *648:86 0.00112625
*RES
1 *2428:X *289:8 39.2014 
2 *289:8 *289:12 28.0086 
3 *289:12 *2429:A0 23 
*END

*D_NET *290 0.000459002
*CONN
*I *2430:A1 I *D sky130_fd_sc_hd__mux2_1
*I *2429:X O *D sky130_fd_sc_hd__mux2_1
*CAP
1 *2430:A1 0
2 *2429:X 0.00015207
3 *290:10 0.00015207
4 *290:10 *325:34 3.95949e-05
5 *290:10 *333:54 0.000110636
6 *290:10 *345:152 0
7 *290:10 *648:78 4.6318e-06
*RES
1 *2429:X *290:10 40.5271 
2 *290:10 *2430:A1 38 
*END

*D_NET *291 0.0075591
*CONN
*I *2431:A1 I *D sky130_fd_sc_hd__mux2_1
*I *2430:X O *D sky130_fd_sc_hd__mux2_1
*CAP
1 *2431:A1 0
2 *2430:X 0.000645235
3 *291:20 0.00245368
4 *291:10 0.00309891
5 *291:10 *2430:S 1.68687e-05
6 *291:10 *2737:RESET_B 1.70831e-05
7 *291:10 *333:98 3.34756e-05
8 *291:20 *637:16 0.000676497
9 *291:20 *673:30 5.58152e-06
10 *291:20 *739:10 2.26406e-05
11 empty *291:20 0.000111782
12 *2430:A0 *291:10 0.000477349
13 *264:18 *291:20 0
*RES
1 *2430:X *291:10 46.7932 
2 *291:10 *291:20 38.2464 
3 *291:20 *2431:A1 23 
*END

*D_NET *292 0.00755384
*CONN
*I *2436:A2 I *D sky130_fd_sc_hd__mux4_1
*I *2432:X O *D sky130_fd_sc_hd__mux4_1
*CAP
1 *2436:A2 1.83575e-05
2 *2432:X 0.00107599
3 *292:18 0.00171184
4 *292:12 0.00276947
5 *2436:A2 *2436:S1 1.69977e-05
6 *292:12 *2432:A2 1.16872e-05
7 *292:12 *2432:S0 0.000142173
8 *292:12 *2432:S1 5.11621e-05
9 *292:12 *2627:CLK 7.53384e-06
10 *292:12 *2951:A 0.000188912
11 *292:12 *342:36 1.43557e-05
12 *292:18 *2482:A1 0.000260705
13 *292:18 *2627:CLK 1.40958e-05
14 *292:18 *2930:A 7.79942e-05
15 *292:18 *325:83 0.000121021
16 *292:18 *325:93 7.15126e-05
17 *292:18 *327:49 2.71291e-05
18 *292:18 *339:32 0.000120202
19 *292:18 *358:22 7.64851e-06
20 *292:18 *358:26 0.000118899
21 *292:18 *393:10 0.000138727
22 *292:18 *393:20 8.19793e-05
23 *292:18 *626:16 0.00034721
24 *2627:D *292:18 3.24476e-06
25 *64:8 *292:18 0.000138727
26 *144:18 *292:12 1.6275e-05
*RES
1 *2432:X *292:12 38.1007 
2 *292:12 *292:18 42.115 
3 *292:18 *2436:A2 38.3832 
*END

*D_NET *293 0.00288122
*CONN
*I *2436:A0 I *D sky130_fd_sc_hd__mux4_1
*I *2433:X O *D sky130_fd_sc_hd__mux4_1
*CAP
1 *2436:A0 0.000325358
2 *2433:X 0.000428687
3 *293:8 0.000754045
4 *2436:A0 *327:65 0.000778346
5 *2436:A0 *626:16 5.12254e-05
6 *2436:A0 *639:124 0.000393021
7 *293:8 *358:34 0.000135357
8 *293:8 *650:76 3.70071e-06
9 *293:8 *650:84 1.14762e-05
*RES
1 *2433:X *293:8 43.3857 
2 *293:8 *2436:A0 49.455 
*END

*D_NET *294 0.000674491
*CONN
*I *2436:A3 I *D sky130_fd_sc_hd__mux4_1
*I *2434:X O *D sky130_fd_sc_hd__mux4_1
*CAP
1 *2436:A3 0.000126609
2 *2434:X 5.70854e-05
3 *294:8 0.000183695
4 *2436:A3 *2436:S1 0.000141835
5 *294:8 *327:65 0.000113153
6 *294:8 *663:16 5.21127e-05
*RES
1 *2434:X *294:8 39.5536 
2 *294:8 *2436:A3 40.6929 
*END

*D_NET *295 0.00594529
*CONN
*I *2436:A1 I *D sky130_fd_sc_hd__mux4_1
*I *2435:X O *D sky130_fd_sc_hd__mux4_1
*CAP
1 *2436:A1 0
2 *2435:X 0.00070865
3 *295:14 0.00102576
4 *295:8 0.00173441
5 *295:8 *2435:A3 0.000247387
6 *295:8 *2435:S0 0.000144494
7 *295:8 *643:41 6.6626e-06
8 *295:8 *643:49 2.92911e-06
9 *295:8 *646:16 0.000162129
10 *295:14 *2879:A 9.84851e-05
11 *295:14 *589:10 0.000271476
12 *295:14 *639:124 0.000189194
13 *295:14 *643:39 0.000386158
14 *295:14 *643:41 0.00013059
15 *295:14 *644:53 0.000355026
16 *295:14 *646:16 0.000481931
*RES
1 *2435:X *295:8 33.1707 
2 *295:8 *295:14 39.2771 
3 *295:14 *2436:A1 38 
*END

*D_NET *296 0.000985485
*CONN
*I *2437:A1 I *D sky130_fd_sc_hd__mux2_1
*I *2436:X O *D sky130_fd_sc_hd__mux4_1
*CAP
1 *2437:A1 0
2 *2436:X 0.000438122
3 *296:10 0.000438122
4 *296:10 *345:72 4.23714e-05
5 *296:10 *634:176 6.6869e-05
*RES
1 *2436:X *296:10 44.3386 
2 *296:10 *2437:A1 38 
*END

*D_NET *297 0.00331247
*CONN
*I *2442:A2 I *D sky130_fd_sc_hd__mux4_1
*I *2438:X O *D sky130_fd_sc_hd__mux4_1
*CAP
1 *2442:A2 8.59468e-06
2 *2438:X 0.000413023
3 *297:20 0.000399877
4 *297:12 0.000804305
5 *2442:A2 *639:101 2.50451e-05
6 *2442:A2 *661:31 1.16872e-05
7 *297:12 *2750:CLK 0.000135143
8 *297:12 *633:44 0.000185351
9 *297:12 *641:18 0
10 *297:12 *641:34 0.000159993
11 *297:12 *641:143 0
12 *297:20 *299:16 0.000163343
13 *297:20 *337:57 0.000265472
14 *297:20 *342:77 0
15 *297:20 *466:27 4.04598e-06
16 *297:20 *634:94 0.000162754
17 *297:20 *661:31 4.96264e-05
18 *2750:D *297:20 0.00052421
*RES
1 *2438:X *297:12 44.7114 
2 *297:12 *297:20 40.0257 
3 *297:20 *2442:A2 38.2745 
*END

*D_NET *298 0.00181945
*CONN
*I *2442:A0 I *D sky130_fd_sc_hd__mux4_1
*I *2439:X O *D sky130_fd_sc_hd__mux4_1
*CAP
1 *2442:A0 1.49804e-05
2 *2439:X 0.000459766
3 *298:12 0.000474746
4 *2442:A0 *639:101 5.50106e-05
5 *2442:A0 *645:145 5.50106e-05
6 *298:12 *300:14 0.000234265
7 *298:12 *338:44 5.67058e-05
8 *298:12 *442:12 0.000138727
9 *298:12 *645:151 0.000299816
10 *298:12 *645:162 8.30566e-06
11 *298:12 *650:42 2.2119e-05
*RES
1 *2439:X *298:12 49.6 
2 *298:12 *2442:A0 38.6214 
*END

*D_NET *299 0.00457748
*CONN
*I *2442:A3 I *D sky130_fd_sc_hd__mux4_1
*I *2440:X O *D sky130_fd_sc_hd__mux4_1
*CAP
1 *2442:A3 0
2 *2440:X 0.000868598
3 *299:16 0.000954755
4 *299:8 0.00182335
5 *299:8 *2440:A0 0.000103637
6 *299:8 *355:75 7.91871e-05
7 *299:8 *394:27 2.02872e-05
8 *299:8 *410:31 1.42014e-05
9 *299:8 *418:10 1.71699e-05
10 *299:8 *650:24 5.88828e-05
11 *299:16 *337:30 0
12 *299:16 *342:77 0
13 *299:16 *394:10 8.4047e-05
14 *299:16 *450:10 0.000139647
15 *299:16 *458:14 7.30978e-05
16 *299:16 *637:90 5.30303e-05
17 *299:16 *661:31 9.04952e-05
18 *153:8 *299:16 3.3746e-05
19 *297:20 *299:16 0.000163343
*RES
1 *2440:X *299:8 49.1029 
2 *299:8 *299:16 34.575 
3 *299:16 *2442:A3 23 
*END

*D_NET *300 0.00445068
*CONN
*I *2442:A1 I *D sky130_fd_sc_hd__mux4_1
*I *2441:X O *D sky130_fd_sc_hd__mux4_1
*CAP
1 *2442:A1 0
2 *2441:X 0.00029137
3 *300:14 0.000933432
4 *300:8 0.0012248
5 *300:8 *2441:A2 0.00025425
6 *300:8 *342:101 1.46455e-06
7 *300:14 *2441:S1 0.000405016
8 *300:14 *2891:A 0.000386289
9 *300:14 *386:14 9.26098e-05
10 *300:14 *442:12 0
11 *300:14 *639:101 5.53692e-05
12 *300:14 *641:143 0.000417865
13 *300:14 *645:145 9.5877e-05
14 *300:14 *645:151 0
15 *300:14 *650:42 5.80693e-05
16 *169:8 *300:14 0
17 *298:12 *300:14 0.000234265
*RES
1 *2441:X *300:8 42.4329 
2 *300:8 *300:14 39.4843 
3 *300:14 *2442:A1 23 
*END

*D_NET *301 0.000485101
*CONN
*I *2443:A1 I *D sky130_fd_sc_hd__mux2_1
*I *2442:X O *D sky130_fd_sc_hd__mux4_1
*CAP
1 *2443:A1 0
2 *2442:X 0.000171577
3 *301:10 0.000171577
4 *301:10 *329:107 4.08641e-05
5 *301:10 *347:18 8.62876e-05
6 *301:10 *639:73 1.47955e-05
*RES
1 *2442:X *301:10 40.7757 
2 *301:10 *2443:A1 38 
*END

*D_NET *302 0.00208438
*CONN
*I *2448:A2 I *D sky130_fd_sc_hd__mux4_1
*I *2444:X O *D sky130_fd_sc_hd__mux4_1
*CAP
1 *2448:A2 1.86187e-05
2 *2444:X 0.000716469
3 *302:10 0.000735088
4 *302:10 *2814:A 8.48502e-06
5 *302:10 *2964:A 0.000214036
6 *302:10 *304:8 0.000141869
7 *302:10 *333:108 0.000139647
8 *302:10 *634:74 0.00010399
9 *302:10 *639:59 6.17437e-06
*RES
1 *2444:X *302:10 49.1029 
2 *302:10 *2448:A2 38.2745 
*END

*D_NET *303 0.00200067
*CONN
*I *2448:A0 I *D sky130_fd_sc_hd__mux4_1
*I *2445:X O *D sky130_fd_sc_hd__mux4_1
*CAP
1 *2448:A0 0
2 *2445:X 3.20607e-05
3 *303:14 0.000640029
4 *303:8 0.00067209
5 *303:8 *2445:A2 5.3304e-05
6 *303:14 *305:12 5.50106e-05
7 *303:14 *331:102 0
8 *303:14 *435:16 3.31683e-05
9 *303:14 *637:86 7.39261e-05
10 *303:14 *647:35 3.83778e-05
11 *303:14 *647:67 4.08641e-05
12 *303:14 *658:51 0.00014196
13 *82:8 *303:14 0.000219882
*RES
1 *2445:X *303:8 38.6214 
2 *303:8 *303:14 27.9879 
3 *303:14 *2448:A0 23 
*END

*D_NET *304 0.00125635
*CONN
*I *2448:A3 I *D sky130_fd_sc_hd__mux4_1
*I *2446:X O *D sky130_fd_sc_hd__mux4_1
*CAP
1 *2448:A3 0
2 *2446:X 0.000219707
3 *304:8 0.000219707
4 *304:8 *331:102 0.000277426
5 *304:8 *333:108 2.13834e-05
6 *304:8 *639:59 0.000376261
7 *302:10 *304:8 0.000141869
*RES
1 *2446:X *304:8 45.54 
2 *304:8 *2448:A3 38 
*END

*D_NET *305 0.00344824
*CONN
*I *2448:A1 I *D sky130_fd_sc_hd__mux4_1
*I *2447:X O *D sky130_fd_sc_hd__mux4_1
*CAP
1 *2448:A1 0
2 *2447:X 0
3 *305:12 0.00102452
4 *305:6 0.00102452
5 *305:12 *339:140 0.000230599
6 *305:12 *435:16 0.000111852
7 *305:12 *584:25 0.000253707
8 *305:12 *596:10 0.000370869
9 *305:12 *637:86 0.000223704
10 *305:12 *647:35 4.08537e-05
11 *305:12 *647:67 2.24973e-05
12 *305:12 *658:51 9.0102e-05
13 *82:8 *305:12 0
14 *303:14 *305:12 5.50106e-05
*RES
1 *2447:X *305:6 38 
2 *305:6 *305:12 39.1529 
3 *305:12 *2448:A1 23 
*END

*D_NET *306 0.000412494
*CONN
*I *2449:A1 I *D sky130_fd_sc_hd__mux2_1
*I *2448:X O *D sky130_fd_sc_hd__mux4_1
*CAP
1 *2449:A1 4.08693e-05
2 *2448:X 9.25821e-05
3 *306:8 0.000133451
4 *2449:A1 *542:10 3.7122e-06
5 *306:8 *669:34 0.000141879
*RES
1 *2448:X *306:8 39.9057 
2 *306:8 *2449:A1 38.6214 
*END

*D_NET *307 0.0048548
*CONN
*I *2454:A2 I *D sky130_fd_sc_hd__mux4_1
*I *2450:X O *D sky130_fd_sc_hd__mux4_1
*CAP
1 *2454:A2 0.00021596
2 *2450:X 0.00150673
3 *307:16 0.00172269
4 *2454:A2 *645:18 3.31446e-06
5 *2454:A2 *645:28 9.68428e-05
6 *307:16 *2450:A2 0.000119591
7 *307:16 *2450:A3 3.42398e-05
8 *307:16 *2454:A0 5.3304e-05
9 *307:16 *2597:A1 5.12254e-05
10 *307:16 *2605:A0 0.000258741
11 *307:16 *310:28 0.000221997
12 *307:16 *468:8 1.94693e-05
13 *307:16 *641:73 1.34594e-05
14 *307:16 *645:48 0.000405486
15 *307:16 *655:75 0.000131751
*RES
1 *2450:X *307:16 49.2243 
2 *307:16 *2454:A2 27.0859 
*END

*D_NET *308 0.00213941
*CONN
*I *2454:A0 I *D sky130_fd_sc_hd__mux4_1
*I *2451:X O *D sky130_fd_sc_hd__mux4_1
*CAP
1 *2454:A0 0.000411866
2 *2451:X 0.000146158
3 *308:8 0.000558023
4 *2454:A0 *2880:A 0.00019747
5 *2454:A0 *339:44 0
6 *2454:A0 *436:22 6.32688e-05
7 *2454:A0 *656:23 0.000188926
8 *2454:A0 *656:56 0.000456747
9 *308:8 *2579:S 3.7122e-06
10 *308:8 *339:69 5.99401e-05
11 *307:16 *2454:A0 5.3304e-05
*RES
1 *2451:X *308:8 40.0507 
2 *308:8 *2454:A0 48.9786 
*END

*D_NET *309 0.000868732
*CONN
*I *2454:A3 I *D sky130_fd_sc_hd__mux4_1
*I *2452:X O *D sky130_fd_sc_hd__mux4_1
*CAP
1 *2454:A3 0
2 *2452:X 0.00026241
3 *309:10 0.00026241
4 *309:10 *354:19 0.000138727
5 *309:10 *637:104 0
6 *309:10 *639:109 2.41047e-05
7 *309:10 *645:121 6.48049e-05
8 *309:10 *656:75 2.93845e-05
9 *67:8 *309:10 8.68903e-05
*RES
1 *2452:X *309:10 43.3443 
2 *309:10 *2454:A3 38 
*END

*D_NET *310 0.00579518
*CONN
*I *2454:A1 I *D sky130_fd_sc_hd__mux4_1
*I *2453:X O *D sky130_fd_sc_hd__mux4_1
*CAP
1 *2454:A1 0
2 *2453:X 7.87035e-05
3 *310:28 0.000794625
4 *310:22 0.00122188
5 *310:8 0.000505955
6 *310:8 *655:20 0.000141879
7 *310:22 *2505:A0 5.13705e-06
8 *310:22 *2971:A 7.39392e-05
9 *310:22 *329:123 0.000919885
10 *310:22 *388:8 0.000183542
11 *310:22 *595:31 0.000484545
12 *310:22 *655:10 9.17445e-05
13 *310:22 *655:20 0.000149925
14 *310:28 *339:44 0.000350702
15 *310:28 *502:8 0.000168754
16 *310:28 *574:10 7.03766e-05
17 *310:28 *590:8 6.32792e-05
18 *310:28 *595:31 0
19 *310:28 *633:50 1.14452e-05
20 *310:28 *641:50 0
21 *310:28 *645:48 0.000137651
22 *310:28 *656:10 0.000107021
23 *75:10 *310:22 1.21972e-05
24 *91:10 *310:8 0
25 *307:16 *310:28 0.000221997
*RES
1 *2453:X *310:8 39.9057 
2 *310:8 *310:22 46.1986 
3 *310:22 *310:28 34.575 
4 *310:28 *2454:A1 23 
*END

*D_NET *311 0.00156905
*CONN
*I *2455:A1 I *D sky130_fd_sc_hd__mux2_1
*I *2454:X O *D sky130_fd_sc_hd__mux4_1
*CAP
1 *2455:A1 4.88336e-05
2 *2454:X 0.000462514
3 *311:10 0.000511347
4 *2455:A1 *2455:A0 2.93747e-05
5 *311:10 *2455:S 0.000296947
6 *311:10 *354:32 0
7 *311:10 *639:105 0.000220037
8 *43:8 *311:10 0
*RES
1 *2454:X *311:10 46.4514 
2 *311:10 *2455:A1 38.6214 
*END

*D_NET *312 0.00309633
*CONN
*I *2460:A2 I *D sky130_fd_sc_hd__mux4_1
*I *2456:X O *D sky130_fd_sc_hd__mux4_1
*CAP
1 *2460:A2 0
2 *2456:X 0.000914047
3 *312:14 0.000222838
4 *312:6 0.00113689
5 *312:6 *2719:CLK 9.68547e-05
6 *312:6 *341:34 9.61128e-05
7 *312:6 *437:12 2.43944e-05
8 *312:6 *445:6 0.000184527
9 *312:6 *511:10 2.92911e-06
10 *312:6 *564:8 2.13733e-05
11 *312:14 *2460:S0 0.00010882
12 *312:14 *313:10 0.000141879
13 *312:14 *654:20 0
14 *2719:D *312:6 3.24476e-06
15 *260:16 *312:14 0.000142422
*RES
1 *2456:X *312:6 35.5321 
2 *312:6 *312:14 35.9916 
3 *312:14 *2460:A2 23 
*END

*D_NET *313 0.00128356
*CONN
*I *2460:A0 I *D sky130_fd_sc_hd__mux4_1
*I *2457:X O *D sky130_fd_sc_hd__mux4_1
*CAP
1 *2460:A0 0
2 *2457:X 0.00047981
3 *313:10 0.00047981
4 *313:10 *323:112 0
5 *313:10 *339:110 6.09239e-05
6 *313:10 *341:42 6.17437e-06
7 *313:10 *437:20 6.4393e-05
8 *313:10 *445:12 1.34354e-05
9 *313:10 *644:59 3.71369e-05
10 *312:14 *313:10 0.000141879
*RES
1 *2457:X *313:10 46.2029 
2 *313:10 *2460:A0 38 
*END

*D_NET *314 0.00280165
*CONN
*I *2460:A3 I *D sky130_fd_sc_hd__mux4_1
*I *2458:X O *D sky130_fd_sc_hd__mux4_1
*CAP
1 *2460:A3 0.000367717
2 *2458:X 0.000681424
3 *314:8 0.00104914
4 *2460:A3 *325:81 0
5 *2460:A3 *575:8 7.21237e-05
6 *2460:A3 *654:14 2.24608e-05
7 *2460:A3 *654:16 6.43436e-05
8 *2460:A3 *654:20 0.000202908
9 *314:8 *2458:A2 1.16872e-05
10 *314:8 *2606:A1 5.3304e-05
11 *314:8 *607:18 2.03764e-06
12 *314:8 *654:14 5.3304e-05
13 *314:8 *654:105 0.000221196
*RES
1 *2458:X *314:8 47.1971 
2 *314:8 *2460:A3 45.54 
*END

*D_NET *315 0.00318578
*CONN
*I *2460:A1 I *D sky130_fd_sc_hd__mux4_1
*I *2459:X O *D sky130_fd_sc_hd__mux4_1
*CAP
1 *2460:A1 0
2 *2459:X 0.000244113
3 *315:14 0.000573434
4 *315:8 0.000817547
5 *315:8 *2606:A1 0.000267167
6 *315:8 *607:18 4.02485e-05
7 *315:8 *643:178 0.000268868
8 *315:8 *654:105 0.0002246
9 *315:14 *323:112 8.80201e-05
10 *315:14 *334:62 0
11 *315:14 *572:10 0.000324733
12 *2606:S *315:14 0
13 *52:8 *315:14 0
14 *164:8 *315:14 0.000114092
15 *260:16 *315:14 0.00022296
*RES
1 *2459:X *315:8 44.815 
2 *315:8 *315:14 27.6771 
3 *315:14 *2460:A1 23 
*END

*D_NET *316 0.00636919
*CONN
*I *2461:A1 I *D sky130_fd_sc_hd__mux2_1
*I *2460:X O *D sky130_fd_sc_hd__mux4_1
*CAP
1 *2461:A1 0
2 *2460:X 0.000648863
3 *316:14 0.000768412
4 *316:8 0.00141728
5 *316:14 *2617:CLK 8.60475e-05
6 *316:14 *646:103 0.000578476
7 *316:14 *670:78 0.000493305
8 *316:14 *670:90 9.67842e-05
9 *316:14 *677:87 0.00120986
10 *54:8 *316:14 0.000110913
11 *260:16 *316:8 0.000959255
*RES
1 *2460:X *316:8 48.6264 
2 *316:8 *316:14 38.6764 
3 *316:14 *2461:A1 23 
*END

*D_NET *317 0.00428604
*CONN
*I *2466:A2 I *D sky130_fd_sc_hd__mux4_1
*I *2462:X O *D sky130_fd_sc_hd__mux4_1
*CAP
1 *2466:A2 0
2 *2462:X 0.000555105
3 *317:14 0.000402076
4 *317:6 0.000957181
5 *317:6 *2462:S1 0.000303974
6 *317:6 *2477:A0 0.000488848
7 *317:6 *651:103 0.000609764
8 *317:6 *651:114 0.000531529
9 *317:14 *2463:A1 0.000138708
10 *317:14 *2517:S 1.6318e-05
11 *317:14 *2935:A 0.000269151
12 *317:14 *319:14 0
13 *317:14 *637:121 1.33826e-05
14 *317:14 *639:124 0
*RES
1 *2462:X *317:6 39.82 
2 *317:6 *317:14 38.2754 
3 *317:14 *2466:A2 23 
*END

*D_NET *318 0.00129102
*CONN
*I *2466:A0 I *D sky130_fd_sc_hd__mux4_1
*I *2463:X O *D sky130_fd_sc_hd__mux4_1
*CAP
1 *2466:A0 2.95011e-05
2 *2463:X 0.000417992
3 *318:10 0.000447493
4 *2466:A0 *652:63 5.50106e-05
5 *318:10 *2463:A2 0.000189606
6 *318:10 *320:26 0.000141879
7 *318:10 *325:97 0
8 *318:10 *446:8 9.54112e-06
*RES
1 *2463:X *318:10 44.815 
2 *318:10 *2466:A0 38.6214 
*END

*D_NET *319 0.00377025
*CONN
*I *2466:A3 I *D sky130_fd_sc_hd__mux4_1
*I *2464:X O *D sky130_fd_sc_hd__mux4_1
*CAP
1 *2466:A3 0
2 *2464:X 0.000616419
3 *319:14 0.000716731
4 *319:8 0.00133315
5 *319:8 *2464:S0 5.3304e-05
6 *319:8 *414:14 1.69977e-05
7 *319:14 *2463:A1 5.26204e-05
8 *319:14 *2466:S0 6.17437e-06
9 *319:14 *2517:S 3.71369e-05
10 *319:14 *2935:A 8.48131e-05
11 *319:14 *325:97 3.1157e-05
12 *319:14 *398:19 4.08537e-05
13 *319:14 *414:27 0.000138718
14 *319:14 *637:121 5.41385e-05
15 *319:14 *646:189 3.83778e-05
16 *319:14 *652:12 3.56537e-05
17 *319:14 *652:31 0.000446706
18 *319:14 *652:33 4.6318e-06
19 *28:17 *319:8 6.26694e-05
20 *69:8 *319:14 0
21 *317:14 *319:14 0
*RES
1 *2464:X *319:8 45.7679 
2 *319:8 *319:14 32.4414 
3 *319:14 *2466:A3 23 
*END

*D_NET *320 0.00556023
*CONN
*I *2466:A1 I *D sky130_fd_sc_hd__mux4_1
*I *2465:X O *D sky130_fd_sc_hd__mux4_1
*CAP
1 *2466:A1 0
2 *2465:X 0.000156495
3 *320:26 0.000286664
4 *320:20 0.0016573
5 *320:10 0.00152713
6 *320:10 *336:92 8.62783e-05
7 *320:10 *382:12 9.41704e-05
8 *320:20 *2883:A 1.32314e-05
9 *320:20 *345:52 0.000259389
10 *320:20 *345:60 3.71369e-05
11 *320:20 *353:22 0.00033065
12 *320:20 *353:26 9.36522e-05
13 *320:20 *486:12 0.000185368
14 *320:20 *486:25 4.21048e-05
15 *320:20 *641:127 4.05745e-05
16 *320:26 *2463:A2 0
17 *320:26 *2463:A3 5.46706e-05
18 *320:26 *2463:S0 1.02387e-05
19 *320:26 *2581:S 5.94125e-05
20 *320:26 *2883:A 0.000289685
21 *320:26 *325:97 0
22 *320:26 *339:44 8.62783e-05
23 *320:26 *641:127 0.000103019
24 *2688:D *320:20 4.9054e-06
25 *318:10 *320:26 0.000141879
*RES
1 *2465:X *320:10 40.2993 
2 *320:10 *320:20 39.1529 
3 *320:20 *320:26 37.54 
4 *320:26 *2466:A1 23 
*END

*D_NET *321 0.00117134
*CONN
*I *2467:A1 I *D sky130_fd_sc_hd__mux2_1
*I *2466:X O *D sky130_fd_sc_hd__mux4_1
*CAP
1 *2467:A1 0
2 *2466:X 0.000364063
3 *321:10 0.000364063
4 *321:10 *2517:S 0.00039238
5 *321:10 *339:36 2.5415e-05
6 *321:10 *634:115 2.5415e-05
*RES
1 *2466:X *321:10 43.6343 
2 *321:10 *2467:A1 38 
*END

*D_NET *322 0.00768203
*CONN
*I *2469:B I *D sky130_fd_sc_hd__nor2_4
*I *2564:A I *D sky130_fd_sc_hd__nor2_4
*I *2555:A I *D sky130_fd_sc_hd__nor2_4
*I *2518:A I *D sky130_fd_sc_hd__nor2_4
*I *2468:X O *D sky130_fd_sc_hd__or3b_4
*CAP
1 *2469:B 5.5367e-05
2 *2564:A 0.000101035
3 *2555:A 0
4 *2518:A 6.41243e-05
5 *2468:X 0.000437492
6 *322:48 0.00115295
7 *322:31 0.0016109
8 *322:18 0.00099145
9 *322:10 0.0008612
10 *2469:B *2536:A 9.67842e-05
11 *2469:B *323:54 7.15126e-05
12 *2469:B *326:12 4.08664e-05
13 *2564:A *2564:B 0.000143655
14 *2564:A *2775:CLK 6.53382e-05
15 *2564:A *338:10 0.000223698
16 *322:10 *2468:B 2.93845e-05
17 *322:10 *324:10 0
18 *322:10 *325:65 0
19 *322:10 *326:25 1.58805e-05
20 *322:10 *735:10 0
21 *322:18 *2518:B 2.64616e-05
22 *322:18 *325:65 0
23 *322:18 *326:25 8.92944e-05
24 *322:18 *326:29 4.6318e-06
25 *322:18 *328:8 1.32314e-05
26 *322:18 *328:10 0.0001164
27 *322:18 *332:12 0
28 *322:18 *342:8 3.31683e-05
29 *322:31 *2591:B 1.4471e-05
30 *322:31 *325:18 0.000104672
31 *322:31 *325:65 9.01935e-05
32 *322:31 *327:12 6.48049e-05
33 *322:31 *335:19 6.07611e-06
34 *322:31 *479:10 0
35 *322:31 *635:46 0.000189693
36 *322:48 *2509:A 0
37 *322:48 *2564:B 8.71888e-05
38 *322:48 *2582:B 0
39 *322:48 *2657:CLK 0.000354127
40 *322:48 *2775:CLK 5.79042e-05
41 *322:48 *324:20 0
42 *322:48 *325:18 6.48049e-05
43 *322:48 *335:19 0
44 *322:48 *337:10 7.53384e-06
45 *322:48 *341:6 0.000140259
46 *322:48 *341:101 0
47 *322:48 *350:19 8.43466e-05
48 *322:48 *635:24 0
49 *175:26 *322:10 6.33511e-05
50 *249:29 *322:10 0.000107776
*RES
1 *2468:X *322:10 46.1614 
2 *322:10 *322:18 21.9393 
3 *322:18 *2518:A 24.0979 
4 *322:18 *322:31 41.4136 
5 *322:31 *2555:A 23 
6 *322:31 *322:48 47.2757 
7 *322:48 *2564:A 26.5007 
8 *322:10 *2469:B 39.5743 
*END

*D_NET *323 0.0424129
*CONN
*I *2470:S I *D sky130_fd_sc_hd__mux2_1
*I *2476:S I *D sky130_fd_sc_hd__mux2_1
*I *2472:S I *D sky130_fd_sc_hd__mux2_1
*I *2477:S I *D sky130_fd_sc_hd__mux2_1
*I *2473:S I *D sky130_fd_sc_hd__mux2_1
*I *2475:S I *D sky130_fd_sc_hd__mux2_1
*I *2471:S I *D sky130_fd_sc_hd__mux2_1
*I *2474:S I *D sky130_fd_sc_hd__mux2_1
*I *2469:Y O *D sky130_fd_sc_hd__nor2_4
*CAP
1 *2470:S 2.43873e-05
2 *2476:S 0
3 *2472:S 0
4 *2477:S 2.34823e-05
5 *2473:S 0.000315168
6 *2475:S 0
7 *2471:S 0
8 *2474:S 4.61437e-05
9 *2469:Y 0.000116691
10 *323:151 0.00124419
11 *323:130 0.000756158
12 *323:126 0.00211388
13 *323:120 0.00155556
14 *323:114 0.00194018
15 *323:112 0.00188244
16 *323:102 0.00110653
17 *323:96 0.000914891
18 *323:86 0.000939309
19 *323:82 0.000522744
20 *323:74 0.000707238
21 *323:62 0.000665123
22 *323:54 0.00175144
23 *323:28 0.00154106
24 *323:24 0.00154389
25 *323:20 0.000140949
26 *323:16 0.00147894
27 *323:10 0.00283538
28 *2473:S *2517:S 0.000382847
29 *2473:S *637:121 9.91798e-05
30 *2474:S *633:34 7.73389e-05
31 *2474:S *657:112 5.2894e-05
32 *323:10 *324:10 0
33 *323:10 *326:8 0
34 *323:10 *350:71 1.7992e-05
35 *323:10 *636:117 6.48142e-05
36 *323:16 *2527:B 0.000188926
37 *323:16 *325:34 0.000187996
38 *323:16 *330:10 0.000633018
39 *323:16 *330:12 0.00042088
40 *323:16 *333:46 0.000112769
41 *323:16 *338:10 0
42 *323:16 *338:18 0.000278908
43 *323:16 *345:167 5.21127e-05
44 *323:16 *588:10 4.08537e-05
45 *323:16 *636:16 0.000218952
46 *323:16 *636:23 0.000150977
47 *323:16 *636:34 0.000177507
48 *323:16 *636:38 0.000145935
49 *323:16 *636:46 0
50 *323:16 *636:70 0.000132665
51 *323:16 *636:104 0.000128574
52 *323:16 *636:117 0.000179712
53 *323:16 *664:95 0.000187996
54 *323:16 *745:14 0
55 *323:20 *2969:A 0.000206946
56 *323:20 *408:6 5.3304e-05
57 *323:20 *664:95 0.000206946
58 *323:20 *686:6 2.4754e-05
59 *323:24 *408:6 0.000137651
60 *323:24 *664:82 9.67842e-05
61 *323:24 *664:95 5.3304e-05
62 *323:28 *345:128 0.000854079
63 *323:28 *345:152 0.000508922
64 *323:28 *642:37 6.79006e-05
65 *323:28 *642:41 0.000603976
66 *323:28 *664:82 0.000139647
67 *323:54 *2536:A 1.57571e-05
68 *323:54 *326:12 4.56338e-05
69 *323:54 *327:26 0.000595271
70 *323:54 *334:6 0.000603438
71 *323:54 *334:12 9.84851e-05
72 *323:54 *342:16 0.00103759
73 *323:62 *332:18 0.000226306
74 *323:62 *359:123 4.96264e-05
75 *323:62 *667:30 3.16702e-05
76 *323:74 *327:26 5.3304e-05
77 *323:74 *327:34 1.12487e-05
78 *323:74 *332:28 1.1997e-05
79 *323:74 *554:8 8.4047e-05
80 *323:74 *643:145 5.76142e-05
81 *323:74 *670:78 0
82 *323:82 *2959:A 0.000205117
83 *323:82 *2976:A 1.40958e-05
84 *323:82 *677:87 0.000132918
85 *323:86 *332:28 0.000135037
86 *323:86 *643:145 6.37845e-05
87 *323:96 *2470:A1 5.50106e-05
88 *323:96 *2476:A0 0.000355023
89 *323:96 *2919:A 0.000313255
90 *323:96 *332:28 0.00104711
91 *323:96 *332:42 0.000163037
92 *323:96 *342:26 0.000389948
93 *323:96 *357:166 5.79438e-05
94 *323:96 *397:12 6.53382e-05
95 *323:96 *405:12 0
96 *323:96 *643:145 2.18409e-05
97 *323:96 *646:166 3.7122e-06
98 *323:102 *2476:A0 9.90162e-05
99 *323:102 *646:166 9.74722e-05
100 *323:102 *653:127 5.67058e-05
101 *323:112 *2458:A2 0
102 *323:112 *2995:A 0
103 *323:112 *341:34 0.000215791
104 *323:112 *413:10 0
105 *323:112 *437:8 0.000345286
106 *323:112 *511:10 0
107 *323:112 *572:10 0.000160672
108 *323:112 *643:157 0
109 *323:112 *643:178 0
110 *323:112 *644:59 0
111 *323:112 *646:166 5.50049e-05
112 *323:114 *2472:A1 5.62433e-06
113 *323:114 *2571:A1 0
114 *323:114 *2594:A1 6.95768e-05
115 *323:114 *338:100 4.35681e-06
116 *323:114 *356:10 0
117 *323:114 *356:12 0
118 *323:114 *357:8 0
119 *323:114 *359:29 5.26054e-05
120 *323:114 *511:10 5.72034e-05
121 *323:114 *644:59 0
122 *323:114 *662:76 0.000117863
123 *323:120 *2472:A1 4.6318e-06
124 *323:120 *2477:A0 2.4754e-05
125 *323:120 *2640:CLK 8.08511e-05
126 *323:120 *353:106 0
127 *323:120 *356:24 9.00809e-05
128 *323:120 *414:14 0
129 *323:120 *422:10 0
130 *323:120 *566:8 0
131 *323:120 *589:10 0.000151909
132 *323:120 *643:100 0
133 *323:120 *644:59 0
134 *323:120 *646:16 0
135 *323:120 *650:84 8.16253e-05
136 *323:120 *651:114 0
137 *323:120 *662:74 0
138 *323:126 *2462:S1 9.67842e-05
139 *323:126 *2477:A0 2.32101e-05
140 *323:126 *2973:A 7.63049e-05
141 *323:126 *353:106 0
142 *323:126 *642:74 7.81176e-05
143 *323:130 *2452:A1 3.55887e-05
144 *323:130 *2463:A2 0.000119745
145 *323:130 *2485:A1 0.000129402
146 *323:130 *2937:A 6.67764e-05
147 *323:130 *2973:A 7.75329e-06
148 *323:130 *339:44 0
149 *323:130 *341:67 0
150 *323:130 *345:60 0
151 *323:130 *592:8 0
152 *323:130 *641:127 0
153 *323:130 *655:112 6.07611e-06
154 *323:151 *2664:CLK 0.000207586
155 *323:151 *327:69 0.000191148
156 *323:151 *430:8 9.84794e-05
157 *323:151 *632:26 0.000768415
158 *323:151 *669:56 0.000188926
159 *2469:A *323:10 5.46706e-05
160 *2469:A *323:16 0.000164291
161 *2469:B *323:54 7.15126e-05
162 *2479:A *323:16 0.000182585
163 *2664:D *323:151 0.000102732
164 *52:8 *323:112 0
165 *53:8 *323:120 0
166 *61:8 *323:120 0
167 *62:10 *323:74 9.33827e-05
168 *68:8 *323:96 9.28078e-06
169 *68:8 *323:112 0
170 *86:10 *323:54 5.50106e-05
171 *86:10 *323:62 8.4047e-05
172 *133:8 *323:130 0
173 *141:10 *323:130 0.000111852
174 *160:10 *323:114 7.30978e-05
175 *160:10 *323:120 5.15848e-05
176 *165:12 *323:120 0.000106532
177 *249:45 *323:16 5.64066e-05
178 *252:12 *323:16 0
179 *259:23 *323:16 0.000244517
180 *313:10 *323:112 0
181 *315:14 *323:112 8.80201e-05
*RES
1 *2469:Y *323:10 40.6514 
2 *323:10 *323:16 36.83 
3 *323:16 *323:20 18.0036 
4 *323:20 *323:24 16.5743 
5 *323:24 *323:28 37.7414 
6 *323:28 *2474:S 39.5743 
7 *323:20 *2471:S 23 
8 *323:10 *323:54 44.5386 
9 *323:54 *323:62 36.4629 
10 *323:62 *323:74 49.785 
11 *323:74 *323:82 36.815 
12 *323:82 *323:86 16.5743 
13 *323:86 *323:96 35.5693 
14 *323:96 *323:102 18.0243 
15 *323:102 *323:112 35.8282 
16 *323:112 *323:114 17.1204 
17 *323:114 *323:120 37.9514 
18 *323:120 *323:126 23.41 
19 *323:126 *323:130 31.3436 
20 *323:130 *2475:S 23 
21 *323:126 *323:151 49.285 
22 *323:151 *2473:S 45.7679 
23 *323:120 *2477:S 23.4971 
24 *323:114 *2472:S 38 
25 *323:102 *2476:S 23 
26 *323:86 *2470:S 23.4971 
*END

*D_NET *324 0.00671164
*CONN
*I *2608:A I *D sky130_fd_sc_hd__nor2_4
*I *2479:B I *D sky130_fd_sc_hd__nor2_4
*I *2582:A I *D sky130_fd_sc_hd__nor2_4
*I *2509:A I *D sky130_fd_sc_hd__nor2_4
*I *2478:Y O *D sky130_fd_sc_hd__nand2_4
*CAP
1 *2608:A 0
2 *2479:B 6.69182e-05
3 *2582:A 7.19776e-05
4 *2509:A 0.000322099
5 *2478:Y 0.000384904
6 *324:20 0.000736838
7 *324:18 0.000731357
8 *324:12 0.000321678
9 *324:10 0.000384904
10 *2479:B *633:115 1.21972e-05
11 *2479:B *635:46 2.93747e-05
12 *2509:A *325:26 9.41957e-05
13 *2509:A *331:14 0.000215512
14 *2509:A *666:119 0
15 *2582:A *2657:CLK 0.000185428
16 *324:10 *326:8 0.000404977
17 *324:10 *635:78 1.01436e-05
18 *324:18 *325:65 0
19 *324:18 *326:29 0.000416967
20 *324:18 *327:12 9.4713e-05
21 *324:18 *328:8 0.000178517
22 *324:18 *635:38 5.24393e-05
23 *324:18 *635:63 0.000185755
24 *324:20 *325:26 0.000190195
25 *324:20 *326:29 0.000431843
26 *324:20 *326:41 1.52362e-05
27 *324:20 *635:24 0.000401816
28 *324:20 *635:38 0.000219882
29 *2370:B *324:10 0.000139352
30 *2469:A *324:10 0
31 *175:16 *324:10 6.74169e-05
32 *175:26 *324:10 2.76611e-06
33 *249:12 *324:10 5.50106e-05
34 *249:29 *324:10 0.00028723
35 *322:10 *324:10 0
36 *322:48 *2509:A 0
37 *322:48 *324:20 0
38 *323:10 *324:10 0
*RES
1 *2478:Y *324:10 48.5229 
2 *324:10 *324:12 15 
3 *324:12 *324:18 22.83 
4 *324:18 *324:20 11.4136 
5 *324:20 *2509:A 44.4007 
6 *324:20 *2582:A 40.0507 
7 *324:18 *2479:B 39.0979 
8 *324:12 *2608:A 23 
*END

*D_NET *325 0.0399621
*CONN
*I *2480:S I *D sky130_fd_sc_hd__mux2_1
*I *2486:S I *D sky130_fd_sc_hd__mux2_1
*I *2482:S I *D sky130_fd_sc_hd__mux2_1
*I *2487:S I *D sky130_fd_sc_hd__mux2_1
*I *2485:S I *D sky130_fd_sc_hd__mux2_1
*I *2481:S I *D sky130_fd_sc_hd__mux2_1
*I *2483:S I *D sky130_fd_sc_hd__mux2_1
*I *2484:S I *D sky130_fd_sc_hd__mux2_1
*I *2479:Y O *D sky130_fd_sc_hd__nor2_4
*CAP
1 *2480:S 1.75705e-05
2 *2486:S 0.000240755
3 *2482:S 0
4 *2487:S 0
5 *2485:S 0
6 *2481:S 0
7 *2483:S 0
8 *2484:S 0.000378153
9 *2479:Y 0
10 *325:97 0.00135448
11 *325:93 0.00202499
12 *325:83 0.000741045
13 *325:81 0.00194405
14 *325:77 0.0033962
15 *325:67 0.00289446
16 *325:65 0.00224191
17 *325:51 0.0020343
18 *325:34 0.00376543
19 *325:26 0.00248144
20 *325:18 0.00174466
21 *325:6 0.00126315
22 *2480:S *666:14 1.14154e-05
23 *2484:S *339:140 0.000136718
24 *2484:S *647:78 0.0002459
25 *2484:S *657:112 0.000269151
26 *2484:S *691:10 3.3746e-05
27 *2486:S *2486:A0 0.000141954
28 *325:18 *2591:B 2.47815e-05
29 *325:18 *341:6 3.7122e-06
30 *325:18 *635:24 6.37326e-05
31 *325:18 *635:38 0
32 *325:26 *326:41 0.00043435
33 *325:26 *331:14 0.000243307
34 *325:26 *345:152 0.000920299
35 *325:26 *416:8 1.39431e-05
36 *325:34 *2427:S0 0.000345286
37 *325:34 *2427:S1 3.81486e-05
38 *325:34 *333:46 4.39444e-06
39 *325:34 *338:18 0.000513783
40 *325:34 *339:134 0.000102328
41 *325:34 *339:140 6.61261e-05
42 *325:34 *345:128 0
43 *325:34 *345:152 0
44 *325:34 *432:14 0.000255064
45 *325:34 *440:12 0
46 *325:34 *440:27 0.000353001
47 *325:34 *647:78 7.98259e-05
48 *325:34 *647:89 4.98718e-06
49 *325:34 *648:78 0.000115013
50 *325:34 *664:95 1.12487e-05
51 *325:34 *705:20 2.70469e-05
52 *325:51 *2483:A0 5.41288e-05
53 *325:51 *2674:CLK 0.000352186
54 *325:51 *2931:A 2.4754e-05
55 *325:51 *360:22 7.73854e-05
56 *325:51 *360:33 8.94963e-05
57 *325:65 *326:29 0
58 *325:65 *327:12 2.60152e-05
59 *325:65 *328:23 0.000243596
60 *325:65 *329:8 8.62876e-05
61 *325:65 *342:8 0.000138718
62 *325:65 *633:115 1.39848e-05
63 *325:65 *635:63 0
64 *325:67 *2609:A0 0.00012238
65 *325:67 *666:14 0.00023032
66 *325:67 *735:10 4.05196e-05
67 *325:77 *2938:A 1.24376e-05
68 *325:77 *405:12 4.31366e-05
69 *325:77 *666:14 2.4754e-05
70 *325:77 *666:20 0.000264794
71 *325:81 *2457:A1 0.000341483
72 *325:81 *2854:A 0
73 *325:81 *2946:A 6.16439e-05
74 *325:81 *331:35 6.08751e-05
75 *325:81 *359:94 0
76 *325:81 *373:8 5.26204e-05
77 *325:81 *405:12 5.68882e-05
78 *325:81 *497:8 0.000296026
79 *325:81 *524:8 6.7177e-06
80 *325:81 *575:8 7.72381e-05
81 *325:81 *639:143 0
82 *325:81 *646:54 0
83 *325:81 *646:61 0
84 *325:81 *646:82 0
85 *325:81 *654:20 0
86 *325:81 *654:74 0
87 *325:83 *393:20 0.000117759
88 *325:93 *2482:A1 9.67842e-05
89 *325:93 *2879:A 0
90 *325:93 *2921:A 0
91 *325:93 *2922:A 2.60152e-05
92 *325:93 *393:20 0.000211444
93 *325:93 *417:12 3.47776e-05
94 *325:93 *500:10 0.000504835
95 *325:93 *603:8 0
96 *325:93 *633:139 0.000357713
97 *325:93 *643:39 0
98 *325:97 *2463:S0 0.000134677
99 *325:97 *2464:A1 0
100 *325:97 *2581:A0 0.000222104
101 *325:97 *2921:A 0
102 *325:97 *398:19 0
103 *325:97 *513:10 0
104 *325:97 *633:139 0.000141879
105 *325:97 *637:104 8.55576e-05
106 *325:97 *641:127 0.000222104
107 *325:97 *645:68 9.95299e-05
108 *325:97 *646:189 0.000108681
109 *325:97 *651:114 0.000476591
110 *325:97 *652:31 0.00102089
111 *325:97 *652:33 0.000158229
112 *2460:A3 *325:81 0
113 *2509:A *325:26 9.41957e-05
114 *2748:D *325:51 0.000666999
115 *56:8 *325:93 6.53609e-05
116 *85:8 *325:97 0
117 *135:10 *325:34 4.66036e-05
118 *159:8 *325:26 0
119 *166:10 *325:67 9.41704e-05
120 *288:10 *325:34 0.000293776
121 *290:10 *325:34 3.95949e-05
122 *292:18 *325:83 0.000121021
123 *292:18 *325:93 7.15126e-05
124 *318:10 *325:97 0
125 *319:14 *325:97 3.1157e-05
126 *320:26 *325:97 0
127 *322:10 *325:65 0
128 *322:18 *325:65 0
129 *322:31 *325:18 0.000104672
130 *322:31 *325:65 9.01935e-05
131 *322:48 *325:18 6.48049e-05
132 *323:16 *325:34 0.000187996
133 *324:18 *325:65 0
134 *324:20 *325:26 0.000190195
*RES
1 *2479:Y *325:6 38 
2 *325:6 *325:18 40.6057 
3 *325:18 *325:26 39.4429 
4 *325:26 *325:34 47.6043 
5 *325:34 *2484:S 48.3571 
6 *325:34 *325:51 47.4593 
7 *325:51 *2483:S 23 
8 *325:26 *2481:S 23 
9 *325:6 *325:65 28.5264 
10 *325:65 *325:67 28.2543 
11 *325:67 *325:77 33.415 
12 *325:77 *325:81 48.9507 
13 *325:81 *325:83 2.52714 
14 *325:83 *325:93 31.9236 
15 *325:93 *325:97 48.9507 
16 *325:97 *2485:S 23 
17 *325:93 *2487:S 38 
18 *325:83 *2482:S 23 
19 *325:77 *2486:S 42.4329 
20 *325:67 *2480:S 23.4971 
*END

*D_NET *326 0.00932071
*CONN
*I *2489:B I *D sky130_fd_sc_hd__nor2_4
*I *2591:A I *D sky130_fd_sc_hd__nor2_4
*I *2527:A I *D sky130_fd_sc_hd__nor2_4
*I *2536:A I *D sky130_fd_sc_hd__nor2_4
*I *2488:X O *D sky130_fd_sc_hd__or3b_4
*CAP
1 *2489:B 0.000520869
2 *2591:A 0
3 *2527:A 0
4 *2536:A 0.000109594
5 *2488:X 0.000337442
6 *326:41 0.000697427
7 *326:29 0.00117427
8 *326:25 0.00109504
9 *326:12 0.000333113
10 *326:8 0.000463632
11 *2489:B *327:12 3.40181e-05
12 *2489:B *327:95 3.52937e-05
13 *2489:B *328:8 0.000223698
14 *326:8 *2368:B 0
15 *326:8 *350:71 0
16 *326:29 *2573:B 8.90137e-05
17 *326:29 *342:8 0
18 *326:29 *636:46 0
19 *326:41 *2527:B 5.50049e-05
20 *326:41 *330:12 0
21 *326:41 *333:12 5.67058e-05
22 *326:41 *333:46 9.84794e-05
23 *326:41 *339:12 0.000163508
24 *326:41 *345:152 0.00042598
25 *326:41 *350:19 6.48142e-05
26 *326:41 *350:30 0.000107654
27 *2469:B *2536:A 9.67842e-05
28 *2469:B *326:12 4.08664e-05
29 *2489:A *2489:B 0.000264564
30 *2546:B *326:41 0.000168744
31 *175:26 *326:8 0
32 *249:12 *326:8 5.94125e-05
33 *249:29 *326:25 0.00021673
34 *249:29 *326:29 0.00022488
35 *249:37 *326:29 0.000187986
36 *252:12 *326:29 7.28231e-05
37 *252:12 *326:41 2.77955e-05
38 *322:10 *326:25 1.58805e-05
39 *322:18 *326:25 8.92944e-05
40 *322:18 *326:29 4.6318e-06
41 *323:10 *326:8 0
42 *323:54 *2536:A 1.57571e-05
43 *323:54 *326:12 4.56338e-05
44 *324:10 *326:8 0.000404977
45 *324:18 *326:29 0.000416967
46 *324:20 *326:29 0.000431843
47 *324:20 *326:41 1.52362e-05
48 *325:26 *326:41 0.00043435
49 *325:65 *326:29 0
*RES
1 *2488:X *326:8 45.1879 
2 *326:8 *326:12 17.0507 
3 *326:12 *2536:A 25.0714 
4 *326:12 *326:25 17.9621 
5 *326:25 *326:29 13.2157 
6 *326:29 *326:41 32.7936 
7 *326:41 *2527:A 23 
8 *326:29 *2591:A 38 
9 *326:25 *2489:B 47.57 
*END

*D_NET *327 0.0437525
*CONN
*I *2491:S I *D sky130_fd_sc_hd__mux2_1
*I *2494:S I *D sky130_fd_sc_hd__mux2_1
*I *2493:S I *D sky130_fd_sc_hd__mux2_1
*I *2490:S I *D sky130_fd_sc_hd__mux2_1
*I *2492:S I *D sky130_fd_sc_hd__mux2_1
*I *2497:S I *D sky130_fd_sc_hd__mux2_1
*I *2495:S I *D sky130_fd_sc_hd__mux2_1
*I *2496:S I *D sky130_fd_sc_hd__mux2_1
*I *2489:Y O *D sky130_fd_sc_hd__nor2_4
*CAP
1 *2491:S 0.000132614
2 *2494:S 0
3 *2493:S 0
4 *2490:S 0
5 *2492:S 0
6 *2497:S 0
7 *2495:S 0
8 *2496:S 0.000578239
9 *2489:Y 0
10 *327:118 0.00111058
11 *327:107 0.00248551
12 *327:103 0.00453131
13 *327:99 0.00268771
14 *327:95 0.00173525
15 *327:69 0.00126585
16 *327:65 0.00185679
17 *327:53 0.00067182
18 *327:49 0.00135611
19 *327:34 0.00281191
20 *327:26 0.00209287
21 *327:12 0.00210135
22 *327:4 0.0010823
23 *2491:S *2491:A0 5.50049e-05
24 *2496:S *2997:A 0.000173154
25 *2496:S *359:84 3.32288e-05
26 *2496:S *359:94 4.39278e-05
27 *2496:S *643:155 1.38758e-05
28 *327:12 *2518:B 2.93845e-05
29 *327:12 *2941:A 0
30 *327:12 *328:8 4.02485e-05
31 *327:12 *328:10 0.000119313
32 *327:12 *328:23 0.000241365
33 *327:12 *479:10 0
34 *327:26 *2519:A0 2.81767e-05
35 *327:26 *2519:A1 0.000314699
36 *327:26 *2537:A0 4.95081e-05
37 *327:26 *2537:A1 0.000171296
38 *327:26 *334:6 0.000616669
39 *327:26 *334:12 9.84851e-05
40 *327:26 *643:145 5.3304e-05
41 *327:26 *667:24 0.000479335
42 *327:34 *359:82 0.000167533
43 *327:34 *359:84 1.32939e-05
44 *327:34 *407:18 6.25829e-05
45 *327:34 *415:18 0.000144812
46 *327:34 *643:126 0.000274553
47 *327:34 *643:145 0.000182854
48 *327:34 *667:51 3.35885e-05
49 *327:49 *2556:A0 0.000353996
50 *327:49 *2930:A 4.31263e-05
51 *327:49 *336:57 0
52 *327:49 *339:32 8.54958e-05
53 *327:49 *339:110 0
54 *327:49 *358:22 0
55 *327:49 *358:61 0
56 *327:49 *666:28 0
57 *327:53 *393:20 0.000121021
58 *327:53 *626:16 0.000219383
59 *327:65 *2436:S0 0.000291829
60 *327:65 *358:34 8.97304e-05
61 *327:65 *441:10 0.000117378
62 *327:65 *523:8 3.70094e-05
63 *327:65 *626:16 0.000404056
64 *327:65 *637:121 2.13808e-05
65 *327:65 *639:124 0.000251277
66 *327:65 *663:10 2.55642e-05
67 *327:65 *663:16 0.000252256
68 *327:69 *523:8 0.00014411
69 *327:69 *579:10 1.83667e-05
70 *327:69 *637:121 0
71 *327:69 *639:109 0
72 *327:69 *639:124 0.00128658
73 *327:69 *669:56 0.000786571
74 *327:69 *694:10 2.5415e-05
75 *327:99 *339:134 0.0001604
76 *327:99 *349:56 2.70469e-05
77 *327:99 *349:58 0.000185573
78 *327:99 *639:20 0
79 *327:99 *665:57 3.70187e-05
80 *327:99 *665:74 0.000854462
81 *327:99 *744:16 0
82 *327:99 *745:10 0.000139647
83 *327:99 *745:14 0.00148053
84 *327:103 *368:14 2.60152e-05
85 *327:103 *608:12 0.000387972
86 *327:103 *637:60 0.00122752
87 *327:103 *639:20 0.000209152
88 *327:103 *647:89 0
89 *327:103 *647:122 0
90 *327:103 *665:46 0
91 *327:103 *665:57 0.000388243
92 *327:103 *705:33 0.000432772
93 *327:107 *2493:A0 4.06849e-05
94 *327:107 *661:79 2.02517e-05
95 *327:118 *2621:CLK 0
96 *327:118 *348:95 0.000121021
97 *327:118 *634:52 0.000802971
98 *327:118 *647:12 0
99 *327:118 *668:26 0
100 *327:118 *669:34 6.36037e-05
101 *327:118 *669:87 0.000175882
102 *2436:A0 *327:65 0.000778346
103 *2489:A *327:12 9.13962e-05
104 *2489:B *327:12 3.40181e-05
105 *2489:B *327:95 3.52937e-05
106 *2625:D *2496:S 4.9054e-06
107 *2625:D *327:34 7.24484e-05
108 *2649:D *327:26 1.64354e-05
109 *62:10 *327:26 6.07272e-05
110 *86:10 *327:26 2.02872e-05
111 *110:8 *327:49 5.21127e-05
112 *118:8 *327:49 0.000114083
113 *158:8 *327:49 0
114 *256:8 *327:99 0
115 *257:10 *327:99 0
116 *292:18 *327:49 2.71291e-05
117 *294:8 *327:65 0.000113153
118 *322:31 *327:12 6.48049e-05
119 *323:54 *327:26 0.000595271
120 *323:74 *327:26 5.3304e-05
121 *323:74 *327:34 1.12487e-05
122 *323:151 *327:69 0.000191148
123 *324:18 *327:12 9.4713e-05
124 *325:65 *327:12 2.60152e-05
*RES
1 *2489:Y *327:4 23 
2 *327:4 *327:12 44.645 
3 *327:12 *327:26 29.4557 
4 *327:26 *327:34 46.6336 
5 *327:34 *2496:S 32.2386 
6 *327:34 *327:49 39.4429 
7 *327:49 *327:53 17.5271 
8 *327:53 *327:65 36.75 
9 *327:65 *327:69 48.9507 
10 *327:69 *2495:S 23 
11 *327:65 *2497:S 38 
12 *327:53 *2492:S 23 
13 *327:26 *2490:S 23 
14 *327:4 *327:95 16.5743 
15 *327:95 *327:99 39.5021 
16 *327:99 *327:103 41.2036 
17 *327:103 *327:107 31.4857 
18 *327:107 *2493:S 23 
19 *327:103 *327:118 36.4186 
20 *327:118 *2494:S 38 
21 *327:99 *2491:S 40.0714 
*END

*D_NET *328 0.00187175
*CONN
*I *2608:B I *D sky130_fd_sc_hd__nor2_4
*I *2536:B I *D sky130_fd_sc_hd__nor2_4
*I *2518:B I *D sky130_fd_sc_hd__nor2_4
*I *2498:Y O *D sky130_fd_sc_hd__nand2b_2
*CAP
1 *2608:B 0
2 *2536:B 0
3 *2518:B 2.66148e-05
4 *2498:Y 0.000137483
5 *328:23 9.40064e-05
6 *328:10 0.000182283
7 *328:8 0.000199144
8 *2489:B *328:8 0.000223698
9 *322:18 *2518:B 2.64616e-05
10 *322:18 *328:8 1.32314e-05
11 *322:18 *328:10 0.0001164
12 *324:18 *328:8 0.000178517
13 *325:65 *328:23 0.000243596
14 *327:12 *2518:B 2.93845e-05
15 *327:12 *328:8 4.02485e-05
16 *327:12 *328:10 0.000119313
17 *327:12 *328:23 0.000241365
*RES
1 *2498:Y *328:8 26.9771 
2 *328:8 *328:10 2.52714 
3 *328:10 *2518:B 23.6214 
4 *328:10 *328:23 33.3143 
5 *328:23 *2536:B 23 
6 *328:8 *2608:B 23 
*END

*D_NET *329 0.0481808
*CONN
*I *2504:S I *D sky130_fd_sc_hd__mux2_1
*I *2503:S I *D sky130_fd_sc_hd__mux2_1
*I *2505:S I *D sky130_fd_sc_hd__mux2_1
*I *2501:S I *D sky130_fd_sc_hd__mux2_1
*I *2500:S I *D sky130_fd_sc_hd__mux2_1
*I *2506:S I *D sky130_fd_sc_hd__mux2_1
*I *2502:S I *D sky130_fd_sc_hd__mux2_1
*I *2507:S I *D sky130_fd_sc_hd__mux2_1
*I *2499:Y O *D sky130_fd_sc_hd__nand3b_4
*CAP
1 *2504:S 0
2 *2503:S 0
3 *2505:S 0
4 *2501:S 0
5 *2500:S 0.000149149
6 *2506:S 0
7 *2502:S 0
8 *2507:S 0
9 *2499:Y 4.70126e-05
10 *329:145 0.000991297
11 *329:134 8.0783e-05
12 *329:123 0.00191562
13 *329:111 0.00276542
14 *329:109 0.00176032
15 *329:107 0.00300294
16 *329:105 0.00303506
17 *329:96 0.000206416
18 *329:90 0.00150576
19 *329:72 0.000166584
20 *329:54 0.000830151
21 *329:48 0.000983391
22 *329:44 0.00194556
23 *329:42 0.00191285
24 *329:38 0.00233092
25 *329:36 0.00293732
26 *329:24 0.00131699
27 *329:20 0.00190273
28 *329:16 0.00151466
29 *329:8 0.00126473
30 *2500:S *332:153 0
31 *2500:S *359:66 0
32 *2500:S *359:123 9.28842e-05
33 *329:8 *633:115 1.01436e-05
34 *329:8 *635:63 2.26489e-05
35 *329:16 *2422:S0 9.58714e-05
36 *329:16 *633:123 0.000104089
37 *329:16 *635:46 0.000223698
38 *329:20 *375:10 1.70494e-05
39 *329:24 *359:123 2.7237e-05
40 *329:24 *375:10 5.26733e-06
41 *329:36 *332:153 0
42 *329:36 *334:35 0.000268585
43 *329:36 *359:66 0
44 *329:36 *415:18 4.06849e-05
45 *329:38 *2631:CLK 9.5877e-05
46 *329:38 *2893:A 8.16913e-05
47 *329:38 *334:35 0.000643685
48 *329:38 *334:41 0.000301167
49 *329:38 *334:51 4.79498e-05
50 *329:38 *602:10 1.39431e-05
51 *329:42 *602:10 2.72257e-05
52 *329:44 *2549:A0 0
53 *329:44 *2553:A0 0
54 *329:44 *2885:A 0.000140558
55 *329:44 *2966:A 0.000132665
56 *329:44 *332:48 0
57 *329:44 *332:64 0
58 *329:44 *337:97 0
59 *329:44 *337:107 0.000358905
60 *329:44 *337:142 0
61 *329:44 *465:10 0
62 *329:44 *469:10 0.000222113
63 *329:44 *473:10 4.08641e-05
64 *329:44 *544:8 0
65 *329:44 *562:16 0.000407218
66 *329:44 *594:8 0
67 *329:44 *614:8 3.5664e-05
68 *329:44 *653:25 0
69 *329:44 *662:120 0
70 *329:48 *2502:A1 0.000185434
71 *329:54 *2502:A1 1.14154e-05
72 *329:54 *2899:A 0
73 *329:54 *2979:A 0
74 *329:54 *332:70 0.000833402
75 *329:54 *337:107 0
76 *329:54 *337:122 0
77 *329:54 *470:18 0
78 *329:54 *478:35 0
79 *329:54 *557:10 0.000382564
80 *329:54 *610:8 4.08537e-05
81 *329:54 *651:12 0
82 *329:72 *602:10 6.6869e-05
83 *329:90 *332:153 0.00066946
84 *329:90 *334:29 6.00764e-05
85 *329:90 *342:67 0
86 *329:90 *535:8 5.45887e-05
87 *329:96 *2501:A0 3.46673e-05
88 *329:96 *634:170 0.000349813
89 *329:105 *2501:A0 1.59094e-05
90 *329:105 *634:170 2.02872e-05
91 *329:107 *2424:A3 0.000283088
92 *329:107 *2965:A 0.000129513
93 *329:107 *333:136 0
94 *329:107 *336:10 0.00169026
95 *329:107 *336:14 0.000483867
96 *329:107 *336:22 0.000193702
97 *329:107 *341:117 0
98 *329:107 *342:77 0
99 *329:107 *347:18 0.000136092
100 *329:107 *464:12 0.000299178
101 *329:107 *480:16 0.000185755
102 *329:107 *532:8 4.08641e-05
103 *329:107 *642:54 0
104 *329:107 *642:64 0
105 *329:107 *659:77 5.83085e-05
106 *329:107 *664:10 0
107 *329:111 *2891:A 0.000137651
108 *329:111 *342:117 0.000227208
109 *329:111 *601:10 4.2573e-05
110 *329:111 *659:62 0.000322679
111 *329:111 *659:77 6.33508e-05
112 *329:123 *2662:CLK 9.00922e-05
113 *329:123 *388:8 0.000180212
114 *329:123 *428:10 0.000104502
115 *329:123 *505:10 5.50049e-05
116 *329:123 *601:10 5.3304e-05
117 *329:134 *601:10 0.000138718
118 *329:134 *630:20 1.22803e-05
119 *329:134 *659:58 7.81176e-05
120 *329:145 *2952:A 0.000139657
121 *329:145 *2985:A 4.73689e-05
122 *329:145 *342:117 0.00112976
123 *329:145 *379:10 0.000188916
124 *329:145 *387:25 0
125 *329:145 *491:10 0.000123977
126 *329:145 *657:19 0
127 *329:145 *657:32 0
128 *2422:A3 *329:16 0.000103637
129 *2631:D *329:38 0.00018878
130 *2662:D *329:123 3.54023e-05
131 *41:10 *329:107 0
132 *74:10 *329:145 0.000125013
133 *81:10 *329:107 0
134 *86:10 *2500:S 0.000215791
135 *97:8 *329:107 0.000166522
136 *114:8 *329:107 0
137 *134:8 *329:90 7.95478e-05
138 *145:8 *329:107 0
139 *170:10 *329:145 5.3304e-05
140 *264:20 *329:107 0.000542586
141 *281:14 *329:16 1.94693e-05
142 *282:10 *329:90 0.000135008
143 *284:12 *329:16 8.4047e-05
144 *301:10 *329:107 4.08641e-05
145 *310:22 *329:123 0.000919885
146 *325:65 *329:8 8.62876e-05
*RES
1 *2499:Y *329:8 39.2014 
2 *329:8 *329:16 46.5921 
3 *329:16 *329:20 18.48 
4 *329:20 *329:24 18.48 
5 *329:24 *329:36 29.3757 
6 *329:36 *329:38 39.6886 
7 *329:38 *329:42 17.0507 
8 *329:42 *329:44 38.8807 
9 *329:44 *329:48 18.48 
10 *329:48 *329:54 35.3621 
11 *329:54 *2507:S 38 
12 *329:48 *2502:S 23 
13 *329:38 *329:72 33.3143 
14 *329:72 *2506:S 23 
15 *329:24 *2500:S 42.0186 
16 *329:20 *329:90 44.725 
17 *329:90 *329:96 19.4536 
18 *329:96 *2501:S 23 
19 *329:96 *329:105 15.6214 
20 *329:105 *329:107 71.2779 
21 *329:107 *329:109 15 
22 *329:109 *329:111 15.8671 
23 *329:111 *329:123 34.3236 
24 *329:123 *2505:S 23 
25 *329:111 *329:134 32.2579 
26 *329:134 *2503:S 23 
27 *329:109 *329:145 38.5936 
28 *329:145 *2504:S 38 
*END

*D_NET *330 0.00422988
*CONN
*I *2564:B I *D sky130_fd_sc_hd__nor2_4
*I *2509:B I *D sky130_fd_sc_hd__nor2_4
*I *2527:B I *D sky130_fd_sc_hd__nor2_4
*I *2508:X O *D sky130_fd_sc_hd__or2_2
*CAP
1 *2564:B 7.57303e-05
2 *2509:B 0.000160112
3 *2527:B 0.000149778
4 *2508:X 0.000295183
5 *330:12 0.000512939
6 *330:10 0.000573962
7 *2509:B *331:14 9.41704e-05
8 *2509:B *331:48 0.000119313
9 *2527:B *333:46 4.6318e-06
10 *2527:B *345:152 0
11 *2564:B *2775:CLK 0.000313249
12 *330:10 *339:12 0.000201033
13 *330:10 *635:14 5.50049e-05
14 *330:12 *339:12 0.000116726
15 *2564:A *2564:B 0.000143655
16 *252:36 *330:10 2.93747e-05
17 *322:48 *2564:B 8.71888e-05
18 *323:16 *2527:B 0.000188926
19 *323:16 *330:10 0.000633018
20 *323:16 *330:12 0.00042088
21 *326:41 *2527:B 5.50049e-05
22 *326:41 *330:12 0
*RES
1 *2508:X *330:10 47.2179 
2 *330:10 *330:12 5.77929 
3 *330:12 *2527:B 41.2314 
4 *330:12 *2509:B 41.48 
5 *330:10 *2564:B 41.48 
*END

*D_NET *331 0.0469416
*CONN
*I *2511:S I *D sky130_fd_sc_hd__mux2_1
*I *2514:S I *D sky130_fd_sc_hd__mux2_1
*I *2515:S I *D sky130_fd_sc_hd__mux2_1
*I *2513:S I *D sky130_fd_sc_hd__mux2_1
*I *2512:S I *D sky130_fd_sc_hd__mux2_1
*I *2517:S I *D sky130_fd_sc_hd__mux2_1
*I *2516:S I *D sky130_fd_sc_hd__mux2_1
*I *2510:S I *D sky130_fd_sc_hd__mux2_1
*I *2509:Y O *D sky130_fd_sc_hd__nor2_4
*CAP
1 *2511:S 0
2 *2514:S 3.80122e-05
3 *2515:S 0.000171294
4 *2513:S 0.000132555
5 *2512:S 0
6 *2517:S 0.00118946
7 *2516:S 0
8 *2510:S 0
9 *2509:Y 0
10 *331:131 0.00110791
11 *331:110 0.00106918
12 *331:108 0.00184835
13 *331:102 0.00320815
14 *331:100 0.00199014
15 *331:94 0.00089766
16 *331:68 0.00178165
17 *331:56 0.00270071
18 *331:50 0.00233783
19 *331:48 0.00113799
20 *331:35 0.000130961
21 *331:27 0.00337684
22 *331:14 0.00358981
23 *331:4 0.00148192
24 *2513:S *342:77 0
25 *2513:S *342:83 0
26 *2513:S *569:8 3.56537e-05
27 *2513:S *645:151 0
28 *2514:S *2514:A0 5.3304e-05
29 *2515:S *2515:A0 4.9662e-05
30 *2515:S *2568:S 1.64402e-05
31 *2515:S *338:65 5.61255e-06
32 *2515:S *339:69 0.000136738
33 *2515:S *552:8 0.000110913
34 *2515:S *656:44 0
35 *2517:S *2466:S0 4.37586e-06
36 *2517:S *2466:S1 3.71251e-05
37 *2517:S *2572:A1 5.67943e-05
38 *2517:S *637:121 2.5182e-05
39 *2517:S *639:124 7.13507e-05
40 *2517:S *652:63 0.00042973
41 *331:14 *349:14 0.000356718
42 *331:27 *2419:A1 1.95629e-05
43 *331:27 *2419:A3 5.41385e-05
44 *331:27 *2510:A0 7.73389e-05
45 *331:27 *2713:CLK 0.000166062
46 *331:27 *336:65 0.000993227
47 *331:27 *337:83 0.000222313
48 *331:27 *349:14 0.0001164
49 *331:27 *359:38 4.02912e-05
50 *331:27 *367:14 2.93747e-05
51 *331:27 *431:23 1.16872e-05
52 *331:27 *648:127 2.93747e-05
53 *331:35 *2516:A0 0.000139352
54 *331:35 *345:76 2.4754e-05
55 *331:35 *524:8 0.000135557
56 *331:35 *654:74 0.000180218
57 *331:48 *2756:CLK 1.24376e-05
58 *331:48 *2878:A 0.000629206
59 *331:48 *338:18 0.00200457
60 *331:48 *339:134 0.000103966
61 *331:48 *349:58 0.000183087
62 *331:48 *349:64 0.000233033
63 *331:48 *400:10 0.000141879
64 *331:48 *665:57 0.000123985
65 *331:56 *2512:A0 0.00031495
66 *331:56 *2512:A1 8.6949e-05
67 *331:56 *2584:A0 2.80394e-05
68 *331:56 *2584:S 0.000139357
69 *331:56 *2990:A 0.000173452
70 *331:56 *3000:A 0.000140259
71 *331:56 *340:16 0.000137651
72 *331:56 *345:12 6.51843e-05
73 *331:56 *345:20 0.000368201
74 *331:56 *360:8 0.000567191
75 *331:56 *608:12 3.41017e-05
76 *331:68 *2512:A1 5.50106e-05
77 *331:68 *2911:A 0.000218962
78 *331:68 *338:117 0.000163334
79 *331:68 *345:22 0
80 *331:68 *410:8 7.45278e-05
81 *331:68 *632:10 0.000222113
82 *331:68 *634:115 0
83 *331:68 *659:124 0.000163352
84 *331:68 *678:40 1.7992e-05
85 *331:68 *697:10 5.56203e-05
86 *331:94 *2511:A0 2.43944e-05
87 *331:94 *2511:A1 9.67842e-05
88 *331:94 *608:12 4.21471e-05
89 *331:100 *2575:S 2.05503e-05
90 *331:100 *633:18 0
91 *331:100 *637:60 0.00119608
92 *331:100 *642:33 0.000207565
93 *331:102 *2445:S1 0.000191148
94 *331:102 *333:108 7.89688e-05
95 *331:102 *333:122 5.44006e-05
96 *331:102 *599:8 0
97 *331:102 *633:18 1.07192e-05
98 *331:102 *637:60 0.00030122
99 *331:102 *639:59 7.38587e-05
100 *331:102 *642:119 0.000209739
101 *331:102 *650:20 0.000512078
102 *331:102 *658:66 0.000672547
103 *331:108 *2514:A0 0.00018282
104 *331:108 *2514:A1 0.000334739
105 *331:108 *2676:CLK 0.000140259
106 *331:108 *370:10 9.59224e-05
107 *331:108 *642:119 5.94125e-05
108 *331:131 *2676:CLK 0.000573909
109 *331:131 *354:108 0.000201109
110 *331:131 *442:6 0.000228001
111 *331:131 *442:25 0.000301719
112 *331:131 *569:8 2.64506e-05
113 *331:131 *645:151 0
114 *2473:S *2517:S 0.000382847
115 *2509:A *331:14 0.000215512
116 *2509:B *331:14 9.41704e-05
117 *2509:B *331:48 0.000119313
118 *2676:D *331:108 0.000186829
119 *2713:D *331:27 0.000175967
120 *78:10 *331:27 7.43348e-05
121 *80:10 *331:56 5.70419e-05
122 *82:8 *331:102 0
123 *95:10 *331:100 0.000246748
124 *98:8 *331:102 0.000159661
125 *281:8 *331:27 1.6273e-05
126 *287:10 *331:100 7.08673e-05
127 *303:14 *331:102 0
128 *304:8 *331:102 0.000277426
129 *317:14 *2517:S 1.6318e-05
130 *319:14 *2517:S 3.71369e-05
131 *321:10 *2517:S 0.00039238
132 *325:26 *331:14 0.000243307
133 *325:81 *331:35 6.08751e-05
*RES
1 *2509:Y *331:4 23 
2 *331:4 *331:14 38.845 
3 *331:14 *2510:S 23 
4 *331:14 *331:27 45.82 
5 *331:27 *331:35 33.9564 
6 *331:35 *2516:S 23 
7 *331:4 *331:48 47.3143 
8 *331:48 *331:50 15 
9 *331:50 *331:56 41.76 
10 *331:56 *331:68 45.2664 
11 *331:68 *2517:S 46.2414 
12 *331:56 *2512:S 23 
13 *331:50 *331:94 3.97714 
14 *331:94 *331:100 31.9132 
15 *331:100 *331:102 34.7068 
16 *331:102 *331:108 47.915 
17 *331:108 *331:110 15 
18 *331:110 *2513:S 40.61 
19 *331:110 *331:131 49.14 
20 *331:131 *2515:S 41.625 
21 *331:102 *2514:S 38.6214 
22 *331:94 *2511:S 23 
*END

*D_NET *332 0.0470929
*CONN
*I *2520:S I *D sky130_fd_sc_hd__mux2_1
*I *2519:S I *D sky130_fd_sc_hd__mux2_1
*I *2525:S I *D sky130_fd_sc_hd__mux2_1
*I *2521:S I *D sky130_fd_sc_hd__mux2_1
*I *2526:S I *D sky130_fd_sc_hd__mux2_1
*I *2524:S I *D sky130_fd_sc_hd__mux2_1
*I *2523:S I *D sky130_fd_sc_hd__mux2_1
*I *2522:S I *D sky130_fd_sc_hd__mux2_1
*I *2518:Y O *D sky130_fd_sc_hd__nor2_4
*CAP
1 *2520:S 0
2 *2519:S 0
3 *2525:S 0
4 *2521:S 3.4873e-05
5 *2526:S 6.08473e-05
6 *2524:S 5.34521e-05
7 *2523:S 0
8 *2522:S 0
9 *2518:Y 0.00126933
10 *332:153 0.0017143
11 *332:151 0.0017143
12 *332:105 0.00150785
13 *332:92 0.00334765
14 *332:80 0.00236106
15 *332:72 0.00235052
16 *332:70 0.00254953
17 *332:64 0.00122447
18 *332:52 0.000724105
19 *332:48 0.00146124
20 *332:46 0.0014986
21 *332:42 0.00207885
22 *332:28 0.00300395
23 *332:18 0.00133278
24 *332:12 0.00156891
25 *2521:S *2521:A0 2.93845e-05
26 *2521:S *2521:A1 1.14154e-05
27 *2521:S *662:40 2.32101e-05
28 *2524:S *548:16 0.000102389
29 *2526:S *2526:A0 5.67058e-05
30 *332:12 *2421:A0 0.000148688
31 *332:12 *2421:A2 0.000208721
32 *332:12 *2500:A1 0.00014876
33 *332:18 *2500:A1 0.000139352
34 *332:18 *359:123 0
35 *332:18 *667:30 9.50292e-05
36 *332:28 *2470:A0 5.50106e-05
37 *332:28 *2490:A0 0.000271476
38 *332:28 *2519:A1 0.000313249
39 *332:28 *342:26 0.000170252
40 *332:28 *359:123 0
41 *332:28 *643:145 6.46429e-05
42 *332:28 *667:51 2.18506e-05
43 *332:42 *2476:A0 0.000911471
44 *332:42 *2615:A0 5.50049e-05
45 *332:42 *342:26 0.000128607
46 *332:42 *357:133 0.000265439
47 *332:42 *485:29 5.62243e-05
48 *332:42 *646:166 2.97422e-05
49 *332:42 *653:6 0.000126847
50 *332:42 *653:105 9.5877e-05
51 *332:42 *653:112 0.000368084
52 *332:46 *2525:A0 1.76557e-05
53 *332:46 *2525:A1 2.93747e-05
54 *332:46 *653:6 2.32101e-05
55 *332:48 *2549:A0 0.000156352
56 *332:48 *2553:A0 0.000306202
57 *332:48 *2671:CLK 0
58 *332:48 *336:71 0.000223225
59 *332:48 *336:77 0.000415518
60 *332:48 *357:34 0
61 *332:48 *357:43 0
62 *332:48 *594:8 0
63 *332:48 *653:19 0.000126793
64 *332:48 *653:25 0.000344395
65 *332:48 *662:120 0.000351626
66 *332:52 *2521:A0 2.64616e-05
67 *332:52 *662:25 2.64616e-05
68 *332:52 *662:40 6.17437e-06
69 *332:64 *2502:A0 0.000417785
70 *332:64 *337:107 0
71 *332:64 *562:16 0
72 *332:64 *614:8 0
73 *332:64 *662:21 0.000223043
74 *332:64 *662:120 8.9458e-05
75 *332:70 *2502:A0 2.11157e-05
76 *332:70 *2554:A0 4.08537e-05
77 *332:70 *336:77 0.00107938
78 *332:70 *337:122 0
79 *332:70 *557:10 0.000384805
80 *332:70 *616:10 0.000141879
81 *332:70 *651:71 6.66736e-05
82 *332:72 *2794:CLK 0.000192578
83 *332:72 *2906:A 0.000136486
84 *332:72 *337:122 0
85 *332:72 *346:37 5.90251e-05
86 *332:72 *346:47 0
87 *332:72 *390:10 0.000223034
88 *332:72 *522:10 2.79004e-05
89 *332:72 *651:71 1.37349e-05
90 *332:72 *655:100 0
91 *332:92 *2453:A2 1.01712e-05
92 *332:92 *2453:A3 6.50913e-05
93 *332:92 *2522:A1 5.67058e-05
94 *332:92 *2968:A 2.93845e-05
95 *332:92 *546:10 9.01041e-05
96 *332:92 *548:16 0.000315245
97 *332:92 *645:127 0.00117281
98 *332:92 *655:20 0.000232401
99 *332:105 *2522:A1 0.000161451
100 *332:105 *2523:A0 5.50049e-05
101 *332:105 *2612:A0 2.06822e-05
102 *332:105 *2612:A1 0.000269579
103 *332:105 *342:83 0.000702825
104 *332:105 *657:44 1.76557e-05
105 *332:105 *659:33 9.62764e-05
106 *332:153 *2873:A 2.3529e-05
107 *332:153 *337:26 0
108 *332:153 *337:28 0
109 *332:153 *338:145 0.000106128
110 *332:153 *359:66 0
111 *332:153 *359:123 0.000101657
112 *332:153 *361:66 4.21594e-06
113 *332:153 *375:10 6.58373e-05
114 *332:153 *503:10 4.08641e-05
115 *332:153 *535:8 0.000299178
116 *332:153 *611:8 0
117 *332:153 *666:86 0
118 *2500:S *332:153 0
119 *2687:D *332:42 2.80822e-05
120 *62:10 *332:18 3.21223e-05
121 *70:10 *332:12 5.50049e-05
122 *71:8 *332:153 0
123 *77:8 *332:72 0
124 *90:10 *332:105 0.000125416
125 *91:10 *332:80 2.93845e-05
126 *92:8 *332:48 5.61414e-05
127 *112:8 *332:48 0.000169683
128 *115:8 *332:72 0.000194318
129 *116:8 *332:48 5.56203e-05
130 *123:8 *332:72 0.000169674
131 *124:8 *332:48 3.5664e-05
132 *126:10 *332:153 7.76364e-06
133 *172:10 *332:42 0.000146822
134 *282:10 *332:153 0
135 *283:8 *332:12 3.88177e-05
136 *322:18 *332:12 0
137 *323:62 *332:18 0.000226306
138 *323:74 *332:28 1.1997e-05
139 *323:86 *332:28 0.000135037
140 *323:96 *332:28 0.00104711
141 *323:96 *332:42 0.000163037
142 *329:36 *332:153 0
143 *329:44 *332:48 0
144 *329:44 *332:64 0
145 *329:54 *332:70 0.000833402
146 *329:90 *332:153 0.00066946
*RES
1 *2518:Y *332:12 41.8914 
2 *332:12 *332:18 21.6907 
3 *332:18 *332:28 37.1229 
4 *332:28 *332:42 34.22 
5 *332:42 *332:46 17.0507 
6 *332:46 *332:48 39.2329 
7 *332:48 *332:52 16.0979 
8 *332:52 *332:64 41.2017 
9 *332:64 *332:70 22.9204 
10 *332:70 *332:72 40.2893 
11 *332:72 *332:80 23.7621 
12 *332:80 *332:92 38.715 
13 *332:92 *2522:S 23 
14 *332:92 *332:105 30.3464 
15 *332:105 *2523:S 23 
16 *332:80 *2524:S 24.5743 
17 *332:70 *2526:S 39.2429 
18 *332:52 *2521:S 24.1186 
19 *332:42 *2525:S 23 
20 *332:18 *2519:S 38 
21 *332:12 *332:151 15 
22 *332:151 *332:153 37.4721 
23 *332:153 *2520:S 38 
*END

*D_NET *333 0.0458785
*CONN
*I *2529:S I *D sky130_fd_sc_hd__mux2_1
*I *2532:S I *D sky130_fd_sc_hd__mux2_1
*I *2531:S I *D sky130_fd_sc_hd__mux2_1
*I *2533:S I *D sky130_fd_sc_hd__mux2_1
*I *2530:S I *D sky130_fd_sc_hd__mux2_1
*I *2535:S I *D sky130_fd_sc_hd__mux2_1
*I *2528:S I *D sky130_fd_sc_hd__mux2_1
*I *2534:S I *D sky130_fd_sc_hd__mux2_1
*I *2527:Y O *D sky130_fd_sc_hd__nor2_4
*CAP
1 *2529:S 1.55736e-05
2 *2532:S 7.04874e-05
3 *2531:S 0
4 *2533:S 0.000783307
5 *2530:S 0
6 *2535:S 0.000818778
7 *2528:S 4.01155e-05
8 *2534:S 0
9 *2527:Y 0
10 *333:136 0.00186664
11 *333:122 0.002943
12 *333:108 0.00327733
13 *333:98 0.00241436
14 *333:72 0.00146687
15 *333:64 0.00156241
16 *333:58 0.00252391
17 *333:54 0.00172304
18 *333:46 0.00192646
19 *333:24 0.00264948
20 *333:12 0.00371461
21 *333:4 0.00178642
22 *2529:S *368:27 7.71315e-05
23 *2529:S *665:85 1.14452e-05
24 *2532:S *2532:A0 0.00010018
25 *2532:S *2532:A1 6.24251e-05
26 *2532:S *427:10 0.000223692
27 *2533:S *2533:A0 0.000153369
28 *2533:S *2708:CLK 0.000323663
29 *2533:S *2943:A 5.50106e-05
30 *2533:S *434:16 7.67478e-05
31 *2535:S *2535:A1 0
32 *2535:S *2782:CLK 7.07238e-05
33 *2535:S *355:75 1.21972e-05
34 *333:12 *341:101 9.54446e-06
35 *333:12 *341:103 0
36 *333:12 *349:14 5.65398e-05
37 *333:12 *349:16 6.03737e-05
38 *333:12 *576:10 9.57796e-05
39 *333:12 *648:111 0
40 *333:12 *666:106 0.000389931
41 *333:24 *2418:A0 0.000393388
42 *333:24 *2697:CLK 1.59094e-05
43 *333:24 *2900:A 6.19539e-05
44 *333:24 *337:22 1.03836e-05
45 *333:24 *340:10 4.75206e-05
46 *333:24 *358:61 0.000110951
47 *333:24 *463:25 1.10105e-05
48 *333:24 *648:117 9.30422e-06
49 *333:24 *648:127 8.07209e-05
50 *333:46 *2427:A3 0.000480182
51 *333:46 *2427:S0 0.000159262
52 *333:46 *2871:A 3.71198e-05
53 *333:46 *345:152 0
54 *333:46 *361:90 0.000185755
55 *333:46 *588:10 8.85189e-05
56 *333:46 *648:78 3.31127e-05
57 *333:46 *664:95 0.000100625
58 *333:54 *345:152 7.03869e-05
59 *333:54 *361:90 2.93845e-05
60 *333:54 *648:78 0
61 *333:54 *648:86 1.76557e-05
62 *333:58 *2610:A0 0.000325805
63 *333:58 *2610:S 0.000392386
64 *333:64 *2530:A1 6.17437e-06
65 *333:64 *3000:A 0
66 *333:64 *337:28 0.000279463
67 *333:64 *337:30 0.000189398
68 *333:64 *425:10 0
69 *333:64 *645:175 0.000166513
70 *333:64 *650:30 2.05368e-05
71 *333:64 *650:32 6.02277e-06
72 *333:64 *650:66 0.000498051
73 *333:64 *692:8 0.000113153
74 *333:72 *345:22 8.4047e-05
75 *333:72 *633:34 0.000132722
76 *333:98 *2425:A1 0
77 *333:98 *2429:S 0.000559372
78 *333:98 *2737:RESET_B 0
79 *333:98 *2910:A 0
80 *333:98 *633:18 0.0012874
81 *333:98 *640:33 0
82 *333:98 *644:23 9.87385e-06
83 *333:98 *648:74 0.000729974
84 *333:98 *648:86 3.71251e-05
85 *333:98 *665:85 0.000286001
86 *333:108 *2814:A 0
87 *333:108 *2886:A 0.00021673
88 *333:108 *348:10 0
89 *333:108 *348:32 0
90 *333:108 *348:63 0
91 *333:108 *348:76 0
92 *333:108 *348:95 4.33511e-05
93 *333:108 *368:27 7.17297e-05
94 *333:108 *419:29 8.65332e-05
95 *333:108 *633:18 0.000462698
96 *333:108 *634:52 0
97 *333:108 *639:59 0.000855633
98 *333:108 *639:67 5.3365e-05
99 *333:108 *647:133 0.000275692
100 *333:108 *650:20 1.52259e-05
101 *333:122 *2531:A0 9.84851e-05
102 *333:122 *2677:CLK 0.00021501
103 *333:122 *2717:CLK 6.73849e-05
104 *333:122 *2886:A 0.000181943
105 *333:122 *2918:A 0.000392861
106 *333:122 *338:44 0.000201618
107 *333:122 *443:10 0.000178602
108 *333:122 *642:111 6.343e-05
109 *333:136 *426:8 1.59094e-05
110 *333:136 *434:16 0.000367207
111 *333:136 *628:12 0
112 *2527:B *333:46 4.6318e-06
113 *2644:D *333:72 0.000227044
114 *2657:D *333:24 0.000143767
115 *2660:D *333:136 1.64354e-05
116 *2677:D *333:122 6.59525e-05
117 *2708:D *2533:S 0.000100782
118 *2717:D *333:122 7.10068e-06
119 *2782:D *2535:S 0.000438151
120 *55:8 *333:46 7.03481e-05
121 *65:8 *333:64 0.000296026
122 *78:10 *333:12 1.62648e-05
123 *81:10 *333:136 9.04083e-05
124 *98:8 *333:122 0.000323822
125 *119:8 *333:64 0.000140958
126 *161:8 *333:72 8.62783e-05
127 *280:8 *333:24 0.000781048
128 *281:14 *333:12 0
129 *286:14 *333:98 5.84579e-05
130 *289:12 *333:98 8.06804e-06
131 *290:10 *333:54 0.000110636
132 *291:10 *333:98 3.34756e-05
133 *302:10 *333:108 0.000139647
134 *304:8 *333:108 2.13834e-05
135 *323:16 *333:46 0.000112769
136 *325:34 *333:46 4.39444e-06
137 *326:41 *333:12 5.67058e-05
138 *326:41 *333:46 9.84794e-05
139 *329:107 *333:136 0
140 *331:102 *333:108 7.89688e-05
141 *331:102 *333:122 5.44006e-05
*RES
1 *2527:Y *333:4 23 
2 *333:4 *333:12 48.9743 
3 *333:12 *333:24 38.4871 
4 *333:24 *2534:S 23 
5 *333:12 *2528:S 23.8493 
6 *333:4 *333:46 48.995 
7 *333:46 *333:54 33.0036 
8 *333:54 *333:58 27.7986 
9 *333:58 *333:64 40.4164 
10 *333:64 *333:72 38.9693 
11 *333:72 *2535:S 49.9729 
12 *333:58 *2530:S 23 
13 *333:46 *333:98 42.8711 
14 *333:98 *333:108 35.0796 
15 *333:108 *333:122 48.8679 
16 *333:122 *333:136 49.7304 
17 *333:136 *2533:S 39.1675 
18 *333:122 *2531:S 23 
19 *333:108 *2532:S 40.5271 
20 *333:98 *2529:S 39.0254 
*END

*D_NET *334 0.0440223
*CONN
*I *2537:S I *D sky130_fd_sc_hd__mux2_1
*I *2539:S I *D sky130_fd_sc_hd__mux2_1
*I *2544:S I *D sky130_fd_sc_hd__mux2_1
*I *2540:S I *D sky130_fd_sc_hd__mux2_1
*I *2541:S I *D sky130_fd_sc_hd__mux2_1
*I *2542:S I *D sky130_fd_sc_hd__mux2_1
*I *2543:S I *D sky130_fd_sc_hd__mux2_1
*I *2538:S I *D sky130_fd_sc_hd__mux2_1
*I *2536:Y O *D sky130_fd_sc_hd__nor2_4
*CAP
1 *2537:S 0
2 *2539:S 0
3 *2544:S 0
4 *2540:S 0
5 *2541:S 0.00129415
6 *2542:S 0
7 *2543:S 0
8 *2538:S 0
9 *2536:Y 9.84736e-05
10 *334:121 0.000642033
11 *334:99 0.00144397
12 *334:93 0.00197412
13 *334:80 0.00192818
14 *334:76 0.00193844
15 *334:74 0.0035667
16 *334:66 0.0021289
17 *334:62 0.00156381
18 *334:51 0.000438284
19 *334:41 0.00142572
20 *334:35 0.00219228
21 *334:29 0.00207574
22 *334:16 0.0010016
23 *334:12 0.00180211
24 *334:6 0.000553105
25 *2541:S *2909:A 0.000131133
26 *2541:S *482:12 2.45549e-06
27 *2541:S *491:10 4.39278e-05
28 *334:12 *2421:A1 0
29 *334:12 *342:16 1.86973e-05
30 *334:12 *479:10 0
31 *334:12 *644:95 0.000442883
32 *334:12 *648:138 4.9844e-05
33 *334:16 *2501:A0 0.000101708
34 *334:16 *340:16 0
35 *334:16 *644:82 0.00127812
36 *334:16 *644:95 0.000897064
37 *334:16 *664:54 6.48049e-05
38 *334:29 *342:67 0.000213137
39 *334:29 *637:36 0.000204081
40 *334:29 *639:28 1.61361e-05
41 *334:35 *415:18 9.84851e-05
42 *334:35 *604:10 0.000178517
43 *334:41 *413:10 0.000230604
44 *334:41 *572:10 6.9805e-05
45 *334:51 *2631:CLK 3.16784e-05
46 *334:51 *357:106 6.79006e-05
47 *334:51 *653:65 0.000276834
48 *334:51 *653:71 0.000141879
49 *334:62 *2571:A1 0
50 *334:62 *2580:A0 0
51 *334:62 *341:53 9.0775e-05
52 *334:62 *342:30 0.000237776
53 *334:62 *511:10 0
54 *334:66 *2571:A1 0
55 *334:66 *341:53 0.000669818
56 *334:66 *341:59 0.00126672
57 *334:66 *356:10 0
58 *334:66 *356:12 0
59 *334:66 *356:14 0
60 *334:66 *356:20 0
61 *334:66 *356:24 0
62 *334:66 *357:8 0.000120089
63 *334:66 *646:16 0
64 *334:66 *662:74 0
65 *334:74 *2599:A1 1.86973e-05
66 *334:74 *338:123 0.000404047
67 *334:74 *340:110 0
68 *334:74 *341:59 0.000278033
69 *334:74 *341:67 0.000329127
70 *334:74 *353:80 6.32688e-05
71 *334:74 *353:95 0.00010858
72 *334:74 *356:39 4.9346e-05
73 *334:74 *422:20 2.33476e-05
74 *334:74 *489:10 0.00025307
75 *334:74 *512:10 0
76 *334:74 *550:10 0.000298257
77 *334:74 *651:23 7.06124e-05
78 *334:74 *651:29 5.86328e-05
79 *334:76 *2450:A1 0
80 *334:76 *2453:A2 6.41631e-05
81 *334:76 *2784:CLK 0.000119921
82 *334:76 *2971:A 2.24608e-05
83 *334:76 *2993:A 8.57765e-05
84 *334:76 *340:131 0
85 *334:76 *341:67 0.000668796
86 *334:76 *346:12 7.28526e-05
87 *334:76 *346:14 0.000210945
88 *334:76 *353:22 0.000105175
89 *334:76 *353:80 4.54033e-05
90 *334:76 *380:10 6.08043e-05
91 *334:76 *525:10 0.000168754
92 *334:76 *595:12 0.000879115
93 *334:76 *641:73 0
94 *334:76 *655:62 0
95 *334:80 *2542:A0 1.41077e-05
96 *334:80 *2542:A1 5.70419e-05
97 *334:93 *2540:A0 2.02872e-05
98 *334:93 *2542:A0 5.29672e-05
99 *334:93 *2542:A1 7.53384e-06
100 *334:93 *354:56 0.000488848
101 *334:93 *490:10 0.000153145
102 *334:93 *659:18 0.000650366
103 *334:99 *490:10 0.000190218
104 *334:99 *695:8 0
105 *334:121 *2465:A1 1.83408e-05
106 *334:121 *2465:S0 7.40972e-05
107 *334:121 *2813:A 3.3577e-05
108 *334:121 *353:6 4.27272e-05
109 *334:121 *382:33 7.41877e-05
110 *334:121 *494:37 1.91648e-05
111 *334:121 *533:8 6.22448e-06
112 *2422:A1 *334:12 0.000107686
113 *2422:A3 *334:35 9.67842e-05
114 *2606:S *334:62 0.000111148
115 *2631:D *334:41 6.87171e-05
116 *2790:D *334:93 0.000147908
117 *2791:D *2541:S 1.74843e-05
118 *102:8 *334:12 0
119 *104:8 *334:74 0
120 *107:8 *334:76 3.56537e-05
121 *140:10 *334:62 0
122 *155:8 *334:76 5.26204e-05
123 *173:8 *334:121 3.76854e-05
124 *260:8 *334:29 0.000643707
125 *281:14 *334:12 8.16253e-05
126 *281:14 *334:16 0.000399763
127 *282:10 *334:29 1.17256e-05
128 *284:8 *334:35 9.67842e-05
129 *315:14 *334:62 0
130 *323:54 *334:6 0.000603438
131 *323:54 *334:12 9.84851e-05
132 *327:26 *334:6 0.000616669
133 *327:26 *334:12 9.84851e-05
134 *329:36 *334:35 0.000268585
135 *329:38 *334:35 0.000643685
136 *329:38 *334:41 0.000301167
137 *329:38 *334:51 4.79498e-05
138 *329:90 *334:29 6.00764e-05
*RES
1 *2536:Y *334:6 29.815 
2 *334:6 *334:12 26.8071 
3 *334:12 *334:16 44.0207 
4 *334:16 *2538:S 23 
5 *334:12 *334:29 40.2536 
6 *334:29 *334:35 48.9921 
7 *334:35 *334:41 10.1914 
8 *334:41 *334:51 38.3893 
9 *334:51 *2543:S 23 
10 *334:41 *334:62 27.6668 
11 *334:62 *334:66 40.9239 
12 *334:66 *334:74 43.9793 
13 *334:74 *334:76 46.2757 
14 *334:76 *334:80 17.0507 
15 *334:80 *2542:S 23 
16 *334:80 *334:93 40.8279 
17 *334:93 *334:99 32.61 
18 *334:99 *2541:S 45.91 
19 *334:93 *2540:S 23 
20 *334:74 *334:121 39.0729 
21 *334:121 *2544:S 38 
22 *334:66 *2539:S 23 
23 *334:6 *2537:S 23 
*END

*D_NET *335 0.00191228
*CONN
*I *2591:B I *D sky130_fd_sc_hd__nor2_4
*I *2555:B I *D sky130_fd_sc_hd__nor2_4
*I *2582:B I *D sky130_fd_sc_hd__nor2_4
*I *2545:Y O *D sky130_fd_sc_hd__nand2b_2
*CAP
1 *2591:B 0.000292582
2 *2555:B 0
3 *2582:B 0.000131605
4 *2545:Y 0
5 *335:19 0.000426939
6 *335:6 0.000265962
7 *2582:B *337:10 0.000278398
8 *2591:B *341:6 0.000311554
9 *2591:B *341:101 3.70094e-05
10 *335:19 *337:10 9.94675e-05
11 *335:19 *341:101 2.34364e-05
12 *322:31 *2591:B 1.4471e-05
13 *322:31 *335:19 6.07611e-06
14 *322:48 *2582:B 0
15 *322:48 *335:19 0
16 *325:18 *2591:B 2.47815e-05
*RES
1 *2545:Y *335:6 38 
2 *335:6 *2582:B 41.6664 
3 *335:6 *335:19 2.87929 
4 *335:19 *2555:B 38 
5 *335:19 *2591:B 44.1314 
*END

*D_NET *336 0.0413943
*CONN
*I *2547:S I *D sky130_fd_sc_hd__mux2_1
*I *2553:S I *D sky130_fd_sc_hd__mux2_1
*I *2549:S I *D sky130_fd_sc_hd__mux2_1
*I *2552:S I *D sky130_fd_sc_hd__mux2_1
*I *2554:S I *D sky130_fd_sc_hd__mux2_1
*I *2548:S I *D sky130_fd_sc_hd__mux2_1
*I *2551:S I *D sky130_fd_sc_hd__mux2_1
*I *2550:S I *D sky130_fd_sc_hd__mux2_1
*I *2546:Y O *D sky130_fd_sc_hd__nand2b_4
*CAP
1 *2547:S 0
2 *2553:S 9.42126e-06
3 *2549:S 0.00030569
4 *2552:S 0
5 *2554:S 0
6 *2548:S 0
7 *2551:S 0.000495632
8 *2550:S 0
9 *2546:Y 0.000917782
10 *336:92 0.000871695
11 *336:81 0.000979746
12 *336:77 0.00141812
13 *336:71 0.00198839
14 *336:65 0.0029235
15 *336:57 0.00299252
16 *336:51 0.00197728
17 *336:22 0.00148267
18 *336:14 0.00254886
19 *336:10 0.0020994
20 *336:8 0.00305506
21 *336:6 0.000917782
22 *2549:S *2549:A0 5.41385e-05
23 *2549:S *2549:A1 1.32939e-05
24 *2551:S *2551:A1 3.22879e-05
25 *2553:S *2553:A1 5.67058e-05
26 *336:6 *2545:A_N 5.70419e-05
27 *336:6 *2998:A 0.00030373
28 *336:6 *576:10 0.000141954
29 *336:6 *635:24 6.9805e-05
30 *336:6 *636:16 3.12591e-05
31 *336:10 *2574:S 2.33476e-05
32 *336:10 *2824:A 0.000111148
33 *336:10 *342:67 0
34 *336:10 *342:71 0
35 *336:10 *360:10 9.39262e-05
36 *336:10 *360:12 0.000122304
37 *336:10 *367:14 0.000261646
38 *336:10 *376:12 8.30722e-05
39 *336:10 *577:8 0.000102126
40 *336:10 *609:10 6.33511e-05
41 *336:10 *648:127 9.44151e-05
42 *336:14 *342:71 7.98651e-05
43 *336:14 *342:77 0
44 *336:14 *360:12 0.000243578
45 *336:14 *360:14 6.48142e-05
46 *336:14 *360:22 0.000139647
47 *336:14 *394:27 0.000218962
48 *336:14 *464:12 0.000302339
49 *336:22 *2725:CLK 1.94812e-05
50 *336:22 *2804:A 3.3577e-05
51 *336:22 *2954:A 0.000171898
52 *336:22 *342:77 0
53 *336:22 *458:14 5.41385e-05
54 *336:22 *659:112 6.74969e-06
55 *336:22 *661:60 2.31797e-05
56 *336:51 *341:8 0.000531381
57 *336:51 *341:24 0.000709628
58 *336:51 *341:34 1.21972e-05
59 *336:51 *342:67 0
60 *336:51 *666:69 2.4754e-05
61 *336:51 *666:86 1.22822e-05
62 *336:57 *2583:S 0.000215346
63 *336:57 *338:109 2.05503e-05
64 *336:57 *340:73 7.6997e-05
65 *336:57 *358:61 0
66 *336:57 *585:20 2.26406e-05
67 *336:57 *666:28 8.51049e-05
68 *336:65 *2553:A1 5.29672e-05
69 *336:65 *2571:A1 1.32939e-05
70 *336:65 *2589:A0 4.42181e-05
71 *336:65 *2663:CLK 1.73399e-05
72 *336:65 *2905:A 5.99764e-05
73 *336:65 *337:83 0.000554753
74 *336:65 *337:95 0.000696707
75 *336:65 *338:100 5.70419e-05
76 *336:65 *340:83 9.88969e-05
77 *336:65 *359:14 0.000106404
78 *336:65 *653:81 2.29846e-05
79 *336:77 *2502:A0 0.000143518
80 *336:77 *2704:CLK 0
81 *336:77 *353:39 0
82 *336:77 *356:132 0
83 *336:77 *618:10 0.000195248
84 *336:77 *662:21 7.4878e-05
85 *336:77 *662:120 1.62615e-05
86 *336:81 *2554:A0 4.57742e-05
87 *336:81 *2554:A1 1.94693e-05
88 *336:81 *632:26 0.000267173
89 *336:92 *337:122 0.00151463
90 *336:92 *382:33 0
91 *336:92 *600:8 0
92 *336:92 *632:26 0.000136738
93 *336:92 *641:96 0
94 *336:92 *701:8 0
95 *2422:A2 *336:10 0.000164291
96 *2422:A2 *336:51 0.000331074
97 *2663:D *336:65 5.10495e-05
98 *2725:D *336:22 0.000126664
99 *72:8 *336:77 8.05011e-05
100 *88:8 *336:77 0.000354778
101 *109:14 *336:92 0
102 *110:8 *336:57 0
103 *117:8 *336:77 0.000169674
104 *167:8 *336:10 0.000721807
105 *264:20 *336:10 0.00032256
106 *320:10 *336:92 8.62783e-05
107 *327:49 *336:57 0
108 *329:107 *336:10 0.00169026
109 *329:107 *336:14 0.000483867
110 *329:107 *336:22 0.000193702
111 *331:27 *336:65 0.000993227
112 *332:48 *336:71 0.000223225
113 *332:48 *336:77 0.000415518
114 *332:70 *336:77 0.00107938
*RES
1 *2546:Y *336:6 38.3907 
2 *336:6 *336:8 15 
3 *336:8 *336:10 41.6979 
4 *336:10 *336:14 17.6693 
5 *336:14 *336:22 37.2679 
6 *336:22 *2550:S 23 
7 *336:14 *2551:S 46.7207 
8 *336:10 *2548:S 38 
9 *336:8 *336:51 39.8986 
10 *336:51 *336:57 39.3007 
11 *336:57 *336:65 44.2768 
12 *336:65 *336:71 23.0682 
13 *336:71 *336:77 37.1821 
14 *336:77 *336:81 18.0036 
15 *336:81 *2554:S 23 
16 *336:81 *336:92 36.7914 
17 *336:92 *2552:S 38 
18 *336:71 *2549:S 43.5721 
19 *336:65 *2553:S 23.8596 
20 *336:51 *2547:S 23 
*END

*D_NET *337 0.0413476
*CONN
*I *2556:S I *D sky130_fd_sc_hd__mux2_1
*I *2562:S I *D sky130_fd_sc_hd__mux2_1
*I *2558:S I *D sky130_fd_sc_hd__mux2_1
*I *2561:S I *D sky130_fd_sc_hd__mux2_1
*I *2563:S I *D sky130_fd_sc_hd__mux2_1
*I *2557:S I *D sky130_fd_sc_hd__mux2_1
*I *2560:S I *D sky130_fd_sc_hd__mux2_1
*I *2559:S I *D sky130_fd_sc_hd__mux2_1
*I *2555:Y O *D sky130_fd_sc_hd__nor2_4
*CAP
1 *2556:S 0
2 *2562:S 0
3 *2558:S 0
4 *2561:S 0
5 *2563:S 0.0001082
6 *2557:S 0.00010033
7 *2560:S 0
8 *2559:S 0
9 *2555:Y 0.000301233
10 *337:142 0.000680364
11 *337:122 0.00133093
12 *337:107 0.0026644
13 *337:97 0.00171989
14 *337:95 0.00328626
15 *337:83 0.00240115
16 *337:79 0.000830463
17 *337:57 0.000617254
18 *337:42 0.000497308
19 *337:30 0.00245483
20 *337:28 0.0031228
21 *337:26 0.00254064
22 *337:22 0.00140288
23 *337:10 0.00138627
24 *2557:S *2557:A0 5.70419e-05
25 *2563:S *478:35 4.67488e-05
26 *2563:S *651:12 4.93223e-05
27 *337:10 *341:6 4.39607e-05
28 *337:10 *341:101 0.00039238
29 *337:22 *2900:A 0.000226306
30 *337:22 *2998:A 2.24608e-05
31 *337:22 *338:84 0.000152468
32 *337:22 *340:63 0.000382181
33 *337:22 *423:8 0.000305425
34 *337:22 *637:30 7.57281e-06
35 *337:22 *648:127 0.000175903
36 *337:26 *338:145 0.00010847
37 *337:26 *447:8 0
38 *337:26 *666:86 0
39 *337:28 *361:66 0
40 *337:28 *425:10 0
41 *337:28 *447:8 0
42 *337:28 *543:8 0
43 *337:30 *2440:A1 9.00646e-05
44 *337:30 *2991:A 4.31263e-05
45 *337:30 *342:77 0
46 *337:30 *394:10 0
47 *337:30 *450:10 0
48 *337:30 *458:14 0.000113624
49 *337:30 *498:8 0
50 *337:30 *637:90 5.56203e-05
51 *337:30 *645:162 0.000112813
52 *337:30 *645:175 0
53 *337:42 *474:33 0
54 *337:42 *637:90 5.56696e-05
55 *337:42 *637:98 0.000619809
56 *337:42 *639:101 1.28019e-05
57 *337:42 *645:162 5.74556e-05
58 *337:42 *659:112 2.01788e-05
59 *337:57 *341:117 4.95081e-05
60 *337:57 *541:6 0.00010018
61 *337:57 *628:23 0.000614963
62 *337:57 *634:78 0.000561664
63 *337:57 *634:94 0.000535813
64 *337:57 *658:33 1.56762e-05
65 *337:79 *2823:A 0.00010018
66 *337:79 *666:86 0.000185428
67 *337:79 *677:87 0.000241786
68 *337:83 *2809:A 0.000520201
69 *337:83 *345:94 8.43466e-05
70 *337:83 *359:14 0.000165918
71 *337:83 *359:38 4.05745e-05
72 *337:95 *2946:A 0.00010018
73 *337:95 *338:100 0.000774399
74 *337:95 *359:14 0.000367249
75 *337:95 *646:54 8.61094e-06
76 *337:97 *2885:A 0.000144168
77 *337:97 *2950:A 0
78 *337:97 *473:10 3.83778e-05
79 *337:97 *527:8 0.000510859
80 *337:107 *2979:A 0.000123439
81 *337:107 *356:79 7.4878e-05
82 *337:107 *377:12 0.000351626
83 *337:107 *385:14 2.49733e-05
84 *337:107 *454:18 0
85 *337:107 *470:18 0.000112779
86 *337:107 *478:35 7.15126e-05
87 *337:107 *662:48 0
88 *337:122 *2794:CLK 0
89 *337:122 *2899:A 0.000485221
90 *337:122 *346:37 0
91 *337:122 *346:63 0
92 *337:122 *462:12 0
93 *337:122 *468:14 0
94 *337:122 *470:18 9.26005e-05
95 *337:122 *478:35 4.59507e-05
96 *337:122 *641:96 0
97 *337:122 *651:12 9.03784e-05
98 *337:122 *655:100 0.000333239
99 *337:142 *2456:A2 7.59794e-05
100 *337:142 *2562:A0 5.50049e-05
101 *337:142 *357:24 9.26098e-05
102 *337:142 *453:12 0
103 *337:142 *469:10 5.36457e-05
104 *2582:B *337:10 0.000278398
105 *41:10 *337:57 5.41385e-05
106 *65:8 *337:30 0.000159671
107 *87:8 *337:28 8.51432e-05
108 *111:10 *337:28 0
109 *119:8 *337:30 6.68793e-05
110 *126:10 *337:28 0.000114074
111 *126:10 *337:79 9.84794e-05
112 *144:10 *337:97 0
113 *144:10 *337:107 0
114 *148:8 *337:142 5.45887e-05
115 *150:12 *337:79 0.000111822
116 *153:8 *337:30 3.04021e-05
117 *168:8 *337:107 0
118 *280:8 *337:22 0.000254456
119 *297:20 *337:57 0.000265472
120 *299:16 *337:30 0
121 *322:48 *337:10 7.53384e-06
122 *329:44 *337:97 0
123 *329:44 *337:107 0.000358905
124 *329:44 *337:142 0
125 *329:54 *337:107 0
126 *329:54 *337:122 0
127 *331:27 *337:83 0.000222313
128 *332:64 *337:107 0
129 *332:70 *337:122 0
130 *332:72 *337:122 0
131 *332:153 *337:26 0
132 *332:153 *337:28 0
133 *333:24 *337:22 1.03836e-05
134 *333:64 *337:28 0.000279463
135 *333:64 *337:30 0.000189398
136 *335:19 *337:10 9.94675e-05
137 *336:65 *337:83 0.000554753
138 *336:65 *337:95 0.000696707
139 *336:92 *337:122 0.00151463
*RES
1 *2555:Y *337:10 44.8254 
2 *337:10 *337:22 43.0727 
3 *337:22 *337:26 20.7793 
4 *337:26 *337:28 33.2464 
5 *337:28 *337:30 29.3729 
6 *337:30 *337:42 34.5751 
7 *337:42 *2559:S 23 
8 *337:30 *337:57 32.835 
9 *337:57 *2560:S 23 
10 *337:28 *2557:S 40.0507 
11 *337:26 *337:79 41.0821 
12 *337:79 *337:83 26.1029 
13 *337:83 *337:95 43.7904 
14 *337:95 *337:97 11.9418 
15 *337:97 *337:107 42.9643 
16 *337:107 *2563:S 25.0507 
17 *337:107 *337:122 49.7171 
18 *337:122 *2561:S 38 
19 *337:97 *2558:S 38 
20 *337:95 *337:142 28.3296 
21 *337:142 *2562:S 23 
22 *337:83 *2556:S 23 
*END

*D_NET *338 0.0479281
*CONN
*I *2565:S I *D sky130_fd_sc_hd__mux2_1
*I *2567:S I *D sky130_fd_sc_hd__mux2_1
*I *2572:S I *D sky130_fd_sc_hd__mux2_1
*I *2571:S I *D sky130_fd_sc_hd__mux2_1
*I *2566:S I *D sky130_fd_sc_hd__mux2_1
*I *2569:S I *D sky130_fd_sc_hd__mux2_1
*I *2570:S I *D sky130_fd_sc_hd__mux2_1
*I *2568:S I *D sky130_fd_sc_hd__mux2_1
*I *2564:Y O *D sky130_fd_sc_hd__nor2_4
*CAP
1 *2565:S 0
2 *2567:S 0
3 *2572:S 0
4 *2571:S 0
5 *2566:S 0
6 *2569:S 0
7 *2570:S 0
8 *2568:S 5.87767e-05
9 *2564:Y 0.00026381
10 *338:145 0.000174471
11 *338:123 0.00119522
12 *338:117 0.00214231
13 *338:109 0.00232634
14 *338:100 0.00159752
15 *338:90 0.0036934
16 *338:84 0.0025414
17 *338:65 0.000864093
18 *338:44 0.00322825
19 *338:38 0.00245344
20 *338:32 0.000309139
21 *338:28 0.0013041
22 *338:26 0.0012301
23 *338:22 0.00010349
24 *338:18 0.00129205
25 *338:10 0.00318974
26 *2568:S *339:69 5.19667e-05
27 *338:10 *345:167 3.83778e-05
28 *338:10 *745:14 3.29804e-05
29 *338:18 *2427:S1 0.000275473
30 *338:18 *2566:A1 2.82089e-05
31 *338:18 *339:134 0.00036156
32 *338:18 *349:56 8.26312e-05
33 *338:18 *349:58 9.21347e-06
34 *338:18 *440:27 9.62923e-05
35 *338:18 *644:27 8.4047e-05
36 *338:18 *665:12 8.13209e-06
37 *338:18 *665:46 0.000118877
38 *338:18 *665:57 0
39 *338:18 *745:14 0
40 *338:22 *2958:A 5.3304e-05
41 *338:22 *647:122 4.2573e-05
42 *338:26 *2958:A 8.17328e-05
43 *338:26 *432:6 0.000181131
44 *338:26 *647:122 0.000262864
45 *338:28 *339:140 0.00104901
46 *338:28 *345:128 0.000537751
47 *338:28 *584:25 0.000629885
48 *338:28 *657:82 5.94125e-05
49 *338:28 *657:104 0.00144419
50 *338:32 *2569:A1 4.5051e-05
51 *338:32 *2661:CLK 0.0002246
52 *338:38 *347:49 0.000107548
53 *338:38 *347:51 6.4393e-05
54 *338:38 *647:45 0.000122304
55 *338:44 *2439:A1 0.000102093
56 *338:44 *2439:A2 1.70074e-05
57 *338:44 *2439:S1 0.000201317
58 *338:44 *2531:A0 0.00012239
59 *338:44 *2568:A0 5.67058e-05
60 *338:44 *2568:A1 0.000528019
61 *338:44 *2577:A0 0.00014196
62 *338:44 *2717:CLK 0.000181919
63 *338:44 *339:69 0.000156228
64 *338:44 *659:77 7.74585e-05
65 *338:65 *2451:A0 0.000400198
66 *338:65 *2515:A0 2.02872e-05
67 *338:65 *2533:A0 2.02872e-05
68 *338:65 *2570:A1 5.3304e-05
69 *338:65 *354:38 0
70 *338:65 *436:8 9.41704e-05
71 *338:65 *656:32 0.000610659
72 *338:65 *656:44 0.000138718
73 *338:84 *339:14 0.000487818
74 *338:84 *339:18 0.000165684
75 *338:84 *339:134 6.66759e-05
76 *338:84 *340:63 0.000659429
77 *338:90 *339:18 0.000412134
78 *338:90 *340:63 0.000523386
79 *338:100 *2571:A1 2.93845e-05
80 *338:100 *339:18 0.000208609
81 *338:100 *357:8 0
82 *338:109 *2433:A2 9.5031e-05
83 *338:109 *2911:A 4.83778e-05
84 *338:109 *340:73 2.61544e-05
85 *338:109 *345:72 0
86 *338:109 *358:22 0.000135262
87 *338:109 *358:26 0.000264657
88 *338:109 *358:61 0.000111286
89 *338:109 *441:31 0.000161121
90 *338:109 *626:43 0.00019747
91 *338:109 *633:127 0
92 *338:109 *643:12 0
93 *338:109 *663:37 0.000141294
94 *338:109 *663:43 0.000122304
95 *338:117 *2624:CLK 9.88574e-06
96 *338:117 *2911:A 7.20622e-05
97 *338:117 *339:36 0
98 *338:117 *642:74 5.29058e-05
99 *338:117 *663:43 4.6318e-06
100 *338:123 *2624:CLK 1.94812e-05
101 *338:123 *2932:A 6.17437e-06
102 *338:123 *2935:A 9.84794e-05
103 *338:123 *353:95 0.000225265
104 *338:123 *513:10 0.000315857
105 *338:123 *550:10 0.000310653
106 *338:123 *642:74 0.000319945
107 *338:123 *651:29 9.27917e-05
108 *338:145 *666:86 5.67058e-05
109 *338:145 *666:93 2.18409e-05
110 *2515:S *2568:S 1.64402e-05
111 *2515:S *338:65 5.61255e-06
112 *2564:A *338:10 0.000223698
113 *58:8 *338:28 0.000166513
114 *79:8 *338:18 0.000110922
115 *138:12 *338:38 0.000111852
116 *298:12 *338:44 5.67058e-05
117 *323:16 *338:10 0
118 *323:16 *338:18 0.000278908
119 *323:114 *338:100 4.35681e-06
120 *325:34 *338:18 0.000513783
121 *331:48 *338:18 0.00200457
122 *331:68 *338:117 0.000163334
123 *332:153 *338:145 0.000106128
124 *333:122 *338:44 0.000201618
125 *334:74 *338:123 0.000404047
126 *336:57 *338:109 2.05503e-05
127 *336:65 *338:100 5.70419e-05
128 *337:22 *338:84 0.000152468
129 *337:26 *338:145 0.00010847
130 *337:95 *338:100 0.000774399
*RES
1 *2564:Y *338:10 42.2568 
2 *338:10 *338:18 38.3318 
3 *338:18 *338:22 15.6214 
4 *338:22 *338:26 18.0036 
5 *338:26 *338:28 37.12 
6 *338:28 *338:32 18.48 
7 *338:32 *338:38 34.7229 
8 *338:38 *338:44 38.425 
9 *338:44 *2568:S 24.9471 
10 *338:44 *338:65 45.9086 
11 *338:65 *2570:S 23 
12 *338:32 *2569:S 23 
13 *338:22 *2566:S 23 
14 *338:10 *338:84 13.3797 
15 *338:84 *338:90 2.78507 
16 *338:90 *338:100 28.2531 
17 *338:100 *2571:S 23 
18 *338:90 *338:109 38.6054 
19 *338:109 *338:117 31.4886 
20 *338:117 *338:123 41.535 
21 *338:123 *2572:S 38 
22 *338:109 *2567:S 38 
23 *338:84 *338:145 27.2361 
24 *338:145 *2565:S 23 
*END

*D_NET *339 0.0476436
*CONN
*I *2575:S I *D sky130_fd_sc_hd__mux2_1
*I *2578:S I *D sky130_fd_sc_hd__mux2_1
*I *2574:S I *D sky130_fd_sc_hd__mux2_1
*I *2580:S I *D sky130_fd_sc_hd__mux2_1
*I *2576:S I *D sky130_fd_sc_hd__mux2_1
*I *2581:S I *D sky130_fd_sc_hd__mux2_1
*I *2577:S I *D sky130_fd_sc_hd__mux2_1
*I *2579:S I *D sky130_fd_sc_hd__mux2_1
*I *2573:X O *D sky130_fd_sc_hd__or3b_4
*CAP
1 *2575:S 0.000381305
2 *2578:S 0
3 *2574:S 1.02029e-05
4 *2580:S 0
5 *2576:S 0.000271167
6 *2581:S 5.5909e-05
7 *2577:S 0
8 *2579:S 7.11633e-05
9 *2573:X 1.80505e-05
10 *339:140 0.00162727
11 *339:134 0.00486285
12 *339:110 0.00120631
13 *339:69 0.00155838
14 *339:44 0.0026835
15 *339:40 0.00202778
16 *339:36 0.00208045
17 *339:32 0.00246742
18 *339:18 0.00387955
19 *339:14 0.00281794
20 *339:12 0.0045078
21 *339:8 0.000503358
22 *2575:S *2958:A 5.3304e-05
23 *2575:S *551:38 0.000474256
24 *2575:S *633:18 3.87221e-06
25 *2575:S *642:33 2.81221e-05
26 *2575:S *685:10 1.94812e-05
27 *2576:S *2576:A1 0.000263652
28 *2576:S *361:26 0
29 *2576:S *441:31 9.61128e-05
30 *2581:S *2581:A0 2.64616e-05
31 *2581:S *641:127 5.01986e-05
32 *2581:S *645:72 5.3304e-05
33 *339:8 *635:14 5.50049e-05
34 *339:12 *350:19 6.25829e-05
35 *339:12 *350:30 0.000225275
36 *339:12 *350:43 0.000191148
37 *339:32 *358:26 0
38 *339:32 *508:8 0.000162422
39 *339:32 *637:121 8.23953e-05
40 *339:32 *639:143 9.60606e-05
41 *339:32 *663:16 0.000176814
42 *339:32 *663:33 0.000407218
43 *339:36 *358:26 0
44 *339:36 *634:115 0
45 *339:36 *637:121 0.0017307
46 *339:36 *663:37 0
47 *339:36 *663:43 0
48 *339:36 *669:56 0
49 *339:40 *2581:A0 3.28609e-05
50 *339:40 *2680:CLK 0.000130353
51 *339:40 *2908:A 0.000113708
52 *339:40 *355:90 3.17516e-05
53 *339:40 *374:6 1.16622e-05
54 *339:40 *645:72 0.000178517
55 *339:44 *2452:A1 0
56 *339:44 *2880:A 5.3365e-05
57 *339:44 *2883:A 2.60152e-05
58 *339:44 *2937:A 0
59 *339:44 *396:14 0
60 *339:44 *502:8 0.000166532
61 *339:44 *633:50 4.48731e-05
62 *339:44 *641:42 0
63 *339:44 *641:127 0.000166532
64 *339:44 *645:48 0.00021263
65 *339:44 *645:55 0.000209739
66 *339:44 *645:68 0.000645624
67 *339:69 *2451:A0 1.76557e-05
68 *339:69 *2451:S0 3.5638e-05
69 *339:69 *2515:A0 2.9938e-05
70 *339:69 *2568:A1 0.000528019
71 *339:69 *436:22 2.22827e-05
72 *339:69 *656:44 0.000196316
73 *339:110 *2457:S0 3.27248e-05
74 *339:110 *2915:A 6.53382e-05
75 *339:110 *341:42 9.5877e-05
76 *339:110 *373:12 5.41385e-05
77 *339:110 *437:20 1.01712e-05
78 *339:110 *639:143 0.000170502
79 *339:110 *644:59 5.41385e-05
80 *339:110 *646:82 9.00587e-05
81 *339:110 *666:45 0.000323803
82 *339:110 *700:10 0.000181125
83 *339:134 *665:74 0.000104531
84 *339:140 *345:128 0
85 *339:140 *432:14 0.000112241
86 *339:140 *551:38 0.000227763
87 *339:140 *584:25 0.000817221
88 *339:140 *596:10 0.000347536
89 *339:140 *617:10 0.000296026
90 *339:140 *647:67 0
91 *339:140 *647:78 0
92 *339:140 *691:10 0.000396795
93 *339:140 *705:20 6.70363e-05
94 *2454:A0 *339:44 0
95 *2484:S *339:140 0.000136718
96 *2515:S *339:69 0.000136738
97 *2568:S *339:69 5.19667e-05
98 *2680:D *339:40 7.10068e-06
99 *49:8 *339:36 0
100 *59:8 *339:44 0.000169683
101 *64:8 *339:32 0.000140949
102 *128:8 *339:36 8.51329e-05
103 *136:10 *2576:S 0.000140259
104 *136:10 *339:36 9.28842e-05
105 *163:8 *339:44 0
106 *252:12 *339:12 0.00010403
107 *252:36 *339:8 2.93747e-05
108 *264:18 *2575:S 0
109 *264:18 *339:140 0
110 *264:20 *2574:S 1.05658e-05
111 *292:18 *339:32 0.000120202
112 *305:12 *339:140 0.000230599
113 *308:8 *2579:S 3.7122e-06
114 *308:8 *339:69 5.99401e-05
115 *310:28 *339:44 0.000350702
116 *313:10 *339:110 6.09239e-05
117 *320:26 *2581:S 5.94125e-05
118 *320:26 *339:44 8.62783e-05
119 *321:10 *339:36 2.5415e-05
120 *323:130 *339:44 0
121 *325:34 *339:134 0.000102328
122 *325:34 *339:140 6.61261e-05
123 *326:41 *339:12 0.000163508
124 *327:49 *339:32 8.54958e-05
125 *327:49 *339:110 0
126 *327:99 *339:134 0.0001604
127 *330:10 *339:12 0.000201033
128 *330:12 *339:12 0.000116726
129 *331:48 *339:134 0.000103966
130 *331:100 *2575:S 2.05503e-05
131 *336:10 *2574:S 2.33476e-05
132 *338:18 *339:134 0.00036156
133 *338:28 *339:140 0.00104901
134 *338:44 *339:69 0.000156228
135 *338:84 *339:14 0.000487818
136 *338:84 *339:18 0.000165684
137 *338:84 *339:134 6.66759e-05
138 *338:90 *339:18 0.000412134
139 *338:100 *339:18 0.000208609
140 *338:117 *339:36 0
*RES
1 *2573:X *339:8 38.6214 
2 *339:8 *339:12 21.7025 
3 *339:12 *339:14 3.49067 
4 *339:14 *339:18 12.7787 
5 *339:18 *339:32 24.4739 
6 *339:32 *339:36 43.6686 
7 *339:36 *339:40 28.0086 
8 *339:40 *339:44 42.6121 
9 *339:44 *2579:S 24.0979 
10 *339:44 *339:69 28.1921 
11 *339:69 *2577:S 23 
12 *339:40 *2581:S 39.4707 
13 *339:32 *2576:S 43.8829 
14 *339:18 *339:110 38.3139 
15 *339:110 *2580:S 23 
16 *339:14 *2574:S 46.3211 
17 *339:12 *339:134 22.6771 
18 *339:134 *339:140 48.2035 
19 *339:140 *2578:S 38 
20 *339:134 *2575:S 47.9001 
*END

*D_NET *340 0.038089
*CONN
*I *2583:S I *D sky130_fd_sc_hd__mux2_1
*I *2585:S I *D sky130_fd_sc_hd__mux2_1
*I *2588:S I *D sky130_fd_sc_hd__mux2_1
*I *2590:S I *D sky130_fd_sc_hd__mux2_1
*I *2589:S I *D sky130_fd_sc_hd__mux2_1
*I *2584:S I *D sky130_fd_sc_hd__mux2_1
*I *2587:S I *D sky130_fd_sc_hd__mux2_1
*I *2586:S I *D sky130_fd_sc_hd__mux2_1
*I *2582:Y O *D sky130_fd_sc_hd__nor2_4
*CAP
1 *2583:S 0.000229924
2 *2585:S 4.46751e-05
3 *2588:S 0
4 *2590:S 6.52548e-05
5 *2589:S 0
6 *2584:S 3.43129e-05
7 *2587:S 0
8 *2586:S 0.00040334
9 *2582:Y 0.000207962
10 *340:131 0.00108079
11 *340:110 0.00259655
12 *340:100 0.00194157
13 *340:83 0.000390154
14 *340:73 0.00286622
15 *340:63 0.0038425
16 *340:45 0.000746974
17 *340:24 0.00256522
18 *340:16 0.0027452
19 *340:10 0.00308683
20 *2583:S *341:24 9.5877e-05
21 *2583:S *463:10 0.00050932
22 *2583:S *633:127 2.8314e-06
23 *2583:S *666:28 8.51049e-05
24 *2583:S *666:60 3.95363e-05
25 *2584:S *2584:A0 2.4754e-05
26 *2584:S *345:12 8.43466e-05
27 *2585:S *2585:A0 0.000184407
28 *2585:S *626:24 0.000184407
29 *2586:S *2907:A 1.01436e-05
30 *2586:S *2913:A 0.000352027
31 *2586:S *459:10 0.000234382
32 *2586:S *634:74 8.80821e-05
33 *2586:S *658:33 7.13673e-05
34 *2586:S *699:6 9.84851e-05
35 *2590:S *2590:A0 0.000142173
36 *2590:S *2590:A1 4.65096e-05
37 *2590:S *632:26 0.000227476
38 *2590:S *651:29 6.17437e-06
39 *340:10 *2657:CLK 0.000390685
40 *340:10 *648:111 7.30696e-05
41 *340:16 *2501:A0 7.76364e-06
42 *340:16 *345:12 0.000139352
43 *340:16 *361:10 0.000673477
44 *340:16 *531:10 4.08537e-05
45 *340:16 *637:26 3.95159e-06
46 *340:16 *648:111 0.000692019
47 *340:16 *664:43 0.000125013
48 *340:16 *664:54 0.000120807
49 *340:24 *2424:A0 0.000105965
50 *340:24 *2931:A 3.14214e-05
51 *340:24 *2990:A 0
52 *340:24 *341:105 0
53 *340:24 *345:12 1.3822e-05
54 *340:24 *348:46 9.64022e-05
55 *340:24 *361:10 8.10336e-05
56 *340:24 *456:10 0
57 *340:24 *459:10 0.000111852
58 *340:24 *551:38 0.000152208
59 *340:24 *613:10 2.09183e-05
60 *340:24 *658:33 0.000115519
61 *340:24 *664:10 0
62 *340:45 *2587:A1 3.22879e-05
63 *340:45 *347:10 0.000359854
64 *340:45 *347:12 7.15126e-05
65 *340:45 *475:23 1.40958e-05
66 *340:45 *613:10 5.67058e-05
67 *340:63 *585:20 0
68 *340:73 *2516:A0 1.76557e-05
69 *340:73 *2806:A 0.000100488
70 *340:73 *345:76 0.000417628
71 *340:73 *356:10 0.000279201
72 *340:73 *633:127 7.18722e-05
73 *340:73 *654:74 0.000522809
74 *340:83 *2589:A0 0.000100803
75 *340:83 *356:10 2.64616e-05
76 *340:83 *643:89 0.00016401
77 *340:83 *653:81 2.62931e-05
78 *340:100 *2994:A 0.000211512
79 *340:100 *341:59 0
80 *340:100 *342:30 0
81 *340:100 *449:8 0.000138718
82 *340:100 *457:10 8.20688e-05
83 *340:100 *528:8 1.94522e-05
84 *340:100 *571:8 0.000138727
85 *340:100 *646:27 9.1467e-05
86 *340:100 *646:42 0.000300018
87 *340:110 *2599:A1 2.3007e-05
88 *340:110 *2923:A 0.000179702
89 *340:110 *342:42 0
90 *340:110 *422:20 9.33529e-06
91 *340:110 *470:18 0
92 *340:110 *481:10 0.000166513
93 *340:110 *489:10 0.000115519
94 *340:110 *510:8 6.15872e-05
95 *340:110 *512:10 8.50366e-05
96 *340:110 *571:8 3.47781e-05
97 *340:110 *646:27 0.000282567
98 *340:110 *651:23 9.67134e-05
99 *340:110 *651:29 0.000156232
100 *340:110 *662:61 0
101 *340:131 *2616:A1 7.34394e-06
102 *340:131 *2890:A 0.000216721
103 *340:131 *2917:A 0
104 *340:131 *346:12 6.67764e-05
105 *340:131 *346:14 5.70112e-05
106 *340:131 *346:33 2.64616e-05
107 *340:131 *353:22 8.92944e-05
108 *340:131 *353:95 0.000154926
109 *340:131 *486:25 0.000270393
110 *340:131 *510:8 5.44889e-06
111 *340:131 *598:8 0.000164019
112 *340:131 *641:96 0
113 *340:131 *645:87 0.000327903
114 *340:131 *651:29 6.48142e-05
115 *340:131 *651:44 0.000178632
116 *340:131 *655:83 2.93845e-05
117 *340:131 *702:8 8.62876e-05
118 *2657:D *340:10 0.000137651
119 *94:10 *340:10 2.05503e-05
120 *94:10 *340:16 0.000355818
121 *103:10 *340:16 0.000343054
122 *143:8 *340:24 8.92168e-05
123 *146:10 *340:45 9.58714e-05
124 *151:8 *340:24 0
125 *152:8 *340:100 0.000178853
126 *281:14 *340:10 7.32852e-07
127 *281:14 *340:16 2.92149e-05
128 *331:56 *2584:S 0.000139357
129 *331:56 *340:16 0.000137651
130 *333:24 *340:10 4.75206e-05
131 *334:16 *340:16 0
132 *334:74 *340:110 0
133 *334:76 *340:131 0
134 *336:57 *2583:S 0.000215346
135 *336:57 *340:73 7.6997e-05
136 *336:65 *340:83 9.88969e-05
137 *337:22 *340:63 0.000382181
138 *338:84 *340:63 0.000659429
139 *338:90 *340:63 0.000523386
140 *338:109 *340:73 2.61544e-05
*RES
1 *2582:Y *340:10 43.4582 
2 *340:10 *340:16 49.2925 
3 *340:16 *340:24 43.7307 
4 *340:24 *2586:S 48.7714 
5 *340:24 *340:45 28.5057 
6 *340:45 *2587:S 23 
7 *340:16 *2584:S 24.5743 
8 *340:10 *340:63 20.6069 
9 *340:63 *340:73 49.1682 
10 *340:73 *340:83 37.3121 
11 *340:83 *2589:S 23 
12 *340:73 *340:100 28.2986 
13 *340:100 *340:110 29.8493 
14 *340:110 *2590:S 40.5271 
15 *340:110 *340:131 40.085 
16 *340:131 *2588:S 23 
17 *340:100 *2585:S 40.0507 
18 *340:63 *2583:S 46.1096 
*END

*D_NET *341 0.0382066
*CONN
*I *2593:S I *D sky130_fd_sc_hd__mux2_1
*I *2596:S I *D sky130_fd_sc_hd__mux2_1
*I *2595:S I *D sky130_fd_sc_hd__mux2_1
*I *2592:S I *D sky130_fd_sc_hd__mux2_1
*I *2594:S I *D sky130_fd_sc_hd__mux2_1
*I *2599:S I *D sky130_fd_sc_hd__mux2_1
*I *2597:S I *D sky130_fd_sc_hd__mux2_1
*I *2598:S I *D sky130_fd_sc_hd__mux2_1
*I *2591:Y O *D sky130_fd_sc_hd__nor2_4
*CAP
1 *2593:S 0.000115278
2 *2596:S 0.000297915
3 *2595:S 2.77218e-05
4 *2592:S 0
5 *2594:S 0
6 *2599:S 5.74204e-05
7 *2597:S 0
8 *2598:S 0.00010682
9 *2591:Y 0.000128701
10 *341:117 0.000425244
11 *341:105 0.00198235
12 *341:103 0.00348633
13 *341:101 0.00244719
14 *341:67 0.00147677
15 *341:59 0.0025719
16 *341:53 0.00132127
17 *341:42 0.000834996
18 *341:34 0.00126325
19 *341:24 0.00120093
20 *341:8 0.00144791
21 *341:6 0.00155736
22 *2593:S *2593:A1 9.5877e-05
23 *2595:S *2913:A 2.64616e-05
24 *2595:S *699:6 5.3304e-05
25 *2596:S *2596:A0 9.84851e-05
26 *2596:S *2596:A1 0.000161408
27 *2596:S *347:34 5.89013e-05
28 *2596:S *628:23 0
29 *2596:S *658:10 4.36207e-05
30 *2596:S *669:40 0.000182832
31 *2596:S *678:12 4.79544e-05
32 *2598:S *2753:CLK 5.50049e-05
33 *2599:S *2754:CLK 0.000182826
34 *2599:S *618:31 6.69899e-05
35 *341:8 *2875:A 8.63919e-05
36 *341:8 *666:86 0.000126114
37 *341:24 *359:66 2.30917e-05
38 *341:24 *643:126 5.3813e-05
39 *341:24 *666:60 7.75141e-05
40 *341:24 *666:69 0.000433252
41 *341:24 *666:86 5.67058e-05
42 *341:34 *2933:A 9.5877e-05
43 *341:34 *2986:A 0.000371269
44 *341:34 *437:12 0.000398503
45 *341:34 *437:20 0
46 *341:34 *445:6 0.000269775
47 *341:34 *564:8 0.000288696
48 *341:34 *666:30 6.68822e-05
49 *341:34 *666:45 0.000441076
50 *341:34 *666:60 6.17437e-06
51 *341:42 *2580:A0 5.3304e-05
52 *341:53 *342:30 0.000838674
53 *341:59 *2994:A 3.71198e-05
54 *341:59 *342:30 0.00027141
55 *341:59 *353:128 0
56 *341:59 *489:10 3.21823e-05
57 *341:59 *571:8 0
58 *341:59 *612:8 5.45887e-05
59 *341:59 *646:16 0
60 *341:59 *652:22 0
61 *341:59 *662:61 0.000505746
62 *341:67 *2485:A1 0
63 *341:67 *345:60 0.000273623
64 *341:67 *353:106 0
65 *341:67 *525:10 3.70187e-05
66 *341:67 *550:10 0.000144894
67 *341:67 *655:62 1.58805e-05
68 *341:67 *655:75 0
69 *341:67 *655:112 0
70 *341:101 *576:10 0.00028644
71 *341:101 *666:119 2.29192e-05
72 *341:103 *2626:CLK 0.000249909
73 *341:103 *2990:A 0.000188386
74 *341:103 *345:12 0
75 *341:103 *349:14 0.000190877
76 *341:103 *349:16 0.000620108
77 *341:103 *360:39 0.000236962
78 *341:103 *456:10 1.38338e-05
79 *341:103 *488:35 0
80 *341:103 *509:10 6.16531e-05
81 *341:103 *565:8 0
82 *341:103 *637:26 0
83 *341:103 *642:37 0
84 *341:103 *642:41 0
85 *341:105 *2444:S0 0
86 *341:105 *347:34 0.000111684
87 *341:105 *347:158 0
88 *341:105 *360:39 0.000169683
89 *341:105 *459:10 0
90 *341:105 *475:23 0
91 *341:105 *509:10 0.000114083
92 *341:105 *538:10 0
93 *341:105 *613:10 0.000104536
94 *341:105 *642:41 0
95 *341:105 *658:10 1.27424e-05
96 *341:117 *2907:A 0.000141052
97 *341:117 *342:77 0.000163352
98 *341:117 *347:34 1.02561e-05
99 *341:117 *541:6 1.22822e-05
100 *341:117 *634:78 0.000572401
101 *341:117 *634:94 0.000356724
102 *341:117 *637:86 0.00116803
103 *2583:S *341:24 9.5877e-05
104 *2591:B *341:6 0.000311554
105 *2591:B *341:101 3.70094e-05
106 *50:8 *341:105 0.000194318
107 *51:8 *341:67 7.03869e-05
108 *133:8 *341:67 5.56203e-05
109 *140:10 *341:42 2.30292e-05
110 *141:10 *341:67 0
111 *151:8 *341:105 1.34354e-05
112 *154:8 *2596:S 8.16253e-05
113 *159:8 *341:103 0
114 *312:6 *341:34 9.61128e-05
115 *313:10 *341:42 6.17437e-06
116 *322:48 *341:6 0.000140259
117 *322:48 *341:101 0
118 *323:112 *341:34 0.000215791
119 *323:130 *341:67 0
120 *325:18 *341:6 3.7122e-06
121 *329:107 *341:117 0
122 *333:12 *341:101 9.54446e-06
123 *333:12 *341:103 0
124 *334:62 *341:53 9.0775e-05
125 *334:66 *341:53 0.000669818
126 *334:66 *341:59 0.00126672
127 *334:74 *341:59 0.000278033
128 *334:74 *341:67 0.000329127
129 *334:76 *341:67 0.000668796
130 *335:19 *341:101 2.34364e-05
131 *336:51 *341:8 0.000531381
132 *336:51 *341:24 0.000709628
133 *336:51 *341:34 1.21972e-05
134 *337:10 *341:6 4.39607e-05
135 *337:10 *341:101 0.00039238
136 *337:57 *341:117 4.95081e-05
137 *339:110 *341:42 9.5877e-05
138 *340:24 *341:105 0
139 *340:100 *341:59 0
*RES
1 *2591:Y *341:6 26.9564 
2 *341:6 *341:8 21.5843 
3 *341:8 *341:24 41.5586 
4 *341:24 *341:34 38.2829 
5 *341:34 *341:42 22.9336 
6 *341:42 *2598:S 24.5743 
7 *341:42 *341:53 26.4136 
8 *341:53 *341:59 29.0829 
9 *341:59 *341:67 35.3386 
10 *341:67 *2597:S 38 
11 *341:59 *2599:S 40.0507 
12 *341:53 *2594:S 38 
13 *341:8 *2592:S 23 
14 *341:6 *341:101 24.0418 
15 *341:101 *341:103 40.4654 
16 *341:103 *341:105 24.6189 
17 *341:105 *341:117 46.2089 
18 *341:117 *2595:S 38.6214 
19 *341:105 *2596:S 46.0061 
20 *341:103 *2593:S 40.0714 
*END

*D_NET *342 0.050459
*CONN
*I *2609:S I *D sky130_fd_sc_hd__mux2_1
*I *2610:S I *D sky130_fd_sc_hd__mux2_1
*I *2613:S I *D sky130_fd_sc_hd__mux2_1
*I *2612:S I *D sky130_fd_sc_hd__mux2_1
*I *2614:S I *D sky130_fd_sc_hd__mux2_1
*I *2615:S I *D sky130_fd_sc_hd__mux2_1
*I *2611:S I *D sky130_fd_sc_hd__mux2_1
*I *2616:S I *D sky130_fd_sc_hd__mux2_1
*I *2608:Y O *D sky130_fd_sc_hd__nor2_4
*CAP
1 *2609:S 0.000227706
2 *2610:S 0.000169587
3 *2613:S 0
4 *2612:S 0
5 *2614:S 0.00084259
6 *2615:S 2.32701e-05
7 *2611:S 0
8 *2616:S 0
9 *2608:Y 7.39761e-05
10 *342:117 0.000453195
11 *342:101 0.00183831
12 *342:83 0.00143526
13 *342:77 0.00261492
14 *342:71 0.0026706
15 *342:67 0.0032929
16 *342:65 0.0021749
17 *342:42 0.00150308
18 *342:36 0.00227424
19 *342:30 0.00192145
20 *342:26 0.00456821
21 *342:20 0.00382141
22 *342:16 0.00145914
23 *342:8 0.000878649
24 *2609:S *2421:A1 0
25 *2609:S *2609:A1 0.000140958
26 *2609:S *2929:A 0
27 *2609:S *383:25 3.7473e-07
28 *2609:S *519:8 0
29 *2609:S *667:14 0.000245294
30 *2610:S *2610:A0 9.84851e-05
31 *2614:S *2668:CLK 9.84851e-05
32 *2615:S *646:166 5.3304e-05
33 *2615:S *653:112 5.3304e-05
34 *342:16 *2421:A1 0
35 *342:16 *383:25 2.50994e-05
36 *342:26 *357:119 3.76118e-05
37 *342:26 *643:178 0.000194
38 *342:26 *653:112 0.000113661
39 *342:30 *2994:A 4.4382e-05
40 *342:30 *357:16 9.03784e-05
41 *342:30 *357:71 0.000111852
42 *342:30 *357:84 0.000247678
43 *342:30 *357:95 0.000432772
44 *342:30 *357:106 0.000219882
45 *342:30 *357:119 0.00042646
46 *342:30 *457:10 2.49733e-05
47 *342:30 *528:8 0.000171906
48 *342:30 *643:178 0
49 *342:30 *646:42 0
50 *342:30 *653:81 0
51 *342:36 *2432:S0 3.04284e-05
52 *342:36 *2951:A 9.17998e-05
53 *342:36 *643:58 0.000505755
54 *342:36 *643:89 7.39034e-05
55 *342:36 *662:48 3.76761e-05
56 *342:42 *2616:A0 9.88259e-05
57 *342:42 *377:27 0.000136486
58 *342:42 *454:31 6.48356e-05
59 *342:42 *470:18 3.3123e-05
60 *342:42 *494:37 0.000251554
61 *342:42 *643:58 0.000274553
62 *342:42 *645:87 2.31687e-05
63 *342:42 *645:95 0.000620108
64 *342:42 *645:101 4.77263e-05
65 *342:42 *651:44 0
66 *342:42 *651:59 0.000186606
67 *342:67 *367:14 2.61636e-05
68 *342:67 *376:12 0.000697172
69 *342:67 *439:8 0.000110922
70 *342:67 *535:8 0
71 *342:67 *577:8 0.000544824
72 *342:67 *639:34 0
73 *342:67 *667:24 0.00027578
74 *342:71 *2440:A1 0
75 *342:71 *2824:A 0.000107548
76 *342:71 *2991:A 0
77 *342:71 *360:10 9.17704e-05
78 *342:71 *360:12 0.000238625
79 *342:71 *360:14 2.84912e-05
80 *342:71 *360:22 6.79006e-05
81 *342:71 *394:27 6.71749e-05
82 *342:71 *498:8 9.99686e-05
83 *342:71 *543:8 0.000354788
84 *342:77 *2439:A1 0.000248152
85 *342:77 *2440:A1 0
86 *342:77 *2992:A 0.000139647
87 *342:77 *370:10 0.00014411
88 *342:77 *394:10 0
89 *342:77 *394:27 2.62361e-05
90 *342:77 *569:8 0.000122247
91 *342:77 *637:90 0
92 *342:77 *650:42 0.000119751
93 *342:77 *659:77 0.000116331
94 *342:77 *661:31 0.000190931
95 *342:83 *2612:A0 5.41385e-05
96 *342:101 *2441:A2 0.000442566
97 *342:101 *2891:A 0.000166522
98 *342:101 *573:18 0.000119467
99 *342:101 *645:151 5.0135e-05
100 *342:101 *659:8 2.64616e-05
101 *342:117 *2613:A0 9.84851e-05
102 *342:117 *657:44 6.51763e-05
103 *342:117 *659:77 5.41385e-05
104 *2422:A2 *342:67 0
105 *2513:S *342:77 0
106 *2513:S *342:83 0
107 *2606:S *342:30 0
108 *2668:D *342:101 0.000104433
109 *41:10 *342:77 0.000353849
110 *52:8 *342:30 0
111 *71:8 *342:67 0.000181585
112 *81:10 *342:117 0.000118143
113 *102:8 *342:16 6.07611e-06
114 *134:8 *342:67 2.49592e-05
115 *144:10 *342:36 0.000290615
116 *145:8 *342:77 5.56203e-05
117 *149:10 *342:42 0.000167443
118 *167:8 *342:67 0.000108487
119 *167:8 *342:71 3.24466e-05
120 *264:20 *342:67 0
121 *282:10 *342:67 9.39977e-05
122 *284:12 *342:67 0.000285787
123 *292:12 *342:36 1.43557e-05
124 *297:20 *342:77 0
125 *299:16 *342:77 0
126 *300:8 *342:101 1.46455e-06
127 *322:18 *342:8 3.31683e-05
128 *323:54 *342:16 0.00103759
129 *323:96 *342:26 0.000389948
130 *325:65 *342:8 0.000138718
131 *326:29 *342:8 0
132 *329:90 *342:67 0
133 *329:107 *342:77 0
134 *329:111 *342:117 0.000227208
135 *329:145 *342:117 0.00112976
136 *332:28 *342:26 0.000170252
137 *332:42 *342:26 0.000128607
138 *332:105 *342:83 0.000702825
139 *333:58 *2610:S 0.000392386
140 *334:12 *342:16 1.86973e-05
141 *334:29 *342:67 0.000213137
142 *334:62 *342:30 0.000237776
143 *336:10 *342:67 0
144 *336:10 *342:71 0
145 *336:14 *342:71 7.98651e-05
146 *336:14 *342:77 0
147 *336:22 *342:77 0
148 *336:51 *342:67 0
149 *337:30 *342:77 0
150 *340:100 *342:30 0
151 *340:110 *342:42 0
152 *341:53 *342:30 0.000838674
153 *341:59 *342:30 0.00027141
154 *341:117 *342:77 0.000163352
*RES
1 *2608:Y *342:8 39.9057 
2 *342:8 *342:16 42.9568 
3 *342:16 *342:20 9.00053 
4 *342:20 *342:26 16.7148 
5 *342:26 *342:30 46.8379 
6 *342:30 *342:36 28.7543 
7 *342:36 *342:42 48.3086 
8 *342:42 *2616:S 23 
9 *342:36 *2611:S 38 
10 *342:26 *2615:S 38.6214 
11 *342:20 *342:65 8 
12 *342:65 *342:67 48.2125 
13 *342:67 *342:71 22.5475 
14 *342:71 *342:77 38.6425 
15 *342:77 *342:83 25.3779 
16 *342:83 *342:101 49.6579 
17 *342:101 *2614:S 38.8671 
18 *342:83 *2612:S 23 
19 *342:77 *342:117 30.3907 
20 *342:117 *2613:S 23 
21 *342:67 *2610:S 42.4329 
22 *342:16 *2609:S 43.2511 
*END

*D_NET *343 0.000812491
*CONN
*I *2730:D I *D sky130_fd_sc_hd__dfstp_1
*I *2363:Y O *D sky130_fd_sc_hd__a21oi_1
*CAP
1 *2730:D 0
2 *2363:Y 0.000238923
3 *343:10 0.000238923
4 *343:10 *669:10 0.000141879
5 *231:10 *343:10 7.03766e-05
6 *232:12 *343:10 0.00012239
*RES
1 *2363:Y *343:10 42.4329 
2 *343:10 *2730:D 38 
*END

*D_NET *344 0.00074753
*CONN
*I *2741:D I *D sky130_fd_sc_hd__dfrtp_1
*I *2329:X O *D sky130_fd_sc_hd__and2_1
*CAP
1 *2741:D 0
2 *2329:X 0.000297192
3 *344:10 0.000297192
4 *177:10 *344:10 0.000153145
*RES
1 *2329:X *344:10 42.9093 
2 *344:10 *2741:D 38 
*END

*D_NET *345 0.0443008
*CONN
*I *2802:A I *D sky130_fd_sc_hd__clkbuf_8
*I *2801:A I *D sky130_fd_sc_hd__clkbuf_8
*I *2800:A I *D sky130_fd_sc_hd__clkbuf_8
*I *2799:A I *D sky130_fd_sc_hd__clkbuf_8
*I *2798:A I *D sky130_fd_sc_hd__clkbuf_8
*I *2797:A I *D sky130_fd_sc_hd__clkbuf_8
*I *2811:A I *D sky130_fd_sc_hd__clkbuf_8
*I *2810:A I *D sky130_fd_sc_hd__clkbuf_8
*I *2808:A I *D sky130_fd_sc_hd__clkbuf_8
*I *2809:A I *D sky130_fd_sc_hd__clkbuf_8
*I *2807:A I *D sky130_fd_sc_hd__clkbuf_8
*I *2806:A I *D sky130_fd_sc_hd__clkbuf_8
*I *2796:A I *D sky130_fd_sc_hd__clkbuf_8
*I *2803:A I *D sky130_fd_sc_hd__clkbuf_8
*I *2805:A I *D sky130_fd_sc_hd__clkbuf_8
*I *2804:A I *D sky130_fd_sc_hd__clkbuf_8
*I *2795:X O *D sky130_fd_sc_hd__clkbuf_16
*CAP
1 *2802:A 0
2 *2801:A 0.000185173
3 *2800:A 0
4 *2799:A 0
5 *2798:A 0.000858282
6 *2797:A 0.000133671
7 *2811:A 0
8 *2810:A 0
9 *2808:A 0
10 *2809:A 0.000128823
11 *2807:A 0
12 *2806:A 0.000249194
13 *2796:A 0
14 *2803:A 0
15 *2805:A 7.27021e-05
16 *2804:A 0.000325107
17 *2795:X 0
18 *345:191 0.000359399
19 *345:174 0.002623
20 *345:167 8.86294e-05
21 *345:161 0.00253018
22 *345:152 0.00137275
23 *345:128 0.0020137
24 *345:126 0.00261088
25 *345:117 0.000146772
26 *345:94 0.000283221
27 *345:76 0.00150753
28 *345:72 0.00259662
29 *345:60 0.000207269
30 *345:52 0.00200497
31 *345:24 0.000461056
32 *345:22 0.00284236
33 *345:20 0.00306357
34 *345:14 0.000960067
35 *345:12 0.000581891
36 *345:4 0.000952825
37 *2797:A *642:41 0
38 *2797:A *657:104 0.000299178
39 *2798:A *2446:A2 1.69977e-05
40 *2798:A *347:158 6.17437e-06
41 *2798:A *403:18 0.000265728
42 *2801:A *670:27 9.8971e-06
43 *2801:A *733:8 5.67058e-05
44 *2804:A *2550:A0 9.67842e-05
45 *2804:A *661:60 0.000277536
46 *2804:A *678:40 0.000105742
47 *2806:A *356:10 0.000228903
48 *2809:A *359:14 0.000396695
49 *2809:A *359:38 0.000126114
50 *345:12 *2584:A0 5.67058e-05
51 *345:12 *2584:A1 0.00024446
52 *345:12 *2990:A 1.74874e-06
53 *345:12 *360:8 0.000227208
54 *345:12 *361:10 0
55 *345:12 *637:26 6.79681e-05
56 *345:14 *360:8 0.000140259
57 *345:20 *2512:A0 0.000272383
58 *345:20 *3000:A 7.88828e-05
59 *345:20 *360:8 0.000107476
60 *345:22 *641:10 0
61 *345:22 *659:116 0
62 *345:22 *661:60 0.000170184
63 *345:22 *661:79 0.000152553
64 *345:22 *678:40 0.000358617
65 *345:22 *697:10 3.31683e-05
66 *345:24 *661:60 5.31444e-05
67 *345:24 *678:40 3.14274e-05
68 *345:52 *2820:A 0.000148688
69 *345:52 *641:127 0.000351508
70 *345:72 *2433:A2 0
71 *345:72 *2911:A 0
72 *345:72 *3000:A 0
73 *345:72 *361:32 0.000195883
74 *345:72 *361:50 0
75 *345:72 *633:127 0.000218313
76 *345:72 *643:12 0
77 *345:72 *643:23 0
78 *345:72 *643:116 0
79 *345:72 *670:74 0.000186708
80 *345:72 *677:87 0.000459657
81 *345:76 *2516:A0 0.000271476
82 *345:76 *654:74 0.000100488
83 *345:94 *359:38 9.67842e-05
84 *345:94 *670:74 0.000117592
85 *345:94 *677:87 0.000263598
86 *345:117 *2424:A3 0
87 *345:117 *2965:A 0
88 *345:117 *664:28 0
89 *345:128 *440:12 5.82721e-05
90 *345:128 *642:41 0
91 *345:128 *657:104 0.000166522
92 *345:152 *2427:A3 4.24313e-05
93 *345:152 *2871:A 0.000133316
94 *345:152 *361:90 4.13521e-05
95 *345:152 *648:78 0
96 *345:161 *349:6 0.000138917
97 *345:161 *349:52 5.37348e-06
98 *345:167 *745:14 0
99 *345:174 *2415:B 1.94812e-05
100 *345:174 *2757:CLK 6.15314e-05
101 *345:174 *349:52 6.16164e-05
102 *345:174 *733:37 7.88828e-05
103 *345:174 *738:14 0.000180002
104 *345:174 *742:10 8.97286e-06
105 *345:174 *746:14 0.000119957
106 *345:191 *677:23 1.94693e-05
107 *345:191 *733:25 0
108 *345:191 *747:16 0
109 *2527:B *345:152 0
110 *2584:S *345:12 8.43466e-05
111 *40:10 *345:72 2.1199e-05
112 *55:8 *345:152 0.000606524
113 *57:10 *345:22 4.48671e-05
114 *58:8 *345:128 0.000168744
115 *80:10 *345:72 0.000585051
116 *113:10 *2804:A 3.22879e-05
117 *146:10 *2797:A 0.000139647
118 *161:8 *345:22 1.12487e-05
119 *264:20 *345:117 3.87221e-06
120 *285:24 *345:128 0.000141879
121 *290:10 *345:152 0
122 *296:10 *345:72 4.23714e-05
123 *320:20 *345:52 0.000259389
124 *320:20 *345:60 3.71369e-05
125 *323:16 *345:167 5.21127e-05
126 *323:28 *345:128 0.000854079
127 *323:28 *345:152 0.000508922
128 *323:130 *345:60 0
129 *325:26 *345:152 0.000920299
130 *325:34 *345:128 0
131 *325:34 *345:152 0
132 *326:41 *345:152 0.00042598
133 *331:35 *345:76 2.4754e-05
134 *331:56 *345:12 6.51843e-05
135 *331:56 *345:20 0.000368201
136 *331:68 *345:22 0
137 *333:46 *345:152 0
138 *333:54 *345:152 7.03869e-05
139 *333:72 *345:22 8.4047e-05
140 *336:22 *2804:A 3.3577e-05
141 *337:83 *2809:A 0.000520201
142 *337:83 *345:94 8.43466e-05
143 *338:10 *345:167 3.83778e-05
144 *338:28 *345:128 0.000537751
145 *338:109 *345:72 0
146 *339:140 *345:128 0
147 *340:16 *345:12 0.000139352
148 *340:24 *345:12 1.3822e-05
149 *340:73 *2806:A 0.000100488
150 *340:73 *345:76 0.000417628
151 *341:67 *345:60 0.000273623
152 *341:103 *345:12 0
*RES
1 *2795:X *345:4 23 
2 *345:4 *345:12 40.005 
3 *345:12 *345:14 1.57429 
4 *345:14 *345:20 32.7936 
5 *345:20 *345:22 23.0343 
6 *345:22 *345:24 1.55357 
7 *345:24 *2804:A 46.5757 
8 *345:24 *2805:A 39.0979 
9 *345:22 *345:52 44.3729 
10 *345:52 *345:60 34.7643 
11 *345:60 *2803:A 23 
12 *345:52 *2796:A 23 
13 *345:20 *345:72 28.3164 
14 *345:72 *345:76 38.9664 
15 *345:76 *2806:A 28.3857 
16 *345:76 *2807:A 23 
17 *345:72 *345:94 19.7643 
18 *345:94 *2809:A 28.8621 
19 *345:94 *2808:A 23 
20 *345:14 *2810:A 23 
21 *345:12 *345:117 32.2579 
22 *345:117 *2811:A 23 
23 *345:4 *345:126 24.1971 
24 *345:126 *345:128 27.9643 
25 *345:128 *2797:A 42.0186 
26 *345:128 *2798:A 49.1236 
27 *345:126 *345:152 43.3164 
28 *345:152 *2799:A 23 
29 *345:152 *345:161 4.93 
30 *345:161 *345:167 31.5536 
31 *345:167 *2800:A 23 
32 *345:161 *345:174 27.7779 
33 *345:174 *2801:A 26.5007 
34 *345:174 *345:191 35.6964 
35 *345:191 *2802:A 23 
*END

*D_NET *346 0.0158833
*CONN
*I *2812:A I *D sky130_fd_sc_hd__clkbuf_4
*I *2630:CLK I *D sky130_fd_sc_hd__dfxtp_1
*I *2794:CLK I *D sky130_fd_sc_hd__dfxtp_1
*I *2727:CLK I *D sky130_fd_sc_hd__dfxtp_1
*I *2752:CLK I *D sky130_fd_sc_hd__dfxtp_1
*I *2710:CLK I *D sky130_fd_sc_hd__dfxtp_1
*I *2670:CLK I *D sky130_fd_sc_hd__dfxtp_1
*I *2718:CLK I *D sky130_fd_sc_hd__dfxtp_1
*I *2654:CLK I *D sky130_fd_sc_hd__dfxtp_1
*I *2792:CLK I *D sky130_fd_sc_hd__dfxtp_1
*I *2686:CLK I *D sky130_fd_sc_hd__dfxtp_1
*I *2694:CLK I *D sky130_fd_sc_hd__dfxtp_1
*I *2702:CLK I *D sky130_fd_sc_hd__dfxtp_1
*I *2784:CLK I *D sky130_fd_sc_hd__dfxtp_1
*I *2796:X O *D sky130_fd_sc_hd__clkbuf_8
*CAP
1 *2812:A 0
2 *2630:CLK 2.30556e-05
3 *2794:CLK 0.000196787
4 *2727:CLK 0
5 *2752:CLK 0
6 *2710:CLK 0.000668973
7 *2670:CLK 0
8 *2718:CLK 0.000783448
9 *2654:CLK 0.000138415
10 *2792:CLK 0.00022229
11 *2686:CLK 0.000483764
12 *2694:CLK 0
13 *2702:CLK 0
14 *2784:CLK 0.000259
15 *2796:X 0.000113279
16 *346:104 0.000783448
17 *346:71 0.00102646
18 *346:69 0.000609197
19 *346:67 0.000451043
20 *346:65 0.00123007
21 *346:63 0.000515886
22 *346:59 0.0005321
23 *346:47 0.000235369
24 *346:39 0.000440005
25 *346:37 0.000570231
26 *346:33 0.00064765
27 *346:29 0.000572034
28 *346:14 0.000606117
29 *346:12 0.000273322
30 *2718:CLK *380:10 0.000140927
31 *2718:CLK *641:50 0.000308595
32 *2784:CLK *2450:A1 3.31127e-05
33 *2784:CLK *2917:A 9.03979e-05
34 *346:12 *353:22 5.67058e-05
35 *346:14 *2917:A 8.05114e-05
36 *346:29 *2588:A0 1.3523e-05
37 *346:29 *655:83 2.81311e-05
38 *346:33 *2552:A1 0.000313249
39 *346:33 *2588:A0 0.000228558
40 *346:33 *655:83 4.29549e-05
41 *346:33 *655:92 0.000661994
42 *346:33 *655:100 5.50106e-05
43 *346:37 *655:100 0.000129412
44 *346:59 *476:8 0.000128391
45 *346:63 *468:14 9.3813e-05
46 *346:63 *641:77 0
47 *346:63 *641:96 6.25829e-05
48 *346:65 *468:14 0.000117121
49 *346:71 *655:20 0
50 *2630:D *346:29 0.000233187
51 *2670:D *2718:CLK 8.41382e-05
52 *2694:D *346:39 0.000230548
53 *75:10 *2654:CLK 5.92579e-05
54 *91:10 *346:69 0.000141888
55 *91:10 *346:71 0.000192077
56 *115:8 *346:37 0.000169683
57 *123:8 *346:47 0
58 *332:72 *2794:CLK 0.000192578
59 *332:72 *346:37 5.90251e-05
60 *332:72 *346:47 0
61 *334:76 *2784:CLK 0.000119921
62 *334:76 *346:12 7.28526e-05
63 *334:76 *346:14 0.000210945
64 *337:122 *2794:CLK 0
65 *337:122 *346:37 0
66 *337:122 *346:63 0
67 *340:131 *346:12 6.67764e-05
68 *340:131 *346:14 5.70112e-05
69 *340:131 *346:33 2.64616e-05
*RES
1 *2796:X *346:12 41.0243 
2 *346:12 *346:14 5.42714 
3 *346:14 *2784:CLK 43.365 
4 *346:14 *346:29 18.9564 
5 *346:29 *346:33 25.6264 
6 *346:33 *346:37 18.6664 
7 *346:37 *346:39 4.43286 
8 *346:39 *346:47 34.1843 
9 *346:47 *2702:CLK 23 
10 *346:39 *2694:CLK 23 
11 *346:37 *346:59 5.38571 
12 *346:59 *346:63 20.4271 
13 *346:63 *346:65 5.77929 
14 *346:65 *346:67 5.77929 
15 *346:67 *346:69 2.61 
16 *346:69 *346:71 6.13143 
17 *346:71 *2686:CLK 46.8243 
18 *346:71 *2792:CLK 41.48 
19 *346:69 *2654:CLK 40.5479 
20 *346:67 *346:104 15 
21 *346:104 *2718:CLK 38.5771 
22 *346:104 *2670:CLK 23 
23 *346:65 *2710:CLK 49.1029 
24 *346:63 *2752:CLK 38 
25 *346:59 *2727:CLK 23 
26 *346:33 *2794:CLK 43.075 
27 *346:29 *2630:CLK 23.4971 
28 *346:12 *2812:A 38 
*END

*D_NET *347 0.0166753
*CONN
*I *2826:A I *D sky130_fd_sc_hd__clkbuf_8
*I *2661:CLK I *D sky130_fd_sc_hd__dfxtp_1
*I *2709:CLK I *D sky130_fd_sc_hd__dfxtp_1
*I *2660:CLK I *D sky130_fd_sc_hd__dfxtp_1
*I *2677:CLK I *D sky130_fd_sc_hd__dfxtp_1
*I *2717:CLK I *D sky130_fd_sc_hd__dfxtp_1
*I *2685:CLK I *D sky130_fd_sc_hd__dfxtp_1
*I *2653:CLK I *D sky130_fd_sc_hd__dfxtp_1
*I *2791:CLK I *D sky130_fd_sc_hd__dfxtp_1
*I *2669:CLK I *D sky130_fd_sc_hd__dfxtp_1
*I *2751:CLK I *D sky130_fd_sc_hd__dfxtp_1
*I *2693:CLK I *D sky130_fd_sc_hd__dfxtp_1
*I *2701:CLK I *D sky130_fd_sc_hd__dfxtp_1
*I *2797:X O *D sky130_fd_sc_hd__clkbuf_8
*CAP
1 *2826:A 0
2 *2661:CLK 0.000131897
3 *2709:CLK 0
4 *2660:CLK 0.000329334
5 *2677:CLK 0.000267989
6 *2717:CLK 0.000132339
7 *2685:CLK 7.15094e-05
8 *2653:CLK 0
9 *2791:CLK 0
10 *2669:CLK 0.000432752
11 *2751:CLK 0
12 *2693:CLK 0
13 *2701:CLK 0
14 *2797:X 0
15 *347:158 0.000358971
16 *347:129 0.000695775
17 *347:107 0.000400327
18 *347:88 8.42289e-05
19 *347:67 0.000592653
20 *347:65 0.000459526
21 *347:55 0.000999695
22 *347:51 0.00068102
23 *347:49 0.00065041
24 *347:47 0.000796751
25 *347:34 0.000930109
26 *347:18 0.000446506
27 *347:12 0.000862742
28 *347:10 0.000937698
29 *347:4 0.000467896
30 *2661:CLK *2532:A1 0.000163466
31 *2661:CLK *2569:A1 0.000183733
32 *2661:CLK *435:16 1.59094e-05
33 *2677:CLK *443:10 0.000103647
34 *2685:CLK *387:12 1.40958e-05
35 *2685:CLK *387:25 1.59094e-05
36 *347:10 *2902:A 4.00259e-06
37 *347:10 *475:8 0.000155853
38 *347:10 *475:23 0.00010655
39 *347:12 *475:8 9.67842e-05
40 *347:18 *532:8 8.62876e-05
41 *347:34 *2907:A 0.00010763
42 *347:34 *459:10 9.04083e-05
43 *347:34 *628:23 0
44 *347:47 *451:14 8.94394e-05
45 *347:47 *467:10 0.000610671
46 *347:47 *559:8 8.16459e-05
47 *347:47 *639:67 0.000146207
48 *347:47 *639:73 0.000102
49 *347:47 *647:45 0
50 *347:47 *657:104 0
51 *347:49 *647:45 0
52 *347:49 *657:82 0
53 *347:51 *657:71 0
54 *347:55 *387:12 0.000194318
55 *347:55 *491:10 0
56 *347:55 *647:45 0
57 *347:55 *657:32 0.000485221
58 *347:55 *657:60 0
59 *347:55 *657:71 0
60 *347:65 *379:10 0.000171539
61 *347:65 *387:12 1.94812e-05
62 *347:67 *379:10 5.41288e-05
63 *347:88 *628:12 0.000114645
64 *347:129 *435:6 6.17437e-06
65 *347:158 *642:41 0
66 *2596:S *347:34 5.89013e-05
67 *2653:D *347:65 1.64354e-05
68 *2669:D *2669:CLK 1.64354e-05
69 *2693:D *347:12 0.000189681
70 *2709:D *347:129 0.000146207
71 *2717:D *2717:CLK 1.64354e-05
72 *2726:D *347:158 0.000311554
73 *2751:D *347:47 8.79002e-05
74 *2798:A *347:158 6.17437e-06
75 *114:8 *347:18 0
76 *122:8 *347:18 0
77 *138:12 *347:51 3.95159e-06
78 *138:12 *347:55 9.48381e-06
79 *138:12 *347:129 0.000137651
80 *154:8 *347:34 1.14452e-05
81 *170:10 *347:88 7.66085e-05
82 *301:10 *347:18 8.62876e-05
83 *329:107 *347:18 0.000136092
84 *333:122 *2677:CLK 0.00021501
85 *333:122 *2717:CLK 6.73849e-05
86 *338:32 *2661:CLK 0.0002246
87 *338:38 *347:49 0.000107548
88 *338:38 *347:51 6.4393e-05
89 *338:44 *2717:CLK 0.000181919
90 *340:45 *347:10 0.000359854
91 *340:45 *347:12 7.15126e-05
92 *341:105 *347:34 0.000111684
93 *341:105 *347:158 0
94 *341:117 *347:34 1.02561e-05
*RES
1 *2797:X *347:4 23 
2 *347:4 *347:10 5.075 
3 *347:10 *347:12 8.24429 
4 *347:12 *347:18 38.2443 
5 *347:18 *2701:CLK 23 
6 *347:12 *2693:CLK 23 
7 *347:10 *347:34 38.2443 
8 *347:34 *2751:CLK 23 
9 *347:34 *347:47 28.4436 
10 *347:47 *347:49 3.31429 
11 *347:49 *347:51 2.25786 
12 *347:51 *347:55 26.7657 
13 *347:55 *347:65 8.09929 
14 *347:65 *347:67 1.57429 
15 *347:67 *2669:CLK 31.0993 
16 *347:67 *347:88 32.9621 
17 *347:88 *2791:CLK 23 
18 *347:65 *2653:CLK 23 
19 *347:55 *2685:CLK 24.0979 
20 *347:51 *347:107 15 
21 *347:107 *2717:CLK 26.5007 
22 *347:107 *2677:CLK 29.8357 
23 *347:49 *347:129 22.2914 
24 *347:129 *2660:CLK 28.8621 
25 *347:129 *2709:CLK 23 
26 *347:47 *2661:CLK 41.9564 
27 *347:4 *347:158 36.9186 
28 *347:158 *2826:A 23 
*END

*D_NET *348 0.012743
*CONN
*I *2774:CLK I *D sky130_fd_sc_hd__dfrtp_1
*I *2769:CLK I *D sky130_fd_sc_hd__dfrtp_1
*I *2637:CLK I *D sky130_fd_sc_hd__dfxtp_1
*I *2783:CLK I *D sky130_fd_sc_hd__dfxtp_1
*I *2629:CLK I *D sky130_fd_sc_hd__dfxtp_1
*I *2726:CLK I *D sky130_fd_sc_hd__dfxtp_1
*I *2645:CLK I *D sky130_fd_sc_hd__dfxtp_1
*I *2814:A I *D sky130_fd_sc_hd__inv_6
*I *2798:X O *D sky130_fd_sc_hd__clkbuf_8
*CAP
1 *2774:CLK 0
2 *2769:CLK 0
3 *2637:CLK 0
4 *2783:CLK 0
5 *2629:CLK 0
6 *2726:CLK 0
7 *2645:CLK 4.56652e-05
8 *2814:A 0.000315696
9 *2798:X 8.04628e-05
10 *348:95 0.00118724
11 *348:76 0.00130697
12 *348:69 0.000795268
13 *348:63 0.00108097
14 *348:46 0.000109082
15 *348:38 0.000830573
16 *348:36 0.00114796
17 *348:32 0.000696715
18 *348:10 0.000477631
19 *348:8 0.000301006
20 *2645:CLK *2494:A1 9.84794e-05
21 *2814:A *2964:A 0.000223698
22 *2814:A *634:60 0.000188916
23 *2814:A *634:74 0.000520201
24 *2814:A *639:59 0.000181125
25 *2814:A *669:34 1.12487e-05
26 *348:8 *634:60 2.64616e-05
27 *348:10 *634:60 0.000197479
28 *348:10 *669:34 2.70366e-05
29 *348:32 *419:29 2.71291e-05
30 *348:32 *669:34 7.91596e-05
31 *348:36 *411:12 3.71251e-05
32 *348:36 *419:16 0.000158382
33 *348:36 *650:20 0.000349818
34 *348:38 *2551:A1 5.3304e-05
35 *348:38 *411:12 0.000175828
36 *348:38 *657:104 0.00022109
37 *348:46 *613:10 0.000167452
38 *348:63 *419:29 0.00010404
39 *348:63 *634:52 0
40 *348:63 *669:34 3.3123e-05
41 *348:69 *2604:A1 0.000178517
42 *348:69 *419:29 5.12254e-05
43 *348:69 *633:34 0.000325635
44 *348:69 *639:49 3.22118e-05
45 *348:69 *657:112 0.00034721
46 *348:76 *634:52 0
47 *348:76 *715:10 3.81391e-05
48 *348:95 *363:8 5.47927e-05
49 *348:95 *634:52 0
50 *2629:D *348:38 0.000100124
51 *2637:D *348:69 1.64354e-05
52 *2726:D *348:46 5.67058e-05
53 *2783:D *348:36 1.64354e-05
54 *302:10 *2814:A 8.48502e-06
55 *327:118 *348:95 0.000121021
56 *333:108 *2814:A 0
57 *333:108 *348:10 0
58 *333:108 *348:32 0
59 *333:108 *348:63 0
60 *333:108 *348:76 0
61 *333:108 *348:95 4.33511e-05
62 *340:24 *348:46 9.64022e-05
*RES
1 *2798:X *348:8 39.0979 
2 *348:8 *348:10 3.31429 
3 *348:10 *2814:A 46.8243 
4 *348:10 *2645:CLK 39.0979 
5 *348:8 *348:32 2.25786 
6 *348:32 *348:36 23.2443 
7 *348:36 *348:38 13.9614 
8 *348:38 *348:46 33.2314 
9 *348:46 *2726:CLK 23 
10 *348:38 *2629:CLK 23 
11 *348:36 *2783:CLK 23 
12 *348:32 *348:63 3.66643 
13 *348:63 *348:69 29.935 
14 *348:69 *2637:CLK 23 
15 *348:63 *348:76 2.61 
16 *348:76 *2769:CLK 38 
17 *348:76 *348:95 33.8914 
18 *348:95 *2774:CLK 23 
*END

*D_NET *349 0.0105447
*CONN
*I *2757:CLK I *D sky130_fd_sc_hd__dfrtp_1
*I *2756:CLK I *D sky130_fd_sc_hd__dfrtp_1
*I *2755:CLK I *D sky130_fd_sc_hd__dfrtp_1
*I *2770:CLK I *D sky130_fd_sc_hd__dfrtp_1
*I *2815:A I *D sky130_fd_sc_hd__inv_6
*I *2673:CLK I *D sky130_fd_sc_hd__dfxtp_1
*I *2780:CLK I *D sky130_fd_sc_hd__dfxtp_1
*I *2626:CLK I *D sky130_fd_sc_hd__dfxtp_1
*I *2799:X O *D sky130_fd_sc_hd__clkbuf_8
*CAP
1 *2757:CLK 0.000115091
2 *2756:CLK 9.61286e-05
3 *2755:CLK 0
4 *2770:CLK 0
5 *2815:A 2.43873e-05
6 *2673:CLK 0.000111787
7 *2780:CLK 0
8 *2626:CLK 0.000221483
9 *2799:X 0
10 *349:64 0.000488868
11 *349:58 0.000716018
12 *349:56 0.000407178
13 *349:52 0.000300038
14 *349:16 0.000516183
15 *349:14 0.000850977
16 *349:6 0.000748209
17 *349:4 0.00038038
18 *2626:CLK *634:170 0.0001042
19 *2626:CLK *637:26 0
20 *2673:CLK *2940:A 9.16459e-05
21 *2673:CLK *517:10 1.94693e-05
22 *2673:CLK *666:106 5.50049e-05
23 *349:16 *637:26 0
24 *349:16 *648:111 0
25 *349:56 *745:14 0.00019747
26 *349:58 *2878:A 0.000182863
27 *349:58 *665:74 0.000218943
28 *349:64 *2430:S 0.000119477
29 *349:64 *2878:A 0.000459638
30 *349:64 *400:10 0.000139647
31 *349:64 *665:57 0.000422369
32 *349:64 *665:74 0.000635519
33 *2430:A0 *349:64 0.00012239
34 *47:8 *2626:CLK 0.000147908
35 *327:99 *349:56 2.70469e-05
36 *327:99 *349:58 0.000185573
37 *331:14 *349:14 0.000356718
38 *331:27 *349:14 0.0001164
39 *331:48 *2756:CLK 1.24376e-05
40 *331:48 *349:58 0.000183087
41 *331:48 *349:64 0.000233033
42 *333:12 *349:14 5.65398e-05
43 *333:12 *349:16 6.03737e-05
44 *338:18 *349:56 8.26312e-05
45 *338:18 *349:58 9.21347e-06
46 *341:103 *2626:CLK 0.000249909
47 *341:103 *349:14 0.000190877
48 *341:103 *349:16 0.000620108
49 *345:161 *349:6 0.000138917
50 *345:161 *349:52 5.37348e-06
51 *345:174 *2757:CLK 6.15314e-05
52 *345:174 *349:52 6.16164e-05
*RES
1 *2799:X *349:4 23 
2 *349:4 *349:6 4.90929 
3 *349:6 *349:14 24.9221 
4 *349:14 *349:16 8.24429 
5 *349:16 *2626:CLK 44.3179 
6 *349:16 *2780:CLK 38 
7 *349:14 *2673:CLK 40.5271 
8 *349:6 *2815:A 23.4971 
9 *349:4 *349:52 2.05071 
10 *349:52 *349:56 18.3143 
11 *349:56 *349:58 7.89214 
12 *349:58 *349:64 31.7579 
13 *349:64 *2770:CLK 23 
14 *349:58 *2755:CLK 38 
15 *349:56 *2756:CLK 39.595 
16 *349:52 *2757:CLK 25.0507 
*END

*D_NET *350 0.0171487
*CONN
*I *2740:CLK I *D sky130_fd_sc_hd__dfrtp_1
*I *2742:CLK I *D sky130_fd_sc_hd__dfrtp_1
*I *2743:CLK I *D sky130_fd_sc_hd__dfrtp_1
*I *2681:CLK I *D sky130_fd_sc_hd__dfxtp_1
*I *2816:A I *D sky130_fd_sc_hd__inv_6
*I *2744:CLK I *D sky130_fd_sc_hd__dfrtp_1
*I *2775:CLK I *D sky130_fd_sc_hd__dfrtp_1
*I *2657:CLK I *D sky130_fd_sc_hd__dfxtp_1
*I *2800:X O *D sky130_fd_sc_hd__clkbuf_8
*CAP
1 *2740:CLK 0.000179038
2 *2742:CLK 0
3 *2743:CLK 0
4 *2681:CLK 0
5 *2816:A 0
6 *2744:CLK 0
7 *2775:CLK 0.000584639
8 *2657:CLK 0.000508026
9 *2800:X 0
10 *350:93 0.000678494
11 *350:77 0.000755145
12 *350:71 0.00097562
13 *350:64 0.00136296
14 *350:54 0.00250356
15 *350:43 0.000615007
16 *350:30 0.000256508
17 *350:19 0.000712411
18 *350:4 0.000573635
19 *2657:CLK *648:117 1.24376e-05
20 *2657:CLK *666:119 0.000306338
21 *2740:CLK *2366:A 2.49836e-05
22 *2775:CLK *2744:RESET_B 3.7122e-06
23 *350:54 *636:8 1.59094e-05
24 *350:54 *636:16 9.03784e-05
25 *350:54 *636:23 0.00015795
26 *350:54 *636:34 0.00021356
27 *350:54 *636:38 5.72749e-05
28 *350:54 *636:70 1.58805e-05
29 *350:54 *736:10 0.000166522
30 *350:54 *745:14 0
31 *350:64 *2384:B 5.48688e-05
32 *350:64 *479:10 3.06338e-05
33 *350:64 *636:46 0.000221992
34 *350:64 *636:82 1.61361e-05
35 *350:64 *644:95 2.96549e-05
36 *350:71 *2368:B 3.47879e-05
37 *350:71 *636:70 5.55278e-05
38 *350:71 *636:104 6.6869e-05
39 *350:71 *636:117 0.000122397
40 *350:71 *744:8 0
41 *350:71 *745:10 0
42 *350:71 *745:14 0
43 *350:77 *2617:RESET_B 0
44 *350:77 *2742:D 6.24154e-05
45 *350:77 *2742:RESET_B 0
46 *350:77 *2743:RESET_B 0.000142645
47 *350:93 *2617:RESET_B 9.70396e-05
48 *350:93 *2742:D 0.000143655
49 *350:93 *2743:RESET_B 0.00014407
50 *350:93 *734:8 5.94125e-05
51 *2366:B *2740:CLK 0.000105453
52 *2367:A *2740:CLK 0.000183331
53 *2367:A *350:71 1.69668e-05
54 *2374:B *350:43 0.000221992
55 *2374:B *350:54 8.34394e-05
56 *2377:B *350:54 2.11887e-05
57 *2379:B *350:71 0.000482041
58 *2382:B *350:71 4.48731e-05
59 *2478:B *350:71 0.000166522
60 *2546:B *350:30 1.14452e-05
61 *2546:B *350:43 0.000155068
62 *2564:A *2775:CLK 6.53382e-05
63 *2564:B *2775:CLK 0.000313249
64 *2582:A *2657:CLK 0.000185428
65 *2657:D *2657:CLK 3.12775e-05
66 *2681:D *350:64 2.47564e-05
67 *94:10 *2657:CLK 5.3304e-05
68 *248:19 *2740:CLK 9.85378e-05
69 *248:19 *350:71 0.000293804
70 *250:10 *350:71 0.000208827
71 *251:10 *350:54 4.38375e-05
72 *252:12 *350:43 3.70187e-05
73 *259:8 *350:64 0.000692398
74 *322:48 *2657:CLK 0.000354127
75 *322:48 *2775:CLK 5.79042e-05
76 *322:48 *350:19 8.43466e-05
77 *323:10 *350:71 1.7992e-05
78 *326:8 *350:71 0
79 *326:41 *350:19 6.48142e-05
80 *326:41 *350:30 0.000107654
81 *339:12 *350:19 6.25829e-05
82 *339:12 *350:30 0.000225275
83 *339:12 *350:43 0.000191148
84 *340:10 *2657:CLK 0.000390685
*RES
1 *2800:X *350:4 23 
2 *350:4 *2657:CLK 35.5529 
3 *350:4 *350:19 16.9471 
4 *350:19 *2775:CLK 49.1029 
5 *350:19 *350:30 2.96214 
6 *350:30 *2744:CLK 38 
7 *350:30 *350:43 20.1371 
8 *350:43 *2816:A 23 
9 *350:43 *350:54 24.3421 
10 *350:54 *350:64 38.5521 
11 *350:64 *2681:CLK 23 
12 *350:54 *350:71 18.1043 
13 *350:71 *350:77 17.0714 
14 *350:77 *350:93 41.8071 
15 *350:93 *2743:CLK 23 
16 *350:77 *2742:CLK 23 
17 *350:71 *2740:CLK 42.3086 
*END

*D_NET *351 0.00875814
*CONN
*I *2758:CLK I *D sky130_fd_sc_hd__dfrtp_1
*I *2746:CLK I *D sky130_fd_sc_hd__dfrtp_4
*I *2817:A I *D sky130_fd_sc_hd__inv_8
*I *2771:CLK I *D sky130_fd_sc_hd__dfrtp_1
*I *2773:CLK I *D sky130_fd_sc_hd__dfrtp_1
*I *2642:CLK I *D sky130_fd_sc_hd__dfxtp_1
*I *2801:X O *D sky130_fd_sc_hd__clkbuf_8
*CAP
1 *2758:CLK 2.34823e-05
2 *2746:CLK 0.000128967
3 *2817:A 6.812e-05
4 *2771:CLK 0
5 *2773:CLK 0
6 *2642:CLK 0
7 *2801:X 0.00019164
8 *351:41 0.000637755
9 *351:32 0.000802937
10 *351:26 0.00177883
11 *351:24 0.000474384
12 *351:22 0.000340227
13 *351:20 0.000955529
14 *351:14 0.000874564
15 *351:10 0.000352021
16 *2746:CLK *738:14 8.14168e-05
17 *2758:CLK *352:14 0
18 *2817:A *2761:RESET_B 0.000226306
19 *2817:A *670:35 0.00014196
20 *351:10 *2925:A 0
21 *351:10 *670:27 5.72217e-05
22 *351:10 *733:25 4.58924e-05
23 *351:14 *352:14 0.000102093
24 *351:20 *2746:RESET_B 0
25 *351:20 *352:14 0.000151601
26 *351:20 *733:37 0
27 *351:22 *2746:RESET_B 0
28 *351:22 *670:35 1.83667e-05
29 *351:24 *670:35 0.000111138
30 *351:26 *670:35 0.000207334
31 *351:26 *670:41 8.51329e-05
32 *351:26 *674:22 0
33 *351:32 *2738:D 0
34 *351:32 *2980:A 0.000310647
35 *351:32 *674:22 0
36 *351:41 *2738:RESET_B 2.56078e-05
37 *351:41 *2773:RESET_B 0.000305084
38 *351:41 *670:41 5.41385e-05
39 *351:41 *708:50 0.000103647
40 *351:41 *717:10 0.000102093
*RES
1 *2801:X *351:10 41.9564 
2 *351:10 *351:14 18.0036 
3 *351:14 *351:20 27.035 
4 *351:20 *351:22 2.25786 
5 *351:22 *351:24 2.96214 
6 *351:24 *351:26 8.24429 
7 *351:26 *351:32 29.5414 
8 *351:32 *2642:CLK 23 
9 *351:26 *351:41 30.3907 
10 *351:41 *2773:CLK 23 
11 *351:24 *2771:CLK 38 
12 *351:22 *2817:A 40.5271 
13 *351:20 *2746:CLK 40.5686 
14 *351:14 *2758:CLK 23.4971 
*END

*D_NET *352 0.00996196
*CONN
*I *2741:CLK I *D sky130_fd_sc_hd__dfrtp_1
*I *2776:CLK I *D sky130_fd_sc_hd__dfrtp_1
*I *2745:CLK I *D sky130_fd_sc_hd__dfrtp_1
*I *2777:CLK I *D sky130_fd_sc_hd__dfrtp_1
*I *2778:CLK I *D sky130_fd_sc_hd__dfrtp_2
*I *2772:CLK I *D sky130_fd_sc_hd__dfrtp_1
*I *2818:A I *D sky130_fd_sc_hd__inv_6
*I *2802:X O *D sky130_fd_sc_hd__clkbuf_8
*CAP
1 *2741:CLK 0
2 *2776:CLK 2.34823e-05
3 *2745:CLK 0.000707836
4 *2777:CLK 0.000210914
5 *2778:CLK 0
6 *2772:CLK 0
7 *2818:A 0
8 *2802:X 0
9 *352:90 0.000997017
10 *352:64 0.000942353
11 *352:60 0.00129914
12 *352:40 0.000354617
13 *352:29 0.00083846
14 *352:25 0.0011346
15 *352:14 0.000354278
16 *352:4 0.000703027
17 *2745:CLK *2776:D 1.39317e-05
18 *2745:CLK *2776:RESET_B 9.8326e-05
19 *2745:CLK *732:21 5.41288e-05
20 *2777:CLK *676:23 0.000148818
21 *352:14 *2758:RESET_B 0
22 *352:14 *2925:A 0
23 *352:14 *733:25 0.000246748
24 *352:14 *747:16 4.9939e-05
25 *352:25 *2758:RESET_B 0.000197479
26 *352:25 *675:96 4.59027e-05
27 *352:25 *677:23 0.000136453
28 *352:25 *681:10 5.67058e-05
29 *352:29 *2772:D 6.99492e-05
30 *352:29 *2772:RESET_B 2.56175e-05
31 *352:29 *675:96 0.00019975
32 *352:40 *676:23 9.98995e-05
33 *352:60 *2758:RESET_B 0.000158229
34 *352:60 *726:8 0
35 *352:64 *733:59 0.000268074
36 *352:90 *2758:RESET_B 0.000209739
37 *352:90 *714:18 6.28488e-05
38 *352:90 *726:8 0
39 *2758:CLK *352:14 0
40 *198:8 *352:90 0
41 *198:27 *352:90 0
42 *351:14 *352:14 0.000102093
43 *351:20 *352:14 0.000151601
*RES
1 *2802:X *352:4 23 
2 *352:4 *352:14 38.7207 
3 *352:14 *2818:A 23 
4 *352:4 *352:25 22.9957 
5 *352:25 *352:29 28.485 
6 *352:29 *2772:CLK 23 
7 *352:29 *352:40 18.2314 
8 *352:40 *2778:CLK 38 
9 *352:40 *2777:CLK 42.5364 
10 *352:25 *352:60 2.25786 
11 *352:60 *352:64 18.9564 
12 *352:64 *2745:CLK 34.165 
13 *352:64 *2776:CLK 23.4971 
14 *352:60 *352:90 34.0157 
15 *352:90 *2741:CLK 23 
*END

*D_NET *353 0.015701
*CONN
*I *2813:A I *D sky130_fd_sc_hd__clkbuf_4
*I *2664:CLK I *D sky130_fd_sc_hd__dfxtp_1
*I *2648:CLK I *D sky130_fd_sc_hd__dfxtp_1
*I *2632:CLK I *D sky130_fd_sc_hd__dfxtp_1
*I *2786:CLK I *D sky130_fd_sc_hd__dfxtp_1
*I *2754:CLK I *D sky130_fd_sc_hd__dfxtp_1
*I *2712:CLK I *D sky130_fd_sc_hd__dfxtp_1
*I *2720:CLK I *D sky130_fd_sc_hd__dfxtp_1
*I *2688:CLK I *D sky130_fd_sc_hd__dfxtp_1
*I *2656:CLK I *D sky130_fd_sc_hd__dfxtp_1
*I *2704:CLK I *D sky130_fd_sc_hd__dfxtp_1
*I *2729:CLK I *D sky130_fd_sc_hd__dfxtp_1
*I *2696:CLK I *D sky130_fd_sc_hd__dfxtp_1
*I *2672:CLK I *D sky130_fd_sc_hd__dfxtp_1
*I *2803:X O *D sky130_fd_sc_hd__clkbuf_8
*CAP
1 *2813:A 0.000207103
2 *2664:CLK 0.000146613
3 *2648:CLK 0.000167546
4 *2632:CLK 0.000146931
5 *2786:CLK 0
6 *2754:CLK 0.000362274
7 *2712:CLK 0
8 *2720:CLK 4.98982e-05
9 *2688:CLK 0
10 *2656:CLK 0
11 *2704:CLK 0.000365
12 *2729:CLK 0.000688182
13 *2696:CLK 0
14 *2672:CLK 0
15 *2803:X 6.94816e-05
16 *353:128 0.000437027
17 *353:108 0.000362274
18 *353:106 0.000644925
19 *353:102 0.000847591
20 *353:95 0.000363505
21 *353:80 0.000318552
22 *353:41 0.000688182
23 *353:39 0.000994496
24 *353:30 0.000772987
25 *353:26 0.000740574
26 *353:22 0.00123955
27 *353:8 0.000726216
28 *353:6 0.000276585
29 *2648:CLK *646:189 0.000100415
30 *2648:CLK *652:22 0.000354127
31 *2664:CLK *632:26 0.000149834
32 *2704:CLK *618:10 0
33 *2720:CLK *645:87 3.7122e-06
34 *2729:CLK *478:8 2.93747e-05
35 *2754:CLK *618:31 0.000217153
36 *2754:CLK *651:21 0.000273273
37 *2813:A *645:72 0.00042603
38 *353:6 *2465:S0 9.64943e-05
39 *353:6 *645:72 5.3304e-05
40 *353:22 *645:87 3.47781e-05
41 *353:26 *390:10 8.82055e-05
42 *353:39 *2554:A0 0
43 *353:39 *651:71 0
44 *353:80 *645:87 0.000209739
45 *353:95 *632:26 2.64616e-05
46 *353:95 *645:87 8.02348e-05
47 *353:95 *651:29 3.70187e-05
48 *353:102 *632:26 0.00012561
49 *353:128 *652:22 1.12487e-05
50 rd_data[7] *353:39 1.70831e-05
51 *2599:S *2754:CLK 0.000182826
52 *2632:D *2632:CLK 0.000146207
53 *2632:D *2648:CLK 4.08664e-05
54 *2656:D *353:26 0.000102732
55 *2688:D *353:22 9.92992e-06
56 *2696:D *2729:CLK 0.000233156
57 *2712:D *353:102 0.000143604
58 *53:8 *353:106 0.000140958
59 *53:8 *353:128 0.000194309
60 *77:8 *353:30 0
61 *77:8 *353:39 0
62 *117:8 *2704:CLK 0
63 *117:8 *353:39 0
64 *125:8 *2704:CLK 0
65 *320:20 *353:22 0.00033065
66 *320:20 *353:26 9.36522e-05
67 *323:120 *353:106 0
68 *323:126 *353:106 0
69 *323:151 *2664:CLK 0.000207586
70 *334:74 *353:80 6.32688e-05
71 *334:74 *353:95 0.00010858
72 *334:76 *353:22 0.000105175
73 *334:76 *353:80 4.54033e-05
74 *334:121 *2813:A 3.3577e-05
75 *334:121 *353:6 4.27272e-05
76 *336:77 *2704:CLK 0
77 *336:77 *353:39 0
78 *338:123 *353:95 0.000225265
79 *340:131 *353:22 8.92944e-05
80 *340:131 *353:95 0.000154926
81 *341:59 *353:128 0
82 *341:67 *353:106 0
83 *346:12 *353:22 5.67058e-05
*RES
1 *2803:X *353:6 24.5743 
2 *353:6 *353:8 15 
3 *353:8 *353:22 29.1479 
4 *353:22 *353:26 12.0764 
5 *353:26 *353:30 17.61 
6 *353:30 *2672:CLK 38 
7 *353:30 *353:39 11.4136 
8 *353:39 *353:41 15 
9 *353:41 *2696:CLK 23 
10 *353:41 *2729:CLK 35.1179 
11 *353:39 *2704:CLK 43.7793 
12 *353:26 *2656:CLK 23 
13 *353:22 *2688:CLK 23 
14 *353:8 *353:80 2.96214 
15 *353:80 *2720:CLK 38.6214 
16 *353:80 *353:95 21.4007 
17 *353:95 *2712:CLK 23 
18 *353:95 *353:102 3.95643 
19 *353:102 *353:106 23.5964 
20 *353:106 *353:108 15 
21 *353:108 *2754:CLK 31.7621 
22 *353:108 *2786:CLK 23 
23 *353:106 *353:128 17.9621 
24 *353:128 *2632:CLK 26.0036 
25 *353:128 *2648:CLK 27.9093 
26 *353:102 *2664:CLK 27.4329 
27 *353:6 *2813:A 28.4064 
*END

*D_NET *354 0.0150102
*CONN
*I *2700:CLK I *D sky130_fd_sc_hd__dfxtp_1
*I *2819:A I *D sky130_fd_sc_hd__clkbuf_8
*I *2708:CLK I *D sky130_fd_sc_hd__dfxtp_1
*I *2716:CLK I *D sky130_fd_sc_hd__dfxtp_1
*I *2676:CLK I *D sky130_fd_sc_hd__dfxtp_1
*I *2678:CLK I *D sky130_fd_sc_hd__dfxtp_1
*I *2662:CLK I *D sky130_fd_sc_hd__dfxtp_1
*I *2668:CLK I *D sky130_fd_sc_hd__dfxtp_1
*I *2652:CLK I *D sky130_fd_sc_hd__dfxtp_1
*I *2684:CLK I *D sky130_fd_sc_hd__dfxtp_1
*I *2790:CLK I *D sky130_fd_sc_hd__dfxtp_1
*I *2646:CLK I *D sky130_fd_sc_hd__dfxtp_1
*I *2638:CLK I *D sky130_fd_sc_hd__dfxtp_1
*I *2804:X O *D sky130_fd_sc_hd__clkbuf_8
*CAP
1 *2700:CLK 4.82547e-05
2 *2819:A 0
3 *2708:CLK 0.000206468
4 *2716:CLK 0
5 *2676:CLK 0.000630319
6 *2678:CLK 0.000252401
7 *2662:CLK 7.11751e-05
8 *2668:CLK 4.56369e-05
9 *2652:CLK 0
10 *2684:CLK 0.00050435
11 *2790:CLK 0
12 *2646:CLK 0
13 *2638:CLK 0.000167775
14 *2804:X 0.000385332
15 *354:108 0.000875282
16 *354:95 0.000497364
17 *354:56 0.000402154
18 *354:48 0.00135776
19 *354:42 0.000824841
20 *354:40 0.00052702
21 *354:38 0.000525272
22 *354:32 0.00104193
23 *354:30 0.000554951
24 *354:26 0.000379327
25 *354:19 0.000463015
26 *354:6 0.000801921
27 *2676:CLK *2974:A 5.90675e-06
28 *2678:CLK *2974:A 0.000137651
29 *2684:CLK *386:14 5.2894e-05
30 *2700:CLK *633:50 3.34247e-05
31 *2708:CLK *2943:A 5.50106e-05
32 *354:19 *637:104 0.000134206
33 *354:19 *639:109 0
34 *354:26 *3001:A 9.75779e-05
35 *354:26 *579:10 5.70419e-05
36 *354:26 *633:50 0.000144437
37 *354:26 *641:40 0.000139764
38 *354:30 *2455:S 0
39 *354:30 *634:115 0
40 *354:30 *669:56 0.000179702
41 *354:32 *2455:S 0
42 *354:32 *645:121 0
43 *354:32 *669:56 0.000242404
44 *354:38 *2451:A1 0
45 *354:38 *2943:A 0
46 *354:38 *372:8 0
47 *354:38 *656:44 0
48 *354:40 *645:127 0
49 *354:42 *645:127 0
50 *354:56 *573:12 0
51 *354:108 *2974:A 0.000457978
52 *2533:S *2708:CLK 0.000323663
53 *2614:S *2668:CLK 9.84851e-05
54 *2646:D *354:26 2.18409e-05
55 *2652:D *2684:CLK 0.000146207
56 *2662:D *2662:CLK 0.000143655
57 *2678:D *2678:CLK 1.64354e-05
58 *2716:D *2676:CLK 0.000187079
59 *43:8 *354:32 0
60 *73:8 *354:56 0
61 *83:8 *354:38 6.01556e-05
62 *83:8 *354:40 7.91596e-05
63 *89:8 *354:42 0
64 *99:10 *354:38 0
65 *309:10 *354:19 0.000138727
66 *311:10 *354:32 0
67 *329:123 *2662:CLK 9.00922e-05
68 *331:108 *2676:CLK 0.000140259
69 *331:131 *2676:CLK 0.000573909
70 *331:131 *354:108 0.000201109
71 *334:93 *354:56 0.000488848
72 *338:65 *354:38 0
*RES
1 *2804:X *354:6 29.3386 
2 *354:6 *2638:CLK 25.5271 
3 *354:6 *354:19 35.4271 
4 *354:19 *2646:CLK 23 
5 *354:19 *354:26 5.86214 
6 *354:26 *354:30 17.61 
7 *354:30 *354:32 8.94857 
8 *354:32 *354:38 6.89786 
9 *354:38 *354:40 2.61 
10 *354:40 *354:42 5.77929 
11 *354:42 *354:48 22.8714 
12 *354:48 *354:56 38.3479 
13 *354:56 *2790:CLK 23 
14 *354:48 *2684:CLK 32.2179 
15 *354:48 *2652:CLK 23 
16 *354:42 *2668:CLK 39.0979 
17 *354:40 *2662:CLK 40.5271 
18 *354:38 *354:95 15 
19 *354:95 *2678:CLK 27.4329 
20 *354:95 *354:108 8.41 
21 *354:108 *2676:CLK 38.4114 
22 *354:108 *2716:CLK 23 
23 *354:32 *2708:CLK 43.3857 
24 *354:30 *2819:A 38 
25 *354:26 *2700:CLK 24.0979 
*END

*D_NET *355 0.0104341
*CONN
*I *2636:CLK I *D sky130_fd_sc_hd__dfxtp_1
*I *2628:CLK I *D sky130_fd_sc_hd__dfxtp_1
*I *2680:CLK I *D sky130_fd_sc_hd__dfxtp_1
*I *2782:CLK I *D sky130_fd_sc_hd__dfxtp_1
*I *2644:CLK I *D sky130_fd_sc_hd__dfxtp_1
*I *2820:A I *D sky130_fd_sc_hd__clkinv_4
*I *2725:CLK I *D sky130_fd_sc_hd__dfxtp_1
*I *2692:CLK I *D sky130_fd_sc_hd__dfxtp_1
*I *2750:CLK I *D sky130_fd_sc_hd__dfxtp_1
*I *2805:X O *D sky130_fd_sc_hd__clkbuf_8
*CAP
1 *2636:CLK 0.000310559
2 *2628:CLK 0
3 *2680:CLK 0.000150166
4 *2782:CLK 0.000161774
5 *2644:CLK 2.95011e-05
6 *2820:A 0.000327107
7 *2725:CLK 3.42813e-05
8 *2692:CLK 0
9 *2750:CLK 0.0001187
10 *2805:X 0
11 *355:90 0.000581828
12 *355:75 0.000915725
13 *355:67 0.000744578
14 *355:56 0.000210746
15 *355:45 0.00046388
16 *355:29 0.000814231
17 *355:10 0.000998728
18 *355:8 0.000174776
19 *355:6 0.000141955
20 *2636:CLK *410:31 0.000235558
21 *2636:CLK *659:116 0.000234373
22 *2636:CLK *661:79 3.98443e-05
23 *2644:CLK *633:34 5.50106e-05
24 *2680:CLK *2908:A 5.50106e-05
25 *2680:CLK *694:10 0.000147144
26 *2750:CLK *466:27 4.72772e-05
27 *2750:CLK *474:33 2.26497e-05
28 *2750:CLK *633:44 6.59298e-05
29 *2750:CLK *641:12 4.96264e-06
30 *2750:CLK *641:18 7.95103e-05
31 *2750:CLK *641:143 1.94418e-05
32 *2820:A *553:10 1.94812e-05
33 *355:8 *641:12 0.000111148
34 *355:8 *659:116 0.00021289
35 *355:10 *633:44 2.91142e-05
36 *355:10 *641:12 6.79006e-05
37 *355:10 *659:116 6.48142e-05
38 *355:29 *474:12 9.8971e-06
39 *355:29 *474:33 7.91871e-05
40 *355:29 *641:34 0.000230713
41 *355:45 *641:12 0.000114645
42 *355:45 *659:116 0.00021382
43 *355:56 *641:12 0.00011218
44 *355:56 *659:116 0.000215131
45 *355:67 *2440:S1 7.37814e-06
46 *355:67 *410:31 2.76611e-06
47 *355:67 *641:10 0
48 *355:67 *641:12 9.67547e-05
49 *355:67 *659:116 0.000232142
50 *355:75 *418:10 0.000141318
51 *355:90 *410:8 3.884e-05
52 *355:90 *634:115 0
53 *355:90 *678:40 0
54 *2535:S *2782:CLK 7.07238e-05
55 *2535:S *355:75 1.21972e-05
56 *2628:D *355:90 0.000191382
57 *2636:D *2636:CLK 1.64354e-05
58 *2692:D *355:29 1.64354e-05
59 *2782:D *2782:CLK 0.000228597
60 *2782:D *355:75 0.000168396
61 *297:12 *2750:CLK 0.000135143
62 *299:8 *355:75 7.91871e-05
63 *336:22 *2725:CLK 1.94812e-05
64 *339:40 *2680:CLK 0.000130353
65 *339:40 *355:90 3.17516e-05
66 *345:52 *2820:A 0.000148688
*RES
1 *2805:X *355:6 38 
2 *355:6 *355:8 2.96214 
3 *355:8 *355:10 1.90571 
4 *355:10 *2750:CLK 41.6664 
5 *355:10 *355:29 28.195 
6 *355:29 *2692:CLK 23 
7 *355:8 *2725:CLK 38.6214 
8 *355:6 *355:45 2.96214 
9 *355:45 *2820:A 43.8621 
10 *355:45 *355:56 2.96214 
11 *355:56 *2644:CLK 38.6214 
12 *355:56 *355:67 3.31429 
13 *355:67 *355:75 21.9807 
14 *355:75 *2782:CLK 26.9564 
15 *355:75 *355:90 38.4721 
16 *355:90 *2680:CLK 27.4329 
17 *355:90 *2628:CLK 23 
18 *355:67 *2636:CLK 44.815 
*END

*D_NET *356 0.0176186
*CONN
*I *2724:CLK I *D sky130_fd_sc_hd__dfxtp_1
*I *2821:A I *D sky130_fd_sc_hd__clkbuf_8
*I *2627:CLK I *D sky130_fd_sc_hd__dfxtp_1
*I *2749:CLK I *D sky130_fd_sc_hd__dfxtp_1
*I *2691:CLK I *D sky130_fd_sc_hd__dfxtp_1
*I *2699:CLK I *D sky130_fd_sc_hd__dfxtp_1
*I *2781:CLK I *D sky130_fd_sc_hd__dfxtp_1
*I *2635:CLK I *D sky130_fd_sc_hd__dfxtp_1
*I *2683:CLK I *D sky130_fd_sc_hd__dfxtp_1
*I *2789:CLK I *D sky130_fd_sc_hd__dfxtp_1
*I *2667:CLK I *D sky130_fd_sc_hd__dfxtp_1
*I *2651:CLK I *D sky130_fd_sc_hd__dfxtp_1
*I *2640:CLK I *D sky130_fd_sc_hd__dfxtp_1
*I *2806:X O *D sky130_fd_sc_hd__clkbuf_8
*CAP
1 *2724:CLK 0.000813499
2 *2821:A 0
3 *2627:CLK 3.40472e-05
4 *2749:CLK 2.30556e-05
5 *2691:CLK 0
6 *2699:CLK 0.000134284
7 *2781:CLK 0
8 *2635:CLK 7.02584e-05
9 *2683:CLK 0
10 *2789:CLK 0
11 *2667:CLK 8.70801e-05
12 *2651:CLK 0
13 *2640:CLK 0.000140843
14 *2806:X 0.000405474
15 *356:157 0.000860122
16 *356:132 0.000126199
17 *356:117 0.000882444
18 *356:107 0.00134447
19 *356:98 0.000699449
20 *356:79 0.000115499
21 *356:71 0.000138981
22 *356:51 0.000206246
23 *356:41 0.000850957
24 *356:39 0.00127612
25 *356:24 0.00113909
26 *356:20 0.000579949
27 *356:14 0.000345683
28 *356:12 0.000355784
29 *356:10 0.000634597
30 *2635:CLK *2472:A1 5.67058e-05
31 *2635:CLK *562:25 0.000255642
32 *2635:CLK *626:24 0.000113497
33 *2640:CLK *633:139 2.93845e-05
34 *2640:CLK *646:16 0.000125894
35 *2640:CLK *650:84 6.17437e-06
36 *2724:CLK *2594:A1 9.14693e-05
37 *2724:CLK *457:10 6.34418e-05
38 *2724:CLK *473:20 9.44012e-05
39 *356:12 *2594:A1 6.03737e-05
40 *356:14 *2594:A1 7.75329e-06
41 *356:20 *562:25 0.000139346
42 *356:20 *626:24 7.15126e-05
43 *356:20 *662:74 2.50227e-05
44 *356:20 *662:76 7.31043e-06
45 *356:24 *589:10 0.00030457
46 *356:24 *646:16 8.92841e-05
47 *356:24 *662:74 5.94125e-05
48 *356:39 *2539:A0 9.75779e-05
49 *356:39 *377:27 0.000363215
50 *356:39 *481:10 9.82009e-05
51 *356:41 *377:6 0.000312348
52 *356:41 *377:27 0.000127821
53 *356:79 *385:14 1.14452e-05
54 *356:107 *2994:A 0.000223698
55 *356:107 *643:66 0.000270659
56 *356:117 *2558:A0 0.000184527
57 *356:117 *2558:A1 5.5588e-05
58 *356:157 *2594:A1 5.41288e-05
59 *2667:D *356:41 0.000187073
60 *2724:D *2724:CLK 9.04092e-05
61 *2749:D *356:107 0.000490041
62 *2806:A *356:10 0.000228903
63 *48:10 *356:14 8.41115e-05
64 *48:10 *356:20 8.51329e-05
65 *72:8 *356:51 0
66 *88:8 *356:51 0
67 *104:8 *356:39 0.000588648
68 *120:8 *2699:CLK 6.09588e-05
69 *120:8 *356:117 0.000439728
70 *168:8 *356:79 7.66085e-05
71 *292:12 *2627:CLK 7.53384e-06
72 *292:18 *2627:CLK 1.40958e-05
73 *323:114 *356:10 0
74 *323:114 *356:12 0
75 *323:120 *2640:CLK 8.08511e-05
76 *323:120 *356:24 9.00809e-05
77 *334:66 *356:10 0
78 *334:66 *356:12 0
79 *334:66 *356:14 0
80 *334:66 *356:20 0
81 *334:66 *356:24 0
82 *334:74 *356:39 4.9346e-05
83 *336:77 *356:132 0
84 *337:107 *356:79 7.4878e-05
85 *340:73 *356:10 0.000279201
86 *340:83 *356:10 2.64616e-05
*RES
1 *2806:X *356:10 46.9486 
2 *356:10 *356:12 3.31429 
3 *356:12 *356:14 2.61 
4 *356:14 *356:20 19.8886 
5 *356:20 *356:24 22.8921 
6 *356:24 *2640:CLK 41.9357 
7 *356:24 *356:39 30.3907 
8 *356:39 *356:41 11.1029 
9 *356:41 *356:51 33.5007 
10 *356:51 *2651:CLK 23 
11 *356:41 *2667:CLK 25.2371 
12 *356:39 *356:71 0.497143 
13 *356:71 *356:79 33.5836 
14 *356:79 *2789:CLK 23 
15 *356:71 *2683:CLK 23 
16 *356:20 *2635:CLK 26.0036 
17 *356:14 *356:98 15 
18 *356:98 *2781:CLK 23 
19 *356:98 *356:107 13.5057 
20 *356:107 *356:117 12.3871 
21 *356:117 *2699:CLK 25.5479 
22 *356:117 *356:132 32.2579 
23 *356:132 *2691:CLK 23 
24 *356:107 *2749:CLK 23.4971 
25 *356:12 *2627:CLK 38.6214 
26 *356:10 *356:157 16.0979 
27 *356:157 *2821:A 23 
28 *356:157 *2724:CLK 37.0029 
*END

*D_NET *357 0.0159643
*CONN
*I *2711:CLK I *D sky130_fd_sc_hd__dfxtp_1
*I *2647:CLK I *D sky130_fd_sc_hd__dfxtp_1
*I *2639:CLK I *D sky130_fd_sc_hd__dfxtp_1
*I *2793:CLK I *D sky130_fd_sc_hd__dfxtp_1
*I *2687:CLK I *D sky130_fd_sc_hd__dfxtp_1
*I *2785:CLK I *D sky130_fd_sc_hd__dfxtp_1
*I *2631:CLK I *D sky130_fd_sc_hd__dfxtp_1
*I *2719:CLK I *D sky130_fd_sc_hd__dfxtp_1
*I *2753:CLK I *D sky130_fd_sc_hd__dfxtp_1
*I *2728:CLK I *D sky130_fd_sc_hd__dfxtp_1
*I *2695:CLK I *D sky130_fd_sc_hd__dfxtp_1
*I *2671:CLK I *D sky130_fd_sc_hd__dfxtp_1
*I *2655:CLK I *D sky130_fd_sc_hd__dfxtp_1
*I *2703:CLK I *D sky130_fd_sc_hd__dfxtp_1
*I *2807:X O *D sky130_fd_sc_hd__clkbuf_8
*CAP
1 *2711:CLK 0
2 *2647:CLK 0
3 *2639:CLK 0
4 *2793:CLK 0
5 *2687:CLK 0
6 *2785:CLK 0.000223868
7 *2631:CLK 4.28046e-05
8 *2719:CLK 0.000157755
9 *2753:CLK 0.000306074
10 *2728:CLK 0
11 *2695:CLK 0
12 *2671:CLK 0.000134518
13 *2655:CLK 0
14 *2703:CLK 0
15 *2807:X 0.000265926
16 *357:166 0.000254546
17 *357:153 0.000169846
18 *357:147 0.000845986
19 *357:133 0.0005207
20 *357:121 0.000684039
21 *357:119 0.000966151
22 *357:106 0.000685982
23 *357:95 0.000271414
24 *357:84 0.000392413
25 *357:71 0.000450443
26 *357:43 0.000715236
27 *357:34 0.000739635
28 *357:30 0.000722243
29 *357:26 0.000563327
30 *357:24 0.000866189
31 *357:16 0.000952681
32 *357:12 0.000180204
33 *357:8 0.000417062
34 *2753:CLK *2598:A1 1.39431e-05
35 *357:8 *2571:A1 0
36 *357:12 *646:48 6.17902e-05
37 *357:16 *653:81 3.24466e-05
38 *357:24 *2456:A3 0
39 *357:24 *461:8 5.56279e-05
40 *357:24 *477:8 3.2136e-05
41 *357:24 *646:48 1.69296e-05
42 *357:30 *477:8 0.000221406
43 *357:71 *653:81 3.04021e-05
44 *357:84 *653:71 7.03766e-05
45 *357:84 *653:81 5.5128e-05
46 *357:95 *653:71 0.000171119
47 *357:106 *653:71 2.65002e-05
48 *357:119 *485:29 7.38091e-05
49 *357:119 *653:71 6.7177e-06
50 *357:119 *653:105 9.11002e-05
51 *357:121 *485:29 0.000140259
52 *357:133 *2459:A1 5.26101e-05
53 *357:147 *485:29 2.32101e-05
54 *357:166 *653:127 0.000172416
55 *2598:S *2753:CLK 5.50049e-05
56 *2687:D *357:133 0.000105058
57 *2695:D *357:30 0.000233156
58 *2711:D *357:12 0.000144256
59 *2728:D *357:24 2.19805e-05
60 *2753:D *2753:CLK 2.07484e-05
61 *2793:D *357:133 5.99823e-05
62 *60:8 *357:153 0
63 *92:8 *2671:CLK 0
64 *124:8 *357:43 0
65 *132:8 *357:8 5.21024e-05
66 *312:6 *2719:CLK 9.68547e-05
67 *323:96 *357:166 5.79438e-05
68 *323:114 *357:8 0
69 *329:38 *2631:CLK 9.5877e-05
70 *332:42 *357:133 0.000265439
71 *332:48 *2671:CLK 0
72 *332:48 *357:34 0
73 *332:48 *357:43 0
74 *334:51 *2631:CLK 3.16784e-05
75 *334:51 *357:106 6.79006e-05
76 *334:66 *357:8 0.000120089
77 *337:142 *357:24 9.26098e-05
78 *338:100 *357:8 0
79 *342:26 *357:119 3.76118e-05
80 *342:30 *357:16 9.03784e-05
81 *342:30 *357:71 0.000111852
82 *342:30 *357:84 0.000247678
83 *342:30 *357:95 0.000432772
84 *342:30 *357:106 0.000219882
85 *342:30 *357:119 0.00042646
*RES
1 *2807:X *357:8 43.4271 
2 *357:8 *357:12 18.0036 
3 *357:12 *357:16 16.2014 
4 *357:16 *357:24 41.3514 
5 *357:24 *357:26 15 
6 *357:26 *357:30 12.0764 
7 *357:30 *357:34 17.9621 
8 *357:34 *2703:CLK 38 
9 *357:34 *357:43 11.4136 
10 *357:43 *2655:CLK 38 
11 *357:43 *2671:CLK 40.61 
12 *357:30 *2695:CLK 23 
13 *357:26 *2728:CLK 23 
14 *357:16 *357:71 1.55357 
15 *357:71 *2753:CLK 42.93 
16 *357:71 *357:84 3.31429 
17 *357:84 *2719:CLK 41.0036 
18 *357:84 *357:95 5.77929 
19 *357:95 *2631:CLK 39.0979 
20 *357:95 *357:106 2.96214 
21 *357:106 *2785:CLK 41.48 
22 *357:106 *357:119 23.5964 
23 *357:119 *357:121 3.00357 
24 *357:121 *357:133 41.1443 
25 *357:133 *2687:CLK 23 
26 *357:121 *2793:CLK 23 
27 *357:119 *357:147 7.31214 
28 *357:147 *357:153 33.3143 
29 *357:153 *2639:CLK 23 
30 *357:147 *357:166 34.785 
31 *357:166 *2647:CLK 23 
32 *357:12 *2711:CLK 23 
*END

*D_NET *358 0.0103586
*CONN
*I *2713:CLK I *D sky130_fd_sc_hd__dfxtp_1
*I *2705:CLK I *D sky130_fd_sc_hd__dfxtp_1
*I *2747:CLK I *D sky130_fd_sc_hd__dfxtp_1
*I *2822:A I *D sky130_fd_sc_hd__clkinv_4
*I *2689:CLK I *D sky130_fd_sc_hd__dfxtp_1
*I *2697:CLK I *D sky130_fd_sc_hd__dfxtp_1
*I *2643:CLK I *D sky130_fd_sc_hd__dfxtp_1
*I *2715:CLK I *D sky130_fd_sc_hd__dfxtp_1
*I *2707:CLK I *D sky130_fd_sc_hd__dfxtp_1
*I *2808:X O *D sky130_fd_sc_hd__clkbuf_8
*CAP
1 *2713:CLK 0.000120178
2 *2705:CLK 0.000307534
3 *2747:CLK 0
4 *2822:A 0
5 *2689:CLK 0
6 *2697:CLK 4.04333e-05
7 *2643:CLK 0.000147528
8 *2715:CLK 0
9 *2707:CLK 0
10 *2808:X 0
11 *358:74 7.2425e-05
12 *358:61 0.000727641
13 *358:34 0.000260205
14 *358:26 0.000898486
15 *358:22 0.000947653
16 *358:20 0.000935403
17 *358:16 0.000309134
18 *358:14 0.000418963
19 *358:10 0.000742776
20 *358:4 0.000286814
21 *2643:CLK *626:43 0.000198545
22 *2643:CLK *643:31 3.85813e-05
23 *2713:CLK *359:38 0.000145033
24 *358:10 *643:116 0.000369077
25 *358:22 *2930:A 0.000224345
26 *358:22 *393:10 0.000138727
27 *358:26 *663:37 0.000290624
28 *358:34 *441:10 2.71291e-05
29 *358:34 *523:8 1.01436e-05
30 *358:34 *637:121 3.95949e-05
31 *358:34 *650:76 8.90608e-05
32 *358:34 *650:84 0.00022109
33 *358:74 *2556:A0 0.000222113
34 *358:74 *666:45 0.000218952
35 *2643:D *2643:CLK 0.000230559
36 *2697:D *358:61 0.000100124
37 *2715:D *358:34 1.64354e-05
38 *118:8 *358:61 3.56537e-05
39 *136:10 *358:26 5.01247e-05
40 *150:12 *358:10 0.000177453
41 *150:12 *358:14 0.000144256
42 *292:18 *358:22 7.64851e-06
43 *292:18 *358:26 0.000118899
44 *293:8 *358:34 0.000135357
45 *327:49 *358:22 0
46 *327:49 *358:61 0
47 *327:65 *358:34 8.97304e-05
48 *331:27 *2713:CLK 0.000166062
49 *333:24 *2697:CLK 1.59094e-05
50 *333:24 *358:61 0.000110951
51 *336:57 *358:61 0
52 *338:109 *358:22 0.000135262
53 *338:109 *358:26 0.000264657
54 *338:109 *358:61 0.000111286
55 *339:32 *358:26 0
56 *339:36 *358:26 0
*RES
1 *2808:X *358:4 23 
2 *358:4 *358:10 35.075 
3 *358:10 *358:14 4.45357 
4 *358:14 *358:16 2.52714 
5 *358:16 *358:20 17.5271 
6 *358:20 *358:22 5.42714 
7 *358:22 *358:26 29.935 
8 *358:26 *358:34 37.0429 
9 *358:34 *2707:CLK 23 
10 *358:26 *2715:CLK 23 
11 *358:22 *2643:CLK 42.4536 
12 *358:20 *358:61 26.7243 
13 *358:61 *2697:CLK 23.6214 
14 *358:61 *358:74 32.9621 
15 *358:74 *2689:CLK 23 
16 *358:16 *2822:A 23 
17 *358:14 *2747:CLK 23 
18 *358:10 *2705:CLK 28.5514 
19 *358:4 *2713:CLK 26.48 
*END

*D_NET *359 0.0156226
*CONN
*I *2787:CLK I *D sky130_fd_sc_hd__dfxtp_1
*I *2649:CLK I *D sky130_fd_sc_hd__dfxtp_1
*I *2633:CLK I *D sky130_fd_sc_hd__dfxtp_1
*I *2625:CLK I *D sky130_fd_sc_hd__dfxtp_1
*I *2779:CLK I *D sky130_fd_sc_hd__dfxtp_1
*I *2665:CLK I *D sky130_fd_sc_hd__dfxtp_1
*I *2641:CLK I *D sky130_fd_sc_hd__dfxtp_1
*I *2722:CLK I *D sky130_fd_sc_hd__dfxtp_1
*I *2823:A I *D sky130_fd_sc_hd__bufinv_16
*I *2679:CLK I *D sky130_fd_sc_hd__dfxtp_1
*I *2663:CLK I *D sky130_fd_sc_hd__dfxtp_1
*I *2809:X O *D sky130_fd_sc_hd__clkbuf_8
*CAP
1 *2787:CLK 0.000446872
2 *2649:CLK 0
3 *2633:CLK 0
4 *2625:CLK 2.34823e-05
5 *2779:CLK 0
6 *2665:CLK 0
7 *2641:CLK 0
8 *2722:CLK 0
9 *2823:A 0.000214057
10 *2679:CLK 0
11 *2663:CLK 5.13116e-05
12 *2809:X 0
13 *359:123 0.000890824
14 *359:112 0.000559844
15 *359:94 0.000218068
16 *359:84 0.000311046
17 *359:82 0.00129424
18 *359:80 0.00113233
19 *359:73 4.84836e-05
20 *359:66 0.000661628
21 *359:55 0.000902539
22 *359:38 0.000935219
23 *359:29 0.0001188
24 *359:14 0.00110424
25 *359:4 0.00138938
26 *2787:CLK *2873:A 0
27 *2787:CLK *582:8 2.5415e-05
28 *2823:A *447:8 0.000264208
29 *2823:A *643:116 0
30 *359:14 *2556:A0 5.67058e-05
31 *359:14 *2946:A 9.84851e-05
32 *359:14 *429:8 0.000226295
33 *359:29 *644:59 0
34 *359:55 *447:8 0.000189431
35 *359:55 *643:116 0
36 *359:55 *643:126 0
37 *359:55 *666:86 0.000131444
38 *359:66 *611:16 0
39 *359:66 *643:126 0
40 *359:66 *666:86 0.000187986
41 *359:82 *391:10 0.000139352
42 *359:82 *643:155 0.000180224
43 *359:84 *643:155 0.000356718
44 *359:94 *643:155 0.00014196
45 *359:112 *399:14 0
46 *359:112 *666:20 0.000134269
47 *359:112 *666:28 8.40914e-05
48 *359:112 *677:87 0
49 *359:123 *2873:A 0
50 *2496:S *359:84 3.32288e-05
51 *2496:S *359:94 4.39278e-05
52 *2500:S *359:66 0
53 *2500:S *359:123 9.28842e-05
54 *2625:D *359:84 0.000189681
55 *2641:D *359:82 1.64354e-05
56 *2663:D *359:14 0.000143599
57 *2665:D *359:123 1.64354e-05
58 *2713:CLK *359:38 0.000145033
59 *2809:A *359:14 0.000396695
60 *2809:A *359:38 0.000126114
61 *46:8 *359:94 0
62 *46:8 *359:112 0.000323822
63 *62:10 *359:66 2.76611e-06
64 *70:10 *2787:CLK 9.4537e-06
65 *70:10 *359:123 4.5553e-05
66 *86:10 *359:123 1.17049e-05
67 *158:8 *359:112 0.000136486
68 *323:62 *359:123 4.96264e-05
69 *323:114 *359:29 5.26054e-05
70 *325:81 *359:94 0
71 *327:34 *359:82 0.000167533
72 *327:34 *359:84 1.32939e-05
73 *329:24 *359:123 2.7237e-05
74 *329:36 *359:66 0
75 *331:27 *359:38 4.02912e-05
76 *332:18 *359:123 0
77 *332:28 *359:123 0
78 *332:153 *359:66 0
79 *332:153 *359:123 0.000101657
80 *336:65 *2663:CLK 1.73399e-05
81 *336:65 *359:14 0.000106404
82 *337:79 *2823:A 0.00010018
83 *337:83 *359:14 0.000165918
84 *337:83 *359:38 4.05745e-05
85 *337:95 *359:14 0.000367249
86 *341:24 *359:66 2.30917e-05
87 *345:94 *359:38 9.67842e-05
*RES
1 *2809:X *359:4 23 
2 *359:4 *359:14 21.4393 
3 *359:14 *2663:CLK 24.1186 
4 *359:14 *359:29 32.2579 
5 *359:29 *2679:CLK 23 
6 *359:4 *359:38 23.2443 
7 *359:38 *2823:A 42.7643 
8 *359:38 *359:55 6.19357 
9 *359:55 *2722:CLK 38 
10 *359:55 *359:66 26.4136 
11 *359:66 *2641:CLK 23 
12 *359:66 *359:73 0.621429 
13 *359:73 *2665:CLK 23 
14 *359:73 *359:80 0.497143 
15 *359:80 *359:82 12.0557 
16 *359:82 *359:84 3.95643 
17 *359:84 *359:94 34.4536 
18 *359:94 *2779:CLK 23 
19 *359:84 *2625:CLK 23.4971 
20 *359:82 *359:112 43.5264 
21 *359:112 *2633:CLK 23 
22 *359:80 *359:123 23.4307 
23 *359:123 *2649:CLK 38 
24 *359:123 *2787:CLK 45.3329 
*END

*D_NET *360 0.0100346
*CONN
*I *2824:A I *D sky130_fd_sc_hd__inv_6
*I *2690:CLK I *D sky130_fd_sc_hd__dfxtp_1
*I *2723:CLK I *D sky130_fd_sc_hd__dfxtp_1
*I *2698:CLK I *D sky130_fd_sc_hd__dfxtp_1
*I *2674:CLK I *D sky130_fd_sc_hd__dfxtp_1
*I *2706:CLK I *D sky130_fd_sc_hd__dfxtp_1
*I *2748:CLK I *D sky130_fd_sc_hd__dfxtp_1
*I *2810:X O *D sky130_fd_sc_hd__clkbuf_8
*CAP
1 *2824:A 8.47153e-05
2 *2690:CLK 0.000320634
3 *2723:CLK 0
4 *2698:CLK 0.000587321
5 *2674:CLK 0.0005965
6 *2706:CLK 0
7 *2748:CLK 0
8 *2810:X 0.000150564
9 *360:39 0.000143794
10 *360:33 0.00110829
11 *360:22 0.000597208
12 *360:14 0.00083166
13 *360:12 0.000197873
14 *360:10 0.00058871
15 *360:8 0.000320611
16 *2674:CLK *509:10 0.00010655
17 *2698:CLK *642:64 0.000168829
18 *360:33 *2931:A 9.5877e-05
19 *360:33 *448:8 5.41288e-05
20 *360:39 *2424:A0 4.24313e-05
21 *360:39 *456:10 0.000138145
22 *2690:D *2690:CLK 1.64354e-05
23 *2698:D *2698:CLK 3.44735e-05
24 *2748:D *360:33 0.000501813
25 *151:8 *360:39 7.03869e-05
26 *325:51 *2674:CLK 0.000352186
27 *325:51 *360:22 7.73854e-05
28 *325:51 *360:33 8.94963e-05
29 *331:56 *360:8 0.000567191
30 *336:10 *2824:A 0.000111148
31 *336:10 *360:10 9.39262e-05
32 *336:10 *360:12 0.000122304
33 *336:14 *360:12 0.000243578
34 *336:14 *360:14 6.48142e-05
35 *336:14 *360:22 0.000139647
36 *341:103 *360:39 0.000236962
37 *341:105 *360:39 0.000169683
38 *342:71 *2824:A 0.000107548
39 *342:71 *360:10 9.17704e-05
40 *342:71 *360:12 0.000238625
41 *342:71 *360:14 2.84912e-05
42 *342:71 *360:22 6.79006e-05
43 *345:12 *360:8 0.000227208
44 *345:14 *360:8 0.000140259
45 *345:20 *360:8 0.000107476
*RES
1 *2810:X *360:8 44.3386 
2 *360:8 *360:10 2.61 
3 *360:10 *360:12 6.48357 
4 *360:12 *360:14 0.849286 
5 *360:14 *360:22 19.93 
6 *360:22 *2748:CLK 23 
7 *360:22 *360:33 10.3157 
8 *360:33 *360:39 35.4271 
9 *360:39 *2706:CLK 23 
10 *360:33 *2674:CLK 35.5321 
11 *360:14 *2698:CLK 46.6171 
12 *360:12 *2723:CLK 38 
13 *360:10 *2690:CLK 42.93 
14 *360:8 *2824:A 40.9621 
*END

*D_NET *361 0.0127561
*CONN
*I *2825:A I *D sky130_fd_sc_hd__clkinvlp_4
*I *2658:CLK I *D sky130_fd_sc_hd__dfxtp_1
*I *2714:CLK I *D sky130_fd_sc_hd__dfxtp_1
*I *2634:CLK I *D sky130_fd_sc_hd__dfxtp_1
*I *2682:CLK I *D sky130_fd_sc_hd__dfxtp_1
*I *2788:CLK I *D sky130_fd_sc_hd__dfxtp_1
*I *2650:CLK I *D sky130_fd_sc_hd__dfxtp_1
*I *2666:CLK I *D sky130_fd_sc_hd__dfxtp_1
*I *2659:CLK I *D sky130_fd_sc_hd__dfxtp_1
*I *2675:CLK I *D sky130_fd_sc_hd__dfxtp_1
*I *2811:X O *D sky130_fd_sc_hd__clkbuf_8
*CAP
1 *2825:A 0
2 *2658:CLK 0.000277989
3 *2714:CLK 0
4 *2634:CLK 0
5 *2682:CLK 0
6 *2788:CLK 0
7 *2650:CLK 0
8 *2666:CLK 0
9 *2659:CLK 0
10 *2675:CLK 0
11 *2811:X 0
12 *361:101 0.000442069
13 *361:97 0.000319041
14 *361:90 0.000585968
15 *361:75 0.000624987
16 *361:66 0.000197759
17 *361:50 0.000186687
18 *361:32 0.000226463
19 *361:26 0.000550085
20 *361:22 0.000807955
21 *361:16 0.000492821
22 *361:12 0.000946232
23 *361:10 0.000988739
24 *361:4 0.000551383
25 *2658:CLK *642:33 0.000394999
26 *2658:CLK *642:54 3.45353e-05
27 *361:10 *637:26 0.000284387
28 *361:10 *664:28 0
29 *361:10 *664:43 0
30 *361:12 *384:10 9.3152e-05
31 *361:12 *480:6 5.50106e-05
32 *361:12 *480:31 0.000168693
33 *361:12 *648:98 0.000347205
34 *361:22 *425:10 7.24484e-05
35 *361:32 *2433:A2 0
36 *361:32 *643:12 0.000110116
37 *361:50 *643:23 3.7122e-06
38 *361:50 *644:49 9.84851e-05
39 *361:75 *648:86 1.14154e-05
40 *361:75 *648:98 5.50106e-05
41 *361:90 *400:8 1.59094e-05
42 *361:90 *644:35 2.64616e-05
43 *361:90 *648:86 0.00105848
44 *361:97 *642:54 7.45491e-05
45 *361:101 *642:54 0.000100415
46 *2576:S *361:26 0
47 *2650:D *361:12 4.17736e-05
48 *2650:D *361:16 0.000191382
49 *2659:D *361:26 1.64354e-05
50 *2682:D *361:12 1.64354e-05
51 *2714:D *2658:CLK 0.000527062
52 *55:8 *361:90 1.83667e-05
53 *71:8 *361:66 0.000379413
54 *143:8 *361:10 0.000116314
55 *285:24 *2658:CLK 3.46255e-05
56 *332:153 *361:66 4.21594e-06
57 *333:46 *361:90 0.000185755
58 *333:54 *361:90 2.93845e-05
59 *337:28 *361:66 0
60 *340:16 *361:10 0.000673477
61 *340:24 *361:10 8.10336e-05
62 *345:12 *361:10 0
63 *345:72 *361:32 0.000195883
64 *345:72 *361:50 0
65 *345:152 *361:90 4.13521e-05
*RES
1 *2811:X *361:4 23 
2 *361:4 *361:10 41.4136 
3 *361:10 *361:12 11.1029 
4 *361:12 *361:16 3.97714 
5 *361:16 *361:22 6.02786 
6 *361:22 *361:26 5.28214 
7 *361:26 *361:32 35.4271 
8 *361:32 *2675:CLK 23 
9 *361:26 *2659:CLK 23 
10 *361:22 *361:50 33.3557 
11 *361:50 *2666:CLK 23 
12 *361:16 *2650:CLK 23 
13 *361:12 *361:66 35.075 
14 *361:66 *2788:CLK 23 
15 *361:10 *361:75 1.11857 
16 *361:75 *2682:CLK 23 
17 *361:75 *361:90 45.2871 
18 *361:90 *2634:CLK 23 
19 *361:4 *361:97 3.00357 
20 *361:97 *361:101 3.50071 
21 *361:101 *2714:CLK 23 
22 *361:101 *2658:CLK 31.7621 
23 *361:97 *2825:A 23 
*END

*D_NET *362 0.000496653
*CONN
*I *2721:D I *D sky130_fd_sc_hd__dfstp_1
*I *2413:X O *D sky130_fd_sc_hd__and3_1
*CAP
1 *2721:D 0
2 *2413:X 0.000248327
3 *362:8 0.000248327
*RES
1 *2413:X *362:8 27.3293 
2 *362:8 *2721:D 23 
*END

*D_NET *363 0.0121482
*CONN
*I *2306:A I *D sky130_fd_sc_hd__xor2_1
*I *2383:A I *D sky130_fd_sc_hd__xnor2_1
*I *2774:Q O *D sky130_fd_sc_hd__dfrtp_1
*CAP
1 *2306:A 0
2 *2383:A 4.24511e-05
3 *2774:Q 0.000105356
4 *363:33 0.000639774
5 *363:18 0.000362952
6 *363:10 0.00370675
7 *363:8 0.00285183
8 *363:10 *2394:B1 0.000102391
9 *363:10 *2733:CLK 0
10 *363:10 *2760:RESET_B 0
11 *363:10 *633:8 0
12 *363:10 *633:14 0
13 *363:10 *634:36 0.000133316
14 *363:10 *634:168 0.000177348
15 *363:10 *640:14 0
16 *363:10 *642:12 0.000194843
17 *363:10 *642:99 0
18 *363:10 *668:79 0
19 *363:10 *669:87 0.000442958
20 *363:10 *669:100 0.000216793
21 *363:10 *675:32 1.80023e-05
22 *363:10 *675:42 0
23 *363:10 *675:59 0
24 *363:10 *675:68 0
25 *363:10 *676:64 0
26 *363:10 *677:27 0
27 *363:10 *720:48 0
28 *363:10 *724:12 0.00133492
29 *363:10 *740:10 0
30 *363:10 *742:10 7.03663e-05
31 *363:10 *746:14 0
32 *363:10 *746:27 0.000196904
33 *363:18 *2386:B 2.64616e-05
34 *363:18 *677:27 5.3656e-05
35 *363:18 *744:16 5.61414e-05
36 *363:33 *366:12 0
37 *363:33 *676:64 0
38 *363:33 *677:27 0
39 *2306:B *363:33 5.50106e-05
40 *174:8 *363:18 4.18979e-05
41 *175:46 *363:33 6.7177e-06
42 *176:6 *363:33 9.84851e-05
43 *188:8 *363:33 0.000137727
44 *188:16 *363:33 8.16459e-05
45 *198:18 *363:18 0.000121021
46 *260:35 *363:10 0.000148391
47 *261:10 *363:18 5.3304e-05
48 *261:10 *363:33 0.000138727
49 *262:8 *363:10 0.00021673
50 *262:8 *363:33 0.000100778
51 *263:10 *363:33 0
52 *267:10 *363:10 0.000159802
53 *269:14 *363:10 0
54 *348:95 *363:8 5.47927e-05
*RES
1 *2774:Q *363:8 39.5743 
2 *363:8 *363:10 61.77 
3 *363:10 *363:18 36.6907 
4 *363:18 *2383:A 38.6214 
5 *363:10 *363:33 29.6243 
6 *363:33 *2306:A 23 
*END

*D_NET *364 0.00332489
*CONN
*I *2304:A I *D sky130_fd_sc_hd__xnor2_2
*I *2290:A I *D sky130_fd_sc_hd__inv_2
*I *2775:Q O *D sky130_fd_sc_hd__dfrtp_1
*CAP
1 *2304:A 0.000257396
2 *2290:A 7.48079e-05
3 *2775:Q 0
4 *364:8 0.000902486
5 *364:6 0.000570282
6 *2304:A *2303:A 9.84851e-05
7 *2304:A *676:64 0.000428031
8 *2304:A *731:21 0
9 *364:8 *633:8 0.000206395
10 *364:8 *633:93 8.93663e-05
11 *364:8 *676:64 0.000431843
12 *364:8 *731:21 0
13 *364:8 *733:37 0.000126452
14 *198:18 *2290:A 0.000139346
15 *260:35 *364:8 0
*RES
1 *2775:Q *364:6 38 
2 *364:6 *364:8 14.2307 
3 *364:8 *2290:A 39.5743 
4 *364:8 *2304:A 44.8771 
*END

*D_NET *365 0.0026296
*CONN
*I *2302:A I *D sky130_fd_sc_hd__xor2_2
*I *2378:A I *D sky130_fd_sc_hd__xor2_1
*I *2776:Q O *D sky130_fd_sc_hd__dfrtp_1
*CAP
1 *2302:A 0.000217408
2 *2378:A 0.000654904
3 *2776:Q 8.12967e-05
4 *365:8 0.000953609
5 *2302:A *731:21 0
6 *2302:A *732:21 0.000219882
7 *2378:A *676:54 0.000140259
8 *365:8 *676:54 3.31683e-05
9 *365:8 *731:21 0
10 *365:8 *732:21 0.000138718
11 *2388:C *2378:A 7.53384e-06
12 *198:18 *2302:A 0.000182826
*RES
1 *2776:Q *365:8 39.9057 
2 *365:8 *2378:A 49.5793 
3 *365:8 *2302:A 43.0129 
*END

*D_NET *366 0.00332972
*CONN
*I *2740:D I *D sky130_fd_sc_hd__dfrtp_1
*I *2389:Y O *D sky130_fd_sc_hd__nor2_1
*CAP
1 *2740:D 0
2 *2389:Y 0
3 *366:12 0.000926384
4 *366:6 0.000926384
5 *366:12 *2740:RESET_B 5.03619e-05
6 *366:12 *677:27 0.00108002
7 *175:46 *366:12 0.000221172
8 *246:8 *366:12 0
9 *246:23 *366:12 0.000125404
10 *363:33 *366:12 0
*RES
1 *2389:Y *366:6 38 
2 *366:6 *366:12 38.635 
3 *366:12 *2740:D 23 
*END

*D_NET *367 0.0035144
*CONN
*I *2940:A I *D sky130_fd_sc_hd__dlygate4sd3_1
*I *2419:A0 I *D sky130_fd_sc_hd__mux4_1
*I *2673:Q O *D sky130_fd_sc_hd__dfxtp_1
*CAP
1 *2940:A 0.00076838
2 *2419:A0 0
3 *2673:Q 0
4 *367:14 0.000294554
5 *367:4 0.00106293
6 *2940:A *666:106 0.000691496
7 *367:14 *2419:A1 1.94693e-05
8 *367:14 *577:8 8.76134e-05
9 *367:14 *666:106 0.000181125
10 *2673:CLK *2940:A 9.16459e-05
11 *331:27 *367:14 2.93747e-05
12 *336:10 *367:14 0.000261646
13 *342:67 *367:14 2.61636e-05
*RES
1 *2673:Q *367:4 23 
2 *367:4 *367:14 36.3386 
3 *367:14 *2419:A0 23 
4 *367:4 *2940:A 34.4757 
*END

*D_NET *368 0.00250958
*CONN
*I *2881:A I *D sky130_fd_sc_hd__dlygate4sd3_1
*I *2425:A0 I *D sky130_fd_sc_hd__mux4_1
*I *2674:Q O *D sky130_fd_sc_hd__dfxtp_1
*CAP
1 *2881:A 0
2 *2425:A0 0
3 *2674:Q 0
4 *368:27 0.000240717
5 *368:14 0.000660343
6 *368:4 0.00090106
7 *368:14 *647:78 0
8 *368:14 *647:89 0
9 *368:14 *705:12 2.64616e-05
10 *368:14 *705:20 2.64616e-05
11 *368:14 *705:33 8.4047e-05
12 *368:27 *2529:A0 9.84851e-05
13 *368:27 *634:52 0
14 *368:27 *705:12 0.000195293
15 *2529:S *368:27 7.71315e-05
16 *2674:D *368:14 6.82582e-05
17 *286:6 *368:14 3.3577e-05
18 *327:103 *368:14 2.60152e-05
19 *333:108 *368:27 7.17297e-05
*RES
1 *2674:Q *368:4 23 
2 *368:4 *368:14 38.8657 
3 *368:14 *2425:A0 23 
4 *368:4 *368:27 35.8621 
5 *368:27 *2881:A 23 
*END

*D_NET *369 0.00181576
*CONN
*I *2903:A I *D sky130_fd_sc_hd__dlygate4sd3_1
*I *2433:A0 I *D sky130_fd_sc_hd__mux4_1
*I *2675:Q O *D sky130_fd_sc_hd__dfxtp_1
*CAP
1 *2903:A 0.000201535
2 *2433:A0 0
3 *2675:Q 0
4 *369:14 0.000375519
5 *369:4 0.000577055
6 *369:14 *3000:A 0.000293785
7 *369:14 *650:66 5.50049e-05
8 *369:14 *650:76 0
9 *369:14 *663:69 0.000161121
10 *2675:D *369:14 2.20111e-05
11 *28:17 *2903:A 0.00011807
12 *28:17 *369:14 1.16622e-05
13 *80:10 *369:14 0
*RES
1 *2675:Q *369:4 23 
2 *369:4 *369:14 37.1671 
3 *369:14 *2433:A0 23 
4 *369:4 *2903:A 27.3293 
*END

*D_NET *370 0.00301533
*CONN
*I *2439:A0 I *D sky130_fd_sc_hd__mux4_1
*I *2918:A I *D sky130_fd_sc_hd__dlygate4sd3_1
*I *2676:Q O *D sky130_fd_sc_hd__dfxtp_1
*CAP
1 *2439:A0 0
2 *2918:A 0.000439807
3 *2676:Q 0.000471244
4 *370:12 0.000439807
5 *370:10 0.000471244
6 *2918:A *2439:A1 2.02872e-05
7 *2918:A *2531:A0 4.04303e-05
8 *2918:A *659:77 0.000311554
9 *370:10 *659:77 0.000138727
10 *2676:D *370:10 4.93341e-05
11 *331:108 *370:10 9.59224e-05
12 *333:122 *2918:A 0.000392861
13 *342:77 *370:10 0.00014411
*RES
1 *2676:Q *370:10 45.2914 
2 *370:10 *370:12 15 
3 *370:12 *2918:A 32.715 
4 *370:12 *2439:A0 23 
*END

*D_NET *371 0.00151073
*CONN
*I *2956:A I *D sky130_fd_sc_hd__dlygate4sd3_1
*I *2445:A0 I *D sky130_fd_sc_hd__mux4_1
*I *2677:Q O *D sky130_fd_sc_hd__dfxtp_1
*CAP
1 *2956:A 0.000283434
2 *2445:A0 0
3 *2677:Q 0.000217334
4 *371:10 0.000500768
5 *2956:A *2532:A0 5.50106e-05
6 *2956:A *2889:A 6.07611e-06
7 *2956:A *427:10 0.000175841
8 *2956:A *647:133 0
9 *371:10 *2889:A 8.51329e-05
10 *371:10 *443:10 0
11 *371:10 *642:111 0.000187129
12 *371:10 *647:133 0
*RES
1 *2677:Q *371:10 42.3086 
2 *371:10 *2445:A0 38 
3 *371:10 *2956:A 44.09 
*END

*D_NET *372 0.0020216
*CONN
*I *2943:A I *D sky130_fd_sc_hd__dlygate4sd3_1
*I *2451:A0 I *D sky130_fd_sc_hd__mux4_1
*I *2678:Q O *D sky130_fd_sc_hd__dfxtp_1
*CAP
1 *2943:A 0.000179969
2 *2451:A0 0.000147637
3 *2678:Q 0.000150108
4 *372:8 0.000477714
5 *2451:A0 *2515:A0 0.000185428
6 *2451:A0 *656:44 0.000189513
7 *2943:A *567:10 0
8 *372:8 *552:8 0.000163352
9 *2533:S *2943:A 5.50106e-05
10 *2708:CLK *2943:A 5.50106e-05
11 *338:65 *2451:A0 0.000400198
12 *339:69 *2451:A0 1.76557e-05
13 *354:38 *2943:A 0
14 *354:38 *372:8 0
*RES
1 *2678:Q *372:8 40.61 
2 *372:8 *2451:A0 43.8829 
3 *372:8 *2943:A 40.8793 
*END

*D_NET *373 0.000734503
*CONN
*I *2915:A I *D sky130_fd_sc_hd__dlygate4sd3_1
*I *2457:A0 I *D sky130_fd_sc_hd__mux4_1
*I *2679:Q O *D sky130_fd_sc_hd__dfxtp_1
*CAP
1 *2915:A 4.96451e-05
2 *2457:A0 0
3 *2679:Q 9.62281e-05
4 *373:12 7.83773e-05
5 *373:8 0.00012496
6 *2915:A *646:82 7.73389e-05
7 *373:8 *646:61 6.33511e-05
8 *373:8 *646:82 1.83667e-05
9 *373:12 *646:82 5.41385e-05
10 *325:81 *373:8 5.26204e-05
11 *339:110 *2915:A 6.53382e-05
12 *339:110 *373:12 5.41385e-05
*RES
1 *2679:Q *373:8 40.2579 
2 *373:8 *373:12 16.0979 
3 *373:12 *2457:A0 23 
4 *373:12 *2915:A 24.5743 
*END

*D_NET *374 0.00187556
*CONN
*I *2463:A0 I *D sky130_fd_sc_hd__mux4_1
*I *2908:A I *D sky130_fd_sc_hd__dlygate4sd3_1
*I *2680:Q O *D sky130_fd_sc_hd__dfxtp_1
*CAP
1 *2463:A0 0
2 *2908:A 0.000213802
3 *2680:Q 0.000333994
4 *374:25 7.6496e-05
5 *374:6 0.000624292
6 *374:6 *2581:A0 0.000262864
7 *374:25 *637:104 0.000141879
8 *374:25 *639:109 0
9 *2680:CLK *2908:A 5.50106e-05
10 *2680:D *2908:A 1.64354e-05
11 *101:10 *374:25 2.5415e-05
12 *339:40 *2908:A 0.000113708
13 *339:40 *374:6 1.16622e-05
*RES
1 *2680:Q *374:6 27.4329 
2 *374:6 *2908:A 27.9714 
3 *374:6 *374:25 31.9057 
4 *374:25 *2463:A0 23 
*END

*D_NET *375 0.00261703
*CONN
*I *2873:A I *D sky130_fd_sc_hd__dlygate4sd3_1
*I *2421:A2 I *D sky130_fd_sc_hd__mux4_1
*I *2665:Q O *D sky130_fd_sc_hd__dfxtp_1
*CAP
1 *2873:A 0.000248716
2 *2421:A2 0.000185659
3 *2665:Q 0.000309703
4 *375:10 0.000744079
5 *2421:A2 *2500:A1 9.84851e-05
6 *2421:A2 *667:24 0.000183733
7 *2873:A *587:8 0.000187281
8 *2787:CLK *2873:A 0
9 *70:10 *2873:A 0.000185342
10 *282:10 *375:10 3.83778e-05
11 *283:8 *2421:A2 0.000115247
12 *329:20 *375:10 1.70494e-05
13 *329:24 *375:10 5.26733e-06
14 *332:12 *2421:A2 0.000208721
15 *332:153 *2873:A 2.3529e-05
16 *332:153 *375:10 6.58373e-05
17 *359:123 *2873:A 0
*RES
1 *2665:Q *375:10 42.4329 
2 *375:10 *2421:A2 44.2661 
3 *375:10 *2873:A 43.7793 
*END

*D_NET *376 0.00366823
*CONN
*I *2428:A2 I *D sky130_fd_sc_hd__mux4_1
*I *2957:A I *D sky130_fd_sc_hd__dlygate4sd3_1
*I *2666:Q O *D sky130_fd_sc_hd__dfxtp_1
*CAP
1 *2428:A2 0
2 *2957:A 0
3 *2666:Q 0.000207833
4 *376:27 0.00049375
5 *376:12 0.00026817
6 *376:6 0.000969753
7 *376:6 *644:49 0.000264559
8 *376:12 *609:10 0.000137788
9 *376:27 *2898:A 1.14452e-05
10 *376:27 *384:10 6.48142e-05
11 *376:27 *644:49 0.000286287
12 *376:27 *664:54 3.0647e-05
13 *167:8 *376:12 0.000152941
14 *336:10 *376:12 8.30722e-05
15 *342:67 *376:12 0.000697172
*RES
1 *2666:Q *376:6 26.0036 
2 *376:6 *376:12 39.3007 
3 *376:12 *2957:A 23 
4 *376:6 *376:27 36.9859 
5 *376:27 *2428:A2 23 
*END

*D_NET *377 0.00315189
*CONN
*I *2435:A2 I *D sky130_fd_sc_hd__mux4_1
*I *2884:A I *D sky130_fd_sc_hd__dlygate4sd3_1
*I *2667:Q O *D sky130_fd_sc_hd__dfxtp_1
*CAP
1 *2435:A2 0
2 *2884:A 0
3 *2667:Q 0.000222524
4 *377:27 0.000434185
5 *377:12 0.00015692
6 *377:6 0.000813629
7 *377:12 *385:14 0.000167443
8 *377:27 *2435:A3 2.35426e-05
9 *377:27 *643:49 4.21533e-05
10 *168:8 *377:12 0
11 *337:107 *377:12 0.000351626
12 *342:42 *377:27 0.000136486
13 *356:39 *377:27 0.000363215
14 *356:41 *377:6 0.000312348
15 *356:41 *377:27 0.000127821
*RES
1 *2667:Q *377:6 26.48 
2 *377:6 *377:12 34.7229 
3 *377:12 *2884:A 23 
4 *377:6 *377:27 37.5659 
5 *377:27 *2435:A2 23 
*END

*D_NET *378 0.00212097
*CONN
*I *2928:A I *D sky130_fd_sc_hd__dlygate4sd3_1
*I *2441:A2 I *D sky130_fd_sc_hd__mux4_1
*I *2668:Q O *D sky130_fd_sc_hd__dfxtp_1
*CAP
1 *2928:A 0.000178957
2 *2441:A2 0.000321324
3 *2668:Q 0
4 *378:6 0.000500281
5 *2441:A2 *573:12 2.64506e-05
6 *2441:A2 *630:20 0
7 *2928:A *573:18 0.000130066
8 *2928:A *630:20 7.36813e-05
9 *73:8 *2441:A2 0.000116324
10 *73:8 *2928:A 7.70737e-05
11 *300:8 *2441:A2 0.00025425
12 *342:101 *2441:A2 0.000442566
*RES
1 *2668:Q *378:6 38 
2 *378:6 *2441:A2 47.2489 
3 *378:6 *2928:A 42.7229 
*END

*D_NET *379 0.00269815
*CONN
*I *2952:A I *D sky130_fd_sc_hd__dlygate4sd3_1
*I *2447:A2 I *D sky130_fd_sc_hd__mux4_1
*I *2669:Q O *D sky130_fd_sc_hd__dfxtp_1
*CAP
1 *2952:A 0.000279801
2 *2447:A2 0.000272796
3 *2669:Q 0.000391895
4 *379:10 0.000944493
5 *2447:A2 *2447:A1 0.000181125
6 *2447:A2 *483:16 7.3799e-05
7 *2952:A *530:8 0
8 *2952:A *628:12 0
9 *2952:A *647:45 0
10 *2952:A *657:44 0
11 *379:10 *657:44 0
12 *329:145 *2952:A 0.000139657
13 *329:145 *379:10 0.000188916
14 *347:65 *379:10 0.000171539
15 *347:67 *379:10 5.41288e-05
*RES
1 *2669:Q *379:10 44.09 
2 *379:10 *2447:A2 43.2045 
3 *379:10 *2952:A 43.075 
*END

*D_NET *380 0.00307699
*CONN
*I *2971:A I *D sky130_fd_sc_hd__dlygate4sd3_1
*I *2453:A2 I *D sky130_fd_sc_hd__mux4_1
*I *2670:Q O *D sky130_fd_sc_hd__dfxtp_1
*CAP
1 *2971:A 0.000413287
2 *2453:A2 0.000183507
3 *2670:Q 0.000229192
4 *380:10 0.000825986
5 *2453:A2 *2453:S1 0.000110152
6 *2453:A2 *548:16 1.16872e-05
7 *2971:A *595:31 0.000482844
8 *2971:A *655:10 0.000137651
9 *2971:A *655:36 8.43466e-05
10 *380:10 *2453:S1 0.00013866
11 *380:10 *641:73 8.72173e-05
12 *2718:CLK *380:10 0.000140927
13 *310:22 *2971:A 7.39392e-05
14 *332:92 *2453:A2 1.01712e-05
15 *334:76 *2453:A2 6.41631e-05
16 *334:76 *2971:A 2.24608e-05
17 *334:76 *380:10 6.08043e-05
*RES
1 *2670:Q *380:10 42.7125 
2 *380:10 *2453:A2 41.4127 
3 *380:10 *2971:A 46.7311 
*END

*D_NET *381 0.00235228
*CONN
*I *2459:A2 I *D sky130_fd_sc_hd__mux4_1
*I *2978:A I *D sky130_fd_sc_hd__dlygate4sd3_1
*I *2671:Q O *D sky130_fd_sc_hd__dfxtp_1
*CAP
1 *2459:A2 0.000244431
2 *2978:A 0
3 *2671:Q 0.000120021
4 *381:12 0.000319936
5 *381:6 0.000684388
6 *2459:A2 *485:14 0.000115336
7 *2459:A2 *607:18 0.000562284
8 *381:6 *607:18 0.000185428
9 *381:12 *2459:A1 0.000120456
10 *381:12 *607:10 0
11 *381:12 *607:18 0
12 *381:12 *653:19 0
*RES
1 *2671:Q *381:6 26.0036 
2 *381:6 *381:12 35.075 
3 *381:12 *2978:A 23 
4 *381:6 *2459:A2 30.5866 
*END

*D_NET *382 0.00238056
*CONN
*I *2916:A I *D sky130_fd_sc_hd__dlygate4sd3_1
*I *2465:A2 I *D sky130_fd_sc_hd__mux4_1
*I *2672:Q O *D sky130_fd_sc_hd__dfxtp_1
*CAP
1 *2916:A 0
2 *2465:A2 5.75052e-05
3 *2672:Q 0.00050104
4 *382:33 0.000464735
5 *382:12 0.00102328
6 *2465:A2 *390:18 2.16552e-05
7 *382:12 *390:18 8.56123e-05
8 *382:33 *390:18 3.04568e-05
9 *382:33 *494:37 0
10 *382:33 *701:8 0
11 *109:14 *382:33 2.79167e-05
12 *320:10 *382:12 9.41704e-05
13 *334:121 *382:33 7.41877e-05
14 *336:92 *382:33 0
*RES
1 *2672:Q *382:12 31.3064 
2 *382:12 *2465:A2 24.7038 
3 *382:12 *382:33 38.7414 
4 *382:33 *2916:A 23 
*END

*D_NET *383 0.00198582
*CONN
*I *2421:A3 I *D sky130_fd_sc_hd__mux4_1
*I *2877:A I *D sky130_fd_sc_hd__dlygate4sd3_1
*I *2649:Q O *D sky130_fd_sc_hd__dfxtp_1
*CAP
1 *2421:A3 0
2 *2877:A 0
3 *2649:Q 0
4 *383:25 0.000211425
5 *383:12 0.000198721
6 *383:4 0.000410145
7 *383:12 *540:18 0.00024897
8 *383:12 *667:24 0.00010018
9 *383:25 *667:14 1.3822e-05
10 *383:25 *667:24 8.264e-05
11 *2609:S *383:25 3.7473e-07
12 *102:8 *383:25 0.000140949
13 *166:10 *383:12 0.000167443
14 *264:20 *383:12 3.14377e-05
15 *264:20 *383:25 0.000261824
16 *284:12 *383:12 9.27917e-05
17 *342:16 *383:25 2.50994e-05
*RES
1 *2649:Q *383:4 23 
2 *383:4 *383:12 35.8207 
3 *383:12 *2877:A 23 
4 *383:4 *383:25 34.7643 
5 *383:25 *2421:A3 23 
*END

*D_NET *384 0.00270327
*CONN
*I *2898:A I *D sky130_fd_sc_hd__dlygate4sd3_1
*I *2428:A3 I *D sky130_fd_sc_hd__mux4_1
*I *2650:Q O *D sky130_fd_sc_hd__dfxtp_1
*CAP
1 *2898:A 0.00034648
2 *2428:A3 0
3 *2650:Q 0.000435231
4 *384:10 0.000781711
5 *2898:A *480:31 0.000205615
6 *2898:A *637:26 6.17437e-06
7 *2898:A *644:82 0.000561356
8 *2898:A *664:54 2.29895e-05
9 *384:10 *480:31 6.22372e-05
10 *384:10 *648:98 4.77461e-05
11 *384:10 *664:54 6.43149e-05
12 *264:20 *2898:A 0
13 *264:20 *384:10 0
14 *361:12 *384:10 9.3152e-05
15 *376:27 *2898:A 1.14452e-05
16 *376:27 *384:10 6.48142e-05
*RES
1 *2650:Q *384:10 45.6229 
2 *384:10 *2428:A3 38 
3 *384:10 *2898:A 47.6943 
*END

*D_NET *385 0.00178994
*CONN
*I *2435:A3 I *D sky130_fd_sc_hd__mux4_1
*I *2904:A I *D sky130_fd_sc_hd__dlygate4sd3_1
*I *2651:Q O *D sky130_fd_sc_hd__dfxtp_1
*CAP
1 *2435:A3 0.000212132
2 *2904:A 0
3 *2651:Q 0.000282726
4 *385:14 0.000128073
5 *385:8 0.000622931
6 *2435:A3 *643:49 3.70028e-05
7 *385:8 *662:8 3.22879e-05
8 *168:8 *385:14 0
9 *295:8 *2435:A3 0.000247387
10 *337:107 *385:14 2.49733e-05
11 *356:79 *385:14 1.14452e-05
12 *377:12 *385:14 0.000167443
13 *377:27 *2435:A3 2.35426e-05
*RES
1 *2651:Q *385:8 27.4536 
2 *385:8 *385:14 32.9621 
3 *385:14 *2904:A 23 
4 *385:8 *2435:A3 28.3857 
*END

*D_NET *386 0.00221261
*CONN
*I *2891:A I *D sky130_fd_sc_hd__dlygate4sd3_1
*I *2441:A3 I *D sky130_fd_sc_hd__mux4_1
*I *2652:Q O *D sky130_fd_sc_hd__dfxtp_1
*CAP
1 *2891:A 0.000255183
2 *2441:A3 0
3 *2652:Q 0.000388064
4 *386:14 0.000643247
5 *2891:A *645:151 0
6 *2891:A *659:62 7.15126e-05
7 *386:14 *482:12 0
8 *386:14 *645:151 0
9 *2684:CLK *386:14 5.2894e-05
10 *2684:D *386:14 1.86404e-05
11 *300:14 *2891:A 0.000386289
12 *300:14 *386:14 9.26098e-05
13 *329:111 *2891:A 0.000137651
14 *342:101 *2891:A 0.000166522
*RES
1 *2652:Q *386:14 44.5043 
2 *386:14 *2441:A3 38 
3 *386:14 *2891:A 45.0014 
*END

*D_NET *387 0.00157432
*CONN
*I *2896:A I *D sky130_fd_sc_hd__dlygate4sd3_1
*I *2447:A3 I *D sky130_fd_sc_hd__mux4_1
*I *2653:Q O *D sky130_fd_sc_hd__dfxtp_1
*CAP
1 *2896:A 0
2 *2447:A3 0
3 *2653:Q 0
4 *387:25 0.000249661
5 *387:12 0.000228965
6 *387:4 0.000478626
7 *387:12 *491:10 0
8 *387:12 *657:32 4.07715e-05
9 *387:25 *584:10 0
10 *387:25 *584:25 0
11 *387:25 *657:19 0.000167443
12 *387:25 *657:32 0.000139647
13 *2685:CLK *387:12 1.40958e-05
14 *2685:CLK *387:25 1.59094e-05
15 *106:10 *387:25 2.54046e-05
16 *329:145 *387:25 0
17 *347:55 *387:12 0.000194318
18 *347:65 *387:12 1.94812e-05
*RES
1 *2653:Q *387:4 23 
2 *387:4 *387:12 34.7643 
3 *387:12 *2447:A3 23 
4 *387:4 *387:25 35.3443 
5 *387:25 *2896:A 23 
*END

*D_NET *388 0.00245516
*CONN
*I *2993:A I *D sky130_fd_sc_hd__dlygate4sd3_1
*I *2453:A3 I *D sky130_fd_sc_hd__mux4_1
*I *2654:Q O *D sky130_fd_sc_hd__dfxtp_1
*CAP
1 *2993:A 0.000149853
2 *2453:A3 0.000157321
3 *2654:Q 0.000406714
4 *388:8 0.000713888
5 *2453:A3 *548:16 6.82416e-05
6 *2453:A3 *595:12 0.000133316
7 *2453:A3 *645:127 5.3304e-05
8 *2453:A3 *655:38 6.08751e-05
9 *2993:A *595:12 7.39034e-05
10 *2993:A *655:38 6.08751e-05
11 *2993:A *655:62 6.22475e-05
12 *310:22 *388:8 0.000183542
13 *329:123 *388:8 0.000180212
14 *332:92 *2453:A3 6.50913e-05
15 *334:76 *2993:A 8.57765e-05
*RES
1 *2654:Q *388:8 43.8621 
2 *388:8 *2453:A3 41.9564 
3 *388:8 *2993:A 41.6664 
*END

*D_NET *389 0.00275598
*CONN
*I *2459:A3 I *D sky130_fd_sc_hd__mux4_1
*I *2893:A I *D sky130_fd_sc_hd__dlygate4sd3_1
*I *2655:Q O *D sky130_fd_sc_hd__dfxtp_1
*CAP
1 *2459:A3 0.000195457
2 *2893:A 0.000148643
3 *2655:Q 0.000643188
4 *389:8 0.000987288
5 *2459:A3 *646:141 0.000268231
6 *2893:A *646:141 0.000139647
7 *389:8 *653:43 5.31757e-05
8 *389:8 *653:56 0.000181954
9 *76:10 *389:8 5.67058e-05
10 *329:38 *2893:A 8.16913e-05
*RES
1 *2655:Q *389:8 47.1971 
2 *389:8 *2893:A 41.48 
3 *389:8 *2459:A3 41.6664 
*END

*D_NET *390 0.00339712
*CONN
*I *2906:A I *D sky130_fd_sc_hd__dlygate4sd3_1
*I *2465:A3 I *D sky130_fd_sc_hd__mux4_1
*I *2656:Q O *D sky130_fd_sc_hd__dfxtp_1
*CAP
1 *2906:A 0.000339769
2 *2465:A3 0
3 *2656:Q 0.000278941
4 *390:18 0.000659362
5 *390:10 0.00127807
6 *2906:A *616:10 6.6978e-05
7 *2906:A *651:71 8.80821e-05
8 *2465:A2 *390:18 2.16552e-05
9 *77:8 *2906:A 0
10 *77:8 *390:10 0
11 *93:8 *2906:A 2.36844e-05
12 *93:8 *390:10 1.19796e-05
13 *109:14 *390:18 6.48049e-05
14 *332:72 *2906:A 0.000136486
15 *332:72 *390:10 0.000223034
16 *353:26 *390:10 8.82055e-05
17 *382:12 *390:18 8.56123e-05
18 *382:33 *390:18 3.04568e-05
*RES
1 *2656:Q *390:10 43.4893 
2 *390:10 *390:18 39.0936 
3 *390:18 *2465:A3 38 
4 *390:10 *2906:A 44.815 
*END

*D_NET *391 0.00245516
*CONN
*I *2976:A I *D sky130_fd_sc_hd__dlygate4sd3_1
*I *2420:A0 I *D sky130_fd_sc_hd__mux4_1
*I *2641:Q O *D sky130_fd_sc_hd__dfxtp_1
*CAP
1 *2976:A 0.000327224
2 *2420:A0 0
3 *2641:Q 0.00017198
4 *391:10 0.000499204
5 *2976:A *2959:A 0.000512677
6 *2976:A *399:14 0.000414372
7 *2976:A *407:8 6.38845e-05
8 *2976:A *677:87 1.22803e-05
9 *391:10 *399:14 1.01436e-05
10 *391:10 *407:8 0.000166513
11 *391:10 *643:145 3.71611e-05
12 *391:10 *667:38 8.62783e-05
13 *323:82 *2976:A 1.40958e-05
14 *359:82 *391:10 0.000139352
*RES
1 *2641:Q *391:10 41.8321 
2 *391:10 *2420:A0 38 
3 *391:10 *2976:A 46.7829 
*END

*D_NET *392 0.0023226
*CONN
*I *2980:A I *D sky130_fd_sc_hd__dlygate4sd3_1
*I *2427:A0 I *D sky130_fd_sc_hd__mux4_1
*I *2642:Q O *D sky130_fd_sc_hd__dfxtp_1
*CAP
1 *2980:A 0.000737796
2 *2427:A0 0.00015274
3 *2642:Q 0
4 *392:4 0.000890536
5 *2427:A0 *2427:A1 5.3304e-05
6 *2980:A *687:10 2.64616e-05
7 *2642:D *2980:A 0.000151119
8 *351:32 *2980:A 0.000310647
*RES
1 *2642:Q *392:4 23 
2 *392:4 *2427:A0 25.4236 
3 *392:4 *2980:A 34.9729 
*END

*D_NET *393 0.00392673
*CONN
*I *2930:A I *D sky130_fd_sc_hd__dlygate4sd3_1
*I *2434:A0 I *D sky130_fd_sc_hd__mux4_1
*I *2643:Q O *D sky130_fd_sc_hd__dfxtp_1
*CAP
1 *2930:A 7.56648e-05
2 *2434:A0 0
3 *2643:Q 0.000332794
4 *393:20 0.000801149
5 *393:10 0.00120961
6 *393:10 *643:31 1.99696e-05
7 *393:20 *2482:A1 0.000137651
8 *393:20 *603:8 1.02387e-05
9 *393:20 *626:16 5.42593e-05
10 *2643:D *393:10 4.96717e-05
11 *56:8 *393:20 8.06039e-05
12 *292:18 *2930:A 7.79942e-05
13 *292:18 *393:10 0.000138727
14 *292:18 *393:20 8.19793e-05
15 *325:83 *393:20 0.000117759
16 *325:93 *393:20 0.000211444
17 *327:49 *2930:A 4.31263e-05
18 *327:53 *393:20 0.000121021
19 *358:22 *2930:A 0.000224345
20 *358:22 *393:10 0.000138727
*RES
1 *2643:Q *393:10 42.9093 
2 *393:10 *393:20 45.1629 
3 *393:20 *2434:A0 38 
4 *393:10 *2930:A 40.9621 
*END

*D_NET *394 0.00174822
*CONN
*I *2912:A I *D sky130_fd_sc_hd__dlygate4sd3_1
*I *2440:A0 I *D sky130_fd_sc_hd__mux4_1
*I *2644:Q O *D sky130_fd_sc_hd__dfxtp_1
*CAP
1 *2912:A 0
2 *2440:A0 4.41216e-05
3 *2644:Q 0.000145797
4 *394:27 0.000259867
5 *394:12 0.000303989
6 *394:10 0.000145797
7 *2440:A0 *650:24 0.000103637
8 *394:10 *633:34 2.93747e-05
9 *394:27 *650:24 0.000195293
10 *299:8 *2440:A0 0.000103637
11 *299:8 *394:27 2.02872e-05
12 *299:16 *394:10 8.4047e-05
13 *336:14 *394:27 0.000218962
14 *337:30 *394:10 0
15 *342:71 *394:27 6.71749e-05
16 *342:77 *394:10 0
17 *342:77 *394:27 2.62361e-05
*RES
1 *2644:Q *394:10 40.5271 
2 *394:10 *394:12 15 
3 *394:12 *2440:A0 25.0507 
4 *394:12 *394:27 36.9186 
5 *394:27 *2912:A 23 
*END

*D_NET *395 0.00242359
*CONN
*I *2446:A0 I *D sky130_fd_sc_hd__mux4_1
*I *2964:A I *D sky130_fd_sc_hd__dlygate4sd3_1
*I *2645:Q O *D sky130_fd_sc_hd__dfxtp_1
*CAP
1 *2446:A0 0.000418935
2 *2964:A 0.000312183
3 *2645:Q 4.72972e-05
4 *395:8 0.000778416
5 *2446:A0 *403:18 0.000209213
6 *2446:A0 *647:67 0
7 *2964:A *634:74 9.16557e-05
8 *2964:A *637:60 0
9 *2964:A *647:67 0
10 *2964:A *658:51 0.000108682
11 *395:8 *2587:A1 1.94693e-05
12 *2814:A *2964:A 0.000223698
13 *302:10 *2964:A 0.000214036
*RES
1 *2645:Q *395:8 38.6214 
2 *395:8 *2964:A 46.4514 
3 *395:8 *2446:A0 44.4836 
*END

*D_NET *396 0.0020254
*CONN
*I *3001:A I *D sky130_fd_sc_hd__dlygate4sd3_1
*I *2452:A0 I *D sky130_fd_sc_hd__mux4_1
*I *2646:Q O *D sky130_fd_sc_hd__dfxtp_1
*CAP
1 *3001:A 0.000297283
2 *2452:A0 0
3 *2646:Q 2.34823e-05
4 *396:14 0.000227288
5 *396:6 0.000548054
6 *3001:A *420:8 0.000107238
7 *3001:A *633:50 0.000111041
8 *3001:A *641:40 6.51763e-05
9 *3001:A *645:28 0.000306344
10 *396:14 *420:8 2.93845e-05
11 *396:14 *655:75 0
12 *396:14 *655:112 0
13 *2646:D *3001:A 0.000212536
14 *339:44 *396:14 0
15 *354:26 *3001:A 9.75779e-05
*RES
1 *2646:Q *396:6 23.4971 
2 *396:6 *396:14 33.2314 
3 *396:14 *2452:A0 23 
4 *396:6 *3001:A 31.7414 
*END

*D_NET *397 0.00123426
*CONN
*I *2919:A I *D sky130_fd_sc_hd__dlygate4sd3_1
*I *2458:A0 I *D sky130_fd_sc_hd__mux4_1
*I *2647:Q O *D sky130_fd_sc_hd__dfxtp_1
*CAP
1 *2919:A 0.000164667
2 *2458:A0 0
3 *2647:Q 0
4 *397:12 0.000203848
5 *397:4 0.000368514
6 *397:12 *405:12 8.16253e-05
7 *397:12 *654:105 3.70094e-05
8 *68:8 *397:12 0
9 *323:96 *2919:A 0.000313255
10 *323:96 *397:12 6.53382e-05
*RES
1 *2647:Q *397:4 23 
2 *397:4 *397:12 33.8321 
3 *397:12 *2458:A0 23 
4 *397:4 *2919:A 26.9771 
*END

*D_NET *398 0.000662661
*CONN
*I *2464:A0 I *D sky130_fd_sc_hd__mux4_1
*I *2945:A I *D sky130_fd_sc_hd__dlygate4sd3_1
*I *2648:Q O *D sky130_fd_sc_hd__dfxtp_1
*CAP
1 *2464:A0 0
2 *2945:A 0.00012987
3 *2648:Q 0
4 *398:19 9.6107e-05
5 *398:4 0.000225977
6 *398:19 *652:87 0
7 *2648:D *2945:A 0.000141954
8 *69:8 *398:19 2.79004e-05
9 *319:14 *398:19 4.08537e-05
10 *325:97 *398:19 0
*RES
1 *2648:Q *398:4 23 
2 *398:4 *2945:A 25.9 
3 *398:4 *398:19 31.9057 
4 *398:19 *2464:A0 23 
*END

*D_NET *399 0.00329019
*CONN
*I *2981:A I *D sky130_fd_sc_hd__dlygate4sd3_1
*I *2420:A1 I *D sky130_fd_sc_hd__mux4_1
*I *2633:Q O *D sky130_fd_sc_hd__dfxtp_1
*CAP
1 *2981:A 0.000229982
2 *2420:A1 0
3 *2633:Q 0
4 *399:14 0.000821772
5 *399:4 0.00105175
6 *399:14 *415:10 5.3304e-05
7 *399:14 *536:8 8.62876e-05
8 *399:14 *643:145 0.000138727
9 *399:14 *666:20 0.000162463
10 *399:14 *666:28 2.70366e-05
11 *399:14 *667:38 3.7122e-06
12 *399:14 *677:87 0.000109512
13 *2633:D *399:14 0.000181125
14 *2976:A *399:14 0.000414372
15 *359:112 *399:14 0
16 *391:10 *399:14 1.01436e-05
*RES
1 *2633:Q *399:4 23 
2 *399:4 *399:14 45.8879 
3 *399:14 *2420:A1 23 
4 *399:4 *2981:A 27.3293 
*END

*D_NET *400 0.00466804
*CONN
*I *2878:A I *D sky130_fd_sc_hd__dlygate4sd3_1
*I *2427:A1 I *D sky130_fd_sc_hd__mux4_1
*I *2634:Q O *D sky130_fd_sc_hd__dfxtp_1
*CAP
1 *2878:A 0.000284972
2 *2427:A1 3.80122e-05
3 *2634:Q 0.000915611
4 *400:10 0.000372977
5 *400:8 0.000965604
6 *2878:A *2601:S 6.82514e-05
7 *2878:A *665:74 9.41704e-05
8 *2878:A *670:64 0.000221084
9 *400:8 *644:35 8.16643e-05
10 *2427:A0 *2427:A1 5.3304e-05
11 *2634:D *400:8 3.24476e-06
12 *331:48 *2878:A 0.000629206
13 *331:48 *400:10 0.000141879
14 *349:58 *2878:A 0.000182863
15 *349:64 *2878:A 0.000459638
16 *349:64 *400:10 0.000139647
17 *361:90 *400:8 1.59094e-05
*RES
1 *2634:Q *400:8 49.1029 
2 *400:8 *400:10 1.90571 
3 *400:10 *2427:A1 38.6214 
4 *400:10 *2878:A 49.1236 
*END

*D_NET *401 0.00253531
*CONN
*I *2434:A1 I *D sky130_fd_sc_hd__mux4_1
*I *2922:A I *D sky130_fd_sc_hd__dlygate4sd3_1
*I *2635:Q O *D sky130_fd_sc_hd__dfxtp_1
*CAP
1 *2434:A1 0.000264795
2 *2922:A 0.000155328
3 *2635:Q 9.91676e-05
4 *401:8 0.000519291
5 *2434:A1 *2434:A2 0.000113022
6 *2434:A1 *2854:A 0.000100522
7 *2434:A1 *417:6 9.98679e-05
8 *2434:A1 *500:10 0.000232132
9 *2434:A1 *646:54 1.01436e-05
10 *2922:A *2602:A0 0.000357631
11 *2922:A *500:10 8.62876e-05
12 *2922:A *633:129 0.000359326
13 *401:8 *562:25 9.84851e-05
14 *401:8 *626:16 1.32939e-05
15 *325:93 *2922:A 2.60152e-05
*RES
1 *2635:Q *401:8 39.5743 
2 *401:8 *2922:A 43.8621 
3 *401:8 *2434:A1 44.8357 
*END

*D_NET *402 0.0012531
*CONN
*I *2991:A I *D sky130_fd_sc_hd__dlygate4sd3_1
*I *2440:A1 I *D sky130_fd_sc_hd__mux4_1
*I *2636:Q O *D sky130_fd_sc_hd__dfxtp_1
*CAP
1 *2991:A 8.67309e-05
2 *2440:A1 0.000210854
3 *2636:Q 0.000218754
4 *402:8 0.00051634
5 *402:8 *2493:A0 2.93747e-05
6 *402:8 *661:79 5.78583e-05
7 *337:30 *2440:A1 9.00646e-05
8 *337:30 *2991:A 4.31263e-05
9 *342:71 *2440:A1 0
10 *342:71 *2991:A 0
11 *342:77 *2440:A1 0
*RES
1 *2636:Q *402:8 41.0036 
2 *402:8 *2440:A1 41.6664 
3 *402:8 *2991:A 39.9057 
*END

*D_NET *403 0.00322772
*CONN
*I *2892:A I *D sky130_fd_sc_hd__dlygate4sd3_1
*I *2446:A1 I *D sky130_fd_sc_hd__mux4_1
*I *2637:Q O *D sky130_fd_sc_hd__dfxtp_1
*CAP
1 *2892:A 0.000124104
2 *2446:A1 0
3 *2637:Q 9.73986e-05
4 *403:18 0.00042574
5 *403:8 0.000647242
6 *2892:A *637:60 0.000244526
7 *2892:A *650:24 2.64616e-05
8 *2892:A *705:33 0.000236614
9 *403:8 *633:34 0.000137651
10 *403:18 *2446:A2 3.49686e-05
11 *403:18 *637:60 0.000401825
12 *403:18 *647:78 0
13 *403:18 *705:33 0.000376252
14 *2446:A0 *403:18 0.000209213
15 *2798:A *403:18 0.000265728
*RES
1 *2637:Q *403:8 39.5743 
2 *403:8 *403:18 28.3607 
3 *403:18 *2446:A1 23 
4 *403:8 *2892:A 41.9357 
*END

*D_NET *404 0.000776498
*CONN
*I *2937:A I *D sky130_fd_sc_hd__dlygate4sd3_1
*I *2452:A1 I *D sky130_fd_sc_hd__mux4_1
*I *2638:Q O *D sky130_fd_sc_hd__dfxtp_1
*CAP
1 *2937:A 7.73869e-05
2 *2452:A1 0.00023665
3 *2638:Q 0
4 *404:6 0.000314037
5 *2452:A1 *2452:A2 2.30292e-05
6 *2452:A1 *412:6 2.30292e-05
7 *2452:A1 *655:112 0
8 *59:8 *2452:A1 0
9 *59:8 *2937:A 0
10 *323:130 *2452:A1 3.55887e-05
11 *323:130 *2937:A 6.67764e-05
12 *339:44 *2452:A1 0
13 *339:44 *2937:A 0
*RES
1 *2638:Q *404:6 38 
2 *404:6 *2452:A1 42.9093 
3 *404:6 *2937:A 39.9057 
*END

*D_NET *405 0.00165952
*CONN
*I *2938:A I *D sky130_fd_sc_hd__dlygate4sd3_1
*I *2458:A1 I *D sky130_fd_sc_hd__mux4_1
*I *2639:Q O *D sky130_fd_sc_hd__dfxtp_1
*CAP
1 *2938:A 0.00011696
2 *2458:A1 0
3 *2639:Q 0.000134326
4 *405:12 0.000335113
5 *405:6 0.000586399
6 *405:12 *515:8 5.26204e-05
7 *405:12 *575:8 0.000240012
8 *68:8 *405:12 0
9 *323:96 *405:12 0
10 *325:77 *2938:A 1.24376e-05
11 *325:77 *405:12 4.31366e-05
12 *325:81 *405:12 5.68882e-05
13 *397:12 *405:12 8.16253e-05
*RES
1 *2639:Q *405:6 25.0507 
2 *405:6 *405:12 37.8921 
3 *405:12 *2458:A1 23 
4 *405:6 *2938:A 25.0714 
*END

*D_NET *406 0.0012699
*CONN
*I *2921:A I *D sky130_fd_sc_hd__dlygate4sd3_1
*I *2464:A1 I *D sky130_fd_sc_hd__mux4_1
*I *2640:Q O *D sky130_fd_sc_hd__dfxtp_1
*CAP
1 *2921:A 0.000107236
2 *2464:A1 0.000239077
3 *2640:Q 0.000227104
4 *406:8 0.000573416
5 *2464:A1 *639:124 0
6 *2921:A *639:124 0
7 *406:8 *650:84 9.36953e-05
8 *28:17 *2464:A1 2.93747e-05
9 *325:93 *2921:A 0
10 *325:97 *2464:A1 0
11 *325:97 *2921:A 0
*RES
1 *2640:Q *406:8 41.48 
2 *406:8 *2464:A1 42.2879 
3 *406:8 *2921:A 39.9057 
*END

*D_NET *407 0.00305046
*CONN
*I *2959:A I *D sky130_fd_sc_hd__dlygate4sd3_1
*I *2420:A2 I *D sky130_fd_sc_hd__mux4_1
*I *2625:Q O *D sky130_fd_sc_hd__dfxtp_1
*CAP
1 *2959:A 0.000235224
2 *2420:A2 1.00923e-05
3 *2625:Q 0.000130195
4 *407:18 0.000334566
5 *407:8 0.000689893
6 *2420:A2 *667:30 1.01712e-05
7 *2959:A *677:87 0.000112832
8 *407:8 *667:38 5.55278e-05
9 *407:8 *677:87 0.00015964
10 *407:18 *415:10 0.000262572
11 *407:18 *415:18 1.01436e-05
12 *407:18 *667:30 2.81406e-06
13 *407:18 *667:51 2.60152e-05
14 *2976:A *2959:A 0.000512677
15 *2976:A *407:8 6.38845e-05
16 *323:82 *2959:A 0.000205117
17 *327:34 *407:18 6.25829e-05
18 *391:10 *407:8 0.000166513
*RES
1 *2625:Q *407:8 42.3707 
2 *407:8 *407:18 49.8057 
3 *407:18 *2420:A2 23.2745 
4 *407:8 *2959:A 44.7736 
*END

*D_NET *408 0.00307946
*CONN
*I *2969:A I *D sky130_fd_sc_hd__dlygate4sd3_1
*I *2427:A2 I *D sky130_fd_sc_hd__mux4_1
*I *2626:Q O *D sky130_fd_sc_hd__dfxtp_1
*CAP
1 *2969:A 0.000321163
2 *2427:A2 0
3 *2626:Q 0.000113551
4 *408:14 0.000107188
5 *408:6 0.000541903
6 *2969:A *634:168 0
7 *2969:A *634:170 0.000635932
8 *2969:A *686:6 5.44131e-05
9 *408:6 *634:170 0.00035411
10 *408:6 *664:82 2.02872e-05
11 *408:14 *2427:A3 0.000241355
12 *408:14 *2427:S1 2.50451e-05
13 *47:8 *408:6 2.30292e-05
14 *55:8 *408:14 0.000243578
15 *323:20 *2969:A 0.000206946
16 *323:20 *408:6 5.3304e-05
17 *323:24 *408:6 0.000137651
*RES
1 *2626:Q *408:6 26.9564 
2 *408:6 *408:14 33.5887 
3 *408:14 *2427:A2 23 
4 *408:6 *2969:A 30.7886 
*END

*D_NET *409 0.00337254
*CONN
*I *2434:A2 I *D sky130_fd_sc_hd__mux4_1
*I *2879:A I *D sky130_fd_sc_hd__dlygate4sd3_1
*I *2627:Q O *D sky130_fd_sc_hd__dfxtp_1
*CAP
1 *2434:A2 0.000507145
2 *2879:A 0.000236984
3 *2627:Q 5.3859e-05
4 *409:8 0.000797988
5 *2434:A2 *417:6 2.92911e-06
6 *2434:A2 *417:25 4.63131e-05
7 *2434:A2 *646:54 5.50049e-05
8 *2879:A *603:8 0.000292856
9 *2879:A *633:139 6.28591e-05
10 *2879:A *644:53 0.00010018
11 *2879:A *644:59 0.000563587
12 *409:8 *603:8 0.000225275
13 *409:8 *644:59 0.000216051
14 *2434:A1 *2434:A2 0.000113022
15 *295:14 *2879:A 9.84851e-05
16 *325:93 *2879:A 0
*RES
1 *2627:Q *409:8 40.9621 
2 *409:8 *2879:A 46.6379 
3 *409:8 *2434:A2 45.4623 
*END

*D_NET *410 0.00334567
*CONN
*I *2440:A2 I *D sky130_fd_sc_hd__mux4_1
*I *2962:A I *D sky130_fd_sc_hd__dlygate4sd3_1
*I *2628:Q O *D sky130_fd_sc_hd__dfxtp_1
*CAP
1 *2440:A2 0
2 *2962:A 0
3 *2628:Q 0.000306501
4 *410:31 0.000357835
5 *410:12 0.000477865
6 *410:8 0.000426531
7 *410:8 *632:10 1.01436e-05
8 *410:8 *634:115 0
9 *410:8 *678:40 0.000561337
10 *410:12 *659:124 0.000223698
11 *410:31 *2483:A1 8.43466e-05
12 *410:31 *418:10 1.6318e-05
13 *410:31 *641:10 0.000180814
14 *410:31 *659:116 7.45278e-05
15 *410:31 *659:124 0.000185428
16 *2636:CLK *410:31 0.000235558
17 *57:10 *410:31 7.44354e-05
18 *299:8 *410:31 1.42014e-05
19 *331:68 *410:8 7.45278e-05
20 *355:67 *410:31 2.76611e-06
21 *355:90 *410:8 3.884e-05
*RES
1 *2628:Q *410:8 45.54 
2 *410:8 *410:12 17.5271 
3 *410:12 *2962:A 23 
4 *410:12 *410:31 40.0568 
5 *410:31 *2440:A2 23 
*END

*D_NET *411 0.00362524
*CONN
*I *2961:A I *D sky130_fd_sc_hd__dlygate4sd3_1
*I *2446:A2 I *D sky130_fd_sc_hd__mux4_1
*I *2629:Q O *D sky130_fd_sc_hd__dfxtp_1
*CAP
1 *2961:A 0.000387548
2 *2446:A2 0.0001279
3 *2629:Q 0.000540362
4 *411:12 0.00105581
5 *2446:A2 *419:16 0.000132189
6 *2446:A2 *647:78 4.51974e-05
7 *2446:A2 *705:33 7.20518e-05
8 *2961:A *647:78 0.000104976
9 *2961:A *650:24 0.00026064
10 *2961:A *691:10 0.00014424
11 *2961:A *705:33 0.00012758
12 *411:12 *657:104 0.000158292
13 *2798:A *2446:A2 1.69977e-05
14 *162:8 *2446:A2 0.000117244
15 *162:8 *2961:A 8.62876e-05
16 *348:36 *411:12 3.71251e-05
17 *348:38 *411:12 0.000175828
18 *403:18 *2446:A2 3.49686e-05
*RES
1 *2629:Q *411:12 46.41 
2 *411:12 *2446:A2 42.0496 
3 *411:12 *2961:A 48.1086 
*END

*D_NET *412 0.00147316
*CONN
*I *2452:A2 I *D sky130_fd_sc_hd__mux4_1
*I *2977:A I *D sky130_fd_sc_hd__dlygate4sd3_1
*I *2630:Q O *D sky130_fd_sc_hd__dfxtp_1
*CAP
1 *2452:A2 0.000386885
2 *2977:A 2.34823e-05
3 *2630:Q 0.000195955
4 *412:6 0.000606322
5 *2452:A2 *656:75 1.16872e-05
6 *412:6 *555:10 1.73399e-05
7 *412:6 *655:83 0.000185428
8 *2452:A1 *2452:A2 2.30292e-05
9 *2452:A1 *412:6 2.30292e-05
*RES
1 *2630:Q *412:6 27.4329 
2 *412:6 *2977:A 23.4971 
3 *412:6 *2452:A2 29.6338 
*END

*D_NET *413 0.002765
*CONN
*I *2458:A2 I *D sky130_fd_sc_hd__mux4_1
*I *2997:A I *D sky130_fd_sc_hd__dlygate4sd3_1
*I *2631:Q O *D sky130_fd_sc_hd__dfxtp_1
*CAP
1 *2458:A2 9.764e-05
2 *2997:A 0.000267017
3 *2631:Q 0.000202579
4 *413:10 0.000567236
5 *2458:A2 *2458:A3 0.000188926
6 *2458:A2 *643:157 8.16356e-05
7 *2458:A2 *643:178 6.07611e-06
8 *2458:A2 *654:105 2.35426e-05
9 *2997:A *421:8 3.3577e-05
10 *2997:A *643:155 0.000705535
11 *413:10 *2458:A3 6.59441e-05
12 *413:10 *2995:A 5.31444e-05
13 *413:10 *572:10 5.67058e-05
14 *2496:S *2997:A 0.000173154
15 *314:8 *2458:A2 1.16872e-05
16 *323:112 *2458:A2 0
17 *323:112 *413:10 0
18 *334:41 *413:10 0.000230604
*RES
1 *2631:Q *413:10 43.1371 
2 *413:10 *2997:A 46.7207 
3 *413:10 *2458:A2 40.8845 
*END

*D_NET *414 0.00248513
*CONN
*I *2988:A I *D sky130_fd_sc_hd__dlygate4sd3_1
*I *2464:A2 I *D sky130_fd_sc_hd__mux4_1
*I *2632:Q O *D sky130_fd_sc_hd__dfxtp_1
*CAP
1 *2988:A 0
2 *2464:A2 0
3 *2632:Q 0.000200684
4 *414:27 0.000275424
5 *414:14 0.000192358
6 *414:6 0.000668466
7 *414:6 *652:22 0.000315852
8 *414:14 *2464:A3 1.12695e-05
9 *414:14 *422:10 0.000250978
10 *414:14 *643:100 4.77164e-06
11 *414:27 *652:12 4.08664e-05
12 *414:27 *652:22 0.000219383
13 *414:27 *652:31 0.000138718
14 *28:17 *414:14 1.06415e-05
15 *319:8 *414:14 1.69977e-05
16 *319:14 *414:27 0.000138718
17 *323:120 *414:14 0
*RES
1 *2632:Q *414:6 26.48 
2 *414:6 *414:14 34.0496 
3 *414:14 *2464:A2 23 
4 *414:6 *414:27 34.9093 
5 *414:27 *2988:A 23 
*END

*D_NET *415 0.00211426
*CONN
*I *2420:A3 I *D sky130_fd_sc_hd__mux4_1
*I *2895:A I *D sky130_fd_sc_hd__dlygate4sd3_1
*I *2779:Q O *D sky130_fd_sc_hd__dfxtp_1
*CAP
1 *2420:A3 0
2 *2895:A 0
3 *2779:Q 0.000334664
4 *415:18 0.000237441
5 *415:10 0.000572105
6 *415:10 *667:30 1.59094e-05
7 *415:10 *667:38 7.51675e-05
8 *415:18 *643:126 1.75192e-05
9 *415:18 *667:51 9.03784e-05
10 *415:18 *670:78 0.000161073
11 *327:34 *415:18 0.000144812
12 *329:36 *415:18 4.06849e-05
13 *334:35 *415:18 9.84851e-05
14 *399:14 *415:10 5.3304e-05
15 *407:18 *415:10 0.000262572
16 *407:18 *415:18 1.01436e-05
*RES
1 *2779:Q *415:10 29.0279 
2 *415:10 *415:18 36.8771 
3 *415:18 *2895:A 23 
4 *415:10 *2420:A3 23 
*END

*D_NET *416 0.00229976
*CONN
*I *2427:A3 I *D sky130_fd_sc_hd__mux4_1
*I *2871:A I *D sky130_fd_sc_hd__dlygate4sd3_1
*I *2780:Q O *D sky130_fd_sc_hd__dfxtp_1
*CAP
1 *2427:A3 0.000245085
2 *2871:A 0.000128851
3 *2780:Q 5.17257e-05
4 *416:8 0.000425662
5 *2871:A *665:74 0.000226306
6 *2871:A *670:64 0.000226306
7 *55:8 *2427:A3 4.74809e-05
8 *325:26 *416:8 1.39431e-05
9 *333:46 *2427:A3 0.000480182
10 *333:46 *2871:A 3.71198e-05
11 *345:152 *2427:A3 4.24313e-05
12 *345:152 *2871:A 0.000133316
13 *408:14 *2427:A3 0.000241355
*RES
1 *2780:Q *416:8 38.6214 
2 *416:8 *2871:A 42.4329 
3 *416:8 *2427:A3 45.5814 
*END

*D_NET *417 0.00198187
*CONN
*I *2434:A3 I *D sky130_fd_sc_hd__mux4_1
*I *2894:A I *D sky130_fd_sc_hd__dlygate4sd3_1
*I *2781:Q O *D sky130_fd_sc_hd__dfxtp_1
*CAP
1 *2434:A3 0
2 *2894:A 0
3 *2781:Q 0.000257167
4 *417:25 0.000229256
5 *417:12 0.000180414
6 *417:6 0.000666836
7 *417:12 *500:10 8.62876e-05
8 *417:12 *603:8 0
9 *417:12 *644:59 0
10 *417:12 *646:54 0.000345295
11 *417:25 *2854:A 2.22079e-05
12 *417:25 *639:143 0
13 *417:25 *646:54 1.05235e-05
14 *2434:A1 *417:6 9.98679e-05
15 *2434:A2 *417:6 2.92911e-06
16 *2434:A2 *417:25 4.63131e-05
17 *325:93 *417:12 3.47776e-05
*RES
1 *2781:Q *417:6 26.0036 
2 *417:6 *417:12 34.7229 
3 *417:12 *2894:A 23 
4 *417:6 *417:25 33.3764 
5 *417:25 *2434:A3 23 
*END

*D_NET *418 0.00224172
*CONN
*I *2440:A3 I *D sky130_fd_sc_hd__mux4_1
*I *2975:A I *D sky130_fd_sc_hd__dlygate4sd3_1
*I *2782:Q O *D sky130_fd_sc_hd__dfxtp_1
*CAP
1 *2440:A3 0
2 *2975:A 0.00022946
3 *2782:Q 0.000442084
4 *418:10 0.000671544
5 *2975:A *641:10 2.5343e-05
6 *2975:A *641:12 0.000123845
7 *2975:A *650:32 0.000400886
8 *418:10 *641:10 8.11552e-05
9 *418:10 *650:32 9.26005e-05
10 *299:8 *418:10 1.71699e-05
11 *355:75 *418:10 0.000141318
12 *410:31 *418:10 1.6318e-05
*RES
1 *2782:Q *418:10 44.5871 
2 *418:10 *2975:A 44.525 
3 *418:10 *2440:A3 38 
*END

*D_NET *419 0.00261619
*CONN
*I *2872:A I *D sky130_fd_sc_hd__dlygate4sd3_1
*I *2446:A3 I *D sky130_fd_sc_hd__mux4_1
*I *2783:Q O *D sky130_fd_sc_hd__dfxtp_1
*CAP
1 *2872:A 0
2 *2446:A3 0
3 *2783:Q 0
4 *419:29 0.000199228
5 *419:16 0.000608959
6 *419:4 0.000808187
7 *419:16 *647:78 8.12337e-05
8 *419:16 *650:20 0.000267167
9 *419:29 *639:49 7.44354e-05
10 *2446:A2 *419:16 0.000132189
11 *2783:D *419:16 1.74843e-05
12 *333:108 *419:29 8.65332e-05
13 *348:32 *419:29 2.71291e-05
14 *348:36 *419:16 0.000158382
15 *348:63 *419:29 0.00010404
16 *348:69 *419:29 5.12254e-05
*RES
1 *2783:Q *419:4 23 
2 *419:4 *419:16 39.4871 
3 *419:16 *2446:A3 23 
4 *419:4 *419:29 35.2407 
5 *419:29 *2872:A 23 
*END

*D_NET *420 0.00211408
*CONN
*I *2452:A3 I *D sky130_fd_sc_hd__mux4_1
*I *2880:A I *D sky130_fd_sc_hd__dlygate4sd3_1
*I *2784:Q O *D sky130_fd_sc_hd__dfxtp_1
*CAP
1 *2452:A3 7.96612e-05
2 *2880:A 0.000262283
3 *2784:Q 0.000295365
4 *420:8 0.000637309
5 *2452:A3 *641:110 1.7992e-05
6 *2452:A3 *641:127 9.21347e-06
7 *2452:A3 *645:55 3.28876e-05
8 *2452:A3 *645:68 2.11827e-05
9 *2452:A3 *656:75 8.62876e-05
10 *2880:A *645:48 9.8139e-05
11 *2880:A *645:55 5.6652e-05
12 *2880:A *656:56 3.72639e-05
13 *2880:A *656:75 9.2383e-05
14 *2454:A0 *2880:A 0.00019747
15 *3001:A *420:8 0.000107238
16 *339:44 *2880:A 5.3365e-05
17 *396:14 *420:8 2.93845e-05
*RES
1 *2784:Q *420:8 41.9564 
2 *420:8 *2880:A 45.105 
3 *420:8 *2452:A3 40.2579 
*END

*D_NET *421 0.00118278
*CONN
*I *2458:A3 I *D sky130_fd_sc_hd__mux4_1
*I *2995:A I *D sky130_fd_sc_hd__dlygate4sd3_1
*I *2785:Q O *D sky130_fd_sc_hd__dfxtp_1
*CAP
1 *2458:A3 0.000178013
2 *2995:A 0.000122187
3 *2785:Q 8.57232e-05
4 *421:8 0.000385922
5 *2458:A3 *654:16 0
6 *2458:A3 *654:20 0
7 *2995:A *654:20 0
8 *2458:A2 *2458:A3 0.000188926
9 *2997:A *421:8 3.3577e-05
10 *68:8 *2458:A3 6.93449e-05
11 *323:112 *2995:A 0
12 *413:10 *2458:A3 6.59441e-05
13 *413:10 *2995:A 5.31444e-05
*RES
1 *2785:Q *421:8 39.0979 
2 *421:8 *2995:A 39.9057 
3 *421:8 *2458:A3 42.4329 
*END

*D_NET *422 0.0029578
*CONN
*I *2464:A3 I *D sky130_fd_sc_hd__mux4_1
*I *2901:A I *D sky130_fd_sc_hd__dlygate4sd3_1
*I *2786:Q O *D sky130_fd_sc_hd__dfxtp_1
*CAP
1 *2464:A3 8.91177e-06
2 *2901:A 0
3 *2786:Q 0.000228381
4 *422:20 0.000869585
5 *422:10 0.00110688
6 *2464:A3 *651:114 2.33476e-05
7 *422:10 *618:31 0.00010018
8 *422:10 *651:114 0.000325588
9 *323:120 *422:10 0
10 *334:74 *422:20 2.33476e-05
11 *340:110 *422:20 9.33529e-06
12 *414:14 *2464:A3 1.12695e-05
13 *414:14 *422:10 0.000250978
*RES
1 *2786:Q *422:10 43.6446 
2 *422:10 *422:20 33.5237 
3 *422:20 *2901:A 23 
4 *422:10 *2464:A3 38.3211 
*END

*D_NET *423 0.00325766
*CONN
*I *2998:A I *D sky130_fd_sc_hd__dlygate4sd3_1
*I *2419:A1 I *D sky130_fd_sc_hd__mux4_1
*I *2657:Q O *D sky130_fd_sc_hd__dfxtp_1
*CAP
1 *2998:A 0.000303223
2 *2419:A1 0.000489473
3 *2657:Q 0.000249398
4 *423:8 0.00104209
5 *2419:A1 *2419:A3 1.94812e-05
6 *2419:A1 *2999:A 8.04817e-05
7 *2419:A1 *637:30 1.87147e-05
8 *2419:A1 *648:127 1.59094e-05
9 *2998:A *2999:A 0.000257486
10 *2998:A *637:30 5.58399e-06
11 *2998:A *648:138 0.000105165
12 *331:27 *2419:A1 1.95629e-05
13 *336:6 *2998:A 0.00030373
14 *337:22 *2998:A 2.24608e-05
15 *337:22 *423:8 0.000305425
16 *367:14 *2419:A1 1.94693e-05
*RES
1 *2657:Q *423:8 41.48 
2 *423:8 *2419:A1 44.4836 
3 *423:8 *2998:A 45.1464 
*END

*D_NET *424 0.00272683
*CONN
*I *2910:A I *D sky130_fd_sc_hd__dlygate4sd3_1
*I *2425:A1 I *D sky130_fd_sc_hd__mux4_1
*I *2658:Q O *D sky130_fd_sc_hd__dfxtp_1
*CAP
1 *2910:A 9.24692e-05
2 *2425:A1 0.00053406
3 *2658:Q 0.000274932
4 *424:8 0.000901461
5 *2425:A1 *2529:A0 0.000182826
6 *2425:A1 *551:38 6.10551e-06
7 *2425:A1 *634:52 0
8 *2425:A1 *634:168 0
9 *2425:A1 *640:33 4.7869e-05
10 *2425:A1 *665:85 6.00136e-06
11 *2425:A1 *705:12 5.08033e-05
12 *2910:A *640:33 6.49723e-05
13 *95:10 *2425:A1 1.14154e-05
14 *285:24 *424:8 9.21543e-05
15 *286:6 *2425:A1 0.000308039
16 *286:14 *2425:A1 0.000153724
17 *333:98 *2425:A1 0
18 *333:98 *2910:A 0
*RES
1 *2658:Q *424:8 41.48 
2 *424:8 *2425:A1 49.0614 
3 *424:8 *2910:A 39.9057 
*END

*D_NET *425 0.001824
*CONN
*I *2433:A1 I *D sky130_fd_sc_hd__mux4_1
*I *3000:A I *D sky130_fd_sc_hd__dlygate4sd3_1
*I *2659:Q O *D sky130_fd_sc_hd__dfxtp_1
*CAP
1 *2433:A1 0
2 *3000:A 0.000274333
3 *2659:Q 0.000245003
4 *425:10 0.000519336
5 *3000:A *650:66 8.9035e-05
6 *80:10 *3000:A 0
7 *80:10 *425:10 0
8 *96:8 *3000:A 0.000110922
9 *331:56 *3000:A 0.000140259
10 *333:64 *3000:A 0
11 *333:64 *425:10 0
12 *337:28 *425:10 0
13 *345:20 *3000:A 7.88828e-05
14 *345:72 *3000:A 0
15 *361:22 *425:10 7.24484e-05
16 *369:14 *3000:A 0.000293785
*RES
1 *2659:Q *425:10 41.9564 
2 *425:10 *3000:A 45.3536 
3 *425:10 *2433:A1 38 
*END

*D_NET *426 0.00188575
*CONN
*I *2992:A I *D sky130_fd_sc_hd__dlygate4sd3_1
*I *2439:A1 I *D sky130_fd_sc_hd__mux4_1
*I *2660:Q O *D sky130_fd_sc_hd__dfxtp_1
*CAP
1 *2992:A 0.000207614
2 *2439:A1 0.0001979
3 *2660:Q 5.67095e-05
4 *426:8 0.000462224
5 *2439:A1 *569:8 0.000274543
6 *2439:A1 *659:77 5.50106e-05
7 *2992:A *569:8 7.6144e-05
8 *2992:A *650:42 2.95125e-05
9 *2918:A *2439:A1 2.02872e-05
10 *333:136 *426:8 1.59094e-05
11 *338:44 *2439:A1 0.000102093
12 *342:77 *2439:A1 0.000248152
13 *342:77 *2992:A 0.000139647
*RES
1 *2660:Q *426:8 38.6214 
2 *426:8 *2439:A1 44.3386 
3 *426:8 *2992:A 42.4329 
*END

*D_NET *427 0.00171619
*CONN
*I *2445:A1 I *D sky130_fd_sc_hd__mux4_1
*I *2889:A I *D sky130_fd_sc_hd__dlygate4sd3_1
*I *2661:Q O *D sky130_fd_sc_hd__dfxtp_1
*CAP
1 *2445:A1 0
2 *2889:A 0.00016712
3 *2661:Q 0.000381184
4 *427:10 0.000548304
5 *2889:A *642:111 5.50106e-05
6 *427:10 *2532:A0 4.04206e-05
7 *427:10 *2532:A1 3.34129e-05
8 *2532:S *427:10 0.000223692
9 *2956:A *2889:A 6.07611e-06
10 *2956:A *427:10 0.000175841
11 *371:10 *2889:A 8.51329e-05
*RES
1 *2661:Q *427:10 45.6436 
2 *427:10 *2889:A 41.5836 
3 *427:10 *2445:A1 38 
*END

*D_NET *428 0.00354902
*CONN
*I *2451:A1 I *D sky130_fd_sc_hd__mux4_1
*I *2974:A I *D sky130_fd_sc_hd__dlygate4sd3_1
*I *2662:Q O *D sky130_fd_sc_hd__dfxtp_1
*CAP
1 *2451:A1 0.00011505
2 *2974:A 0.000390128
3 *2662:Q 0.000615336
4 *428:10 0.00112051
5 *428:10 *645:127 0
6 *2662:D *428:10 0.000215955
7 *2676:CLK *2974:A 5.90675e-06
8 *2678:CLK *2974:A 0.000137651
9 *83:8 *2451:A1 0.000194318
10 *83:8 *428:10 0.000111852
11 *99:10 *2451:A1 7.70598e-05
12 *99:10 *428:10 2.76611e-06
13 *329:123 *428:10 0.000104502
14 *354:38 *2451:A1 0
15 *354:108 *2974:A 0.000457978
*RES
1 *2662:Q *428:10 47.7979 
2 *428:10 *2974:A 46.7414 
3 *428:10 *2451:A1 41.3143 
*END

*D_NET *429 0.0017321
*CONN
*I *2457:A1 I *D sky130_fd_sc_hd__mux4_1
*I *2946:A I *D sky130_fd_sc_hd__dlygate4sd3_1
*I *2663:Q O *D sky130_fd_sc_hd__dfxtp_1
*CAP
1 *2457:A1 0.000142704
2 *2946:A 5.24436e-05
3 *2663:Q 0.000161511
4 *429:8 0.000356659
5 *2457:A1 *639:143 0
6 *2457:A1 *654:64 0.000120396
7 *2457:A1 *654:74 2.1199e-05
8 *2457:A1 *700:10 3.28979e-05
9 *2946:A *654:74 1.62015e-05
10 *325:81 *2457:A1 0.000341483
11 *325:81 *2946:A 6.16439e-05
12 *337:95 *2946:A 0.00010018
13 *359:14 *2946:A 9.84851e-05
14 *359:14 *429:8 0.000226295
*RES
1 *2663:Q *429:8 40.5271 
2 *429:8 *2946:A 39.9471 
3 *429:8 *2457:A1 42.7229 
*END

*D_NET *430 0.00166817
*CONN
*I *2935:A I *D sky130_fd_sc_hd__dlygate4sd3_1
*I *2463:A1 I *D sky130_fd_sc_hd__mux4_1
*I *2664:Q O *D sky130_fd_sc_hd__dfxtp_1
*CAP
1 *2935:A 0.000143042
2 *2463:A1 0.00021075
3 *2664:Q 6.94194e-05
4 *430:8 0.000423211
5 *2463:A1 *637:104 4.23714e-05
6 *2463:A1 *639:109 0
7 *2463:A1 *639:124 0
8 *2463:A1 *652:33 0
9 *2935:A *642:74 3.71251e-05
10 *317:14 *2463:A1 0.000138708
11 *317:14 *2935:A 0.000269151
12 *319:14 *2463:A1 5.26204e-05
13 *319:14 *2935:A 8.48131e-05
14 *323:151 *430:8 9.84794e-05
15 *338:123 *2935:A 9.84794e-05
*RES
1 *2664:Q *430:8 39.0979 
2 *430:8 *2463:A1 42.7229 
3 *430:8 *2935:A 42.7643 
*END

*D_NET *431 0.00161884
*CONN
*I *2419:A2 I *D sky130_fd_sc_hd__mux4_1
*I *2926:A I *D sky130_fd_sc_hd__dlygate4sd3_1
*I *2705:Q O *D sky130_fd_sc_hd__dfxtp_1
*CAP
1 *2419:A2 0
2 *2926:A 0
3 *2705:Q 0.000287099
4 *431:23 0.00028776
5 *431:8 0.000574859
6 *431:8 *503:10 1.73399e-05
7 *431:23 *2999:A 2.76611e-06
8 *431:23 *439:16 3.98859e-05
9 *431:23 *637:30 0.000397445
10 *264:20 *431:23 0
11 *331:27 *431:23 1.16872e-05
*RES
1 *2705:Q *431:8 27.8057 
2 *431:8 *2926:A 23 
3 *431:8 *431:23 36.323 
4 *431:23 *2419:A2 23 
*END

*D_NET *432 0.00328749
*CONN
*I *2958:A I *D sky130_fd_sc_hd__dlygate4sd3_1
*I *2425:A2 I *D sky130_fd_sc_hd__mux4_1
*I *2706:Q O *D sky130_fd_sc_hd__dfxtp_1
*CAP
1 *2958:A 0.000392302
2 *2425:A2 0
3 *2706:Q 0.000103143
4 *432:14 0.000161349
5 *432:6 0.000656795
6 *2958:A *2575:A0 6.93242e-05
7 *2958:A *2575:A1 2.97157e-05
8 *2958:A *647:122 4.21281e-05
9 *2958:A *665:6 8.34394e-05
10 *2958:A *665:10 0.000515886
11 *2958:A *685:10 3.65166e-05
12 *432:6 *647:122 4.5051e-05
13 *432:14 *705:20 3.06763e-05
14 *2575:S *2958:A 5.3304e-05
15 *135:10 *2958:A 0.000221084
16 *135:10 *432:6 9.84794e-05
17 *285:6 *432:6 5.50106e-05
18 *286:6 *432:14 9.81081e-06
19 *325:34 *432:14 0.000255064
20 *338:22 *2958:A 5.3304e-05
21 *338:26 *2958:A 8.17328e-05
22 *338:26 *432:6 0.000181131
23 *339:140 *432:14 0.000112241
*RES
1 *2706:Q *432:6 26.0036 
2 *432:6 *432:14 34.0496 
3 *432:14 *2425:A2 23 
4 *432:6 *2958:A 33.1707 
*END

*D_NET *433 0.0020083
*CONN
*I *2433:A2 I *D sky130_fd_sc_hd__mux4_1
*I *2911:A I *D sky130_fd_sc_hd__dlygate4sd3_1
*I *2707:Q O *D sky130_fd_sc_hd__dfxtp_1
*CAP
1 *2433:A2 0.000234498
2 *2911:A 0.000452653
3 *2707:Q 0
4 *433:6 0.000687151
5 *2433:A2 *441:31 8.61327e-05
6 *2433:A2 *643:12 1.83564e-05
7 *2433:A2 *650:76 6.27899e-05
8 *2911:A *697:10 3.22879e-05
9 *331:68 *2911:A 0.000218962
10 *338:109 *2433:A2 9.5031e-05
11 *338:109 *2911:A 4.83778e-05
12 *338:117 *2911:A 7.20622e-05
13 *345:72 *2433:A2 0
14 *345:72 *2911:A 0
15 *361:32 *2433:A2 0
*RES
1 *2707:Q *433:6 38 
2 *433:6 *2911:A 47.6321 
3 *433:6 *2433:A2 43.8311 
*END

*D_NET *434 0.00196205
*CONN
*I *2989:A I *D sky130_fd_sc_hd__dlygate4sd3_1
*I *2439:A2 I *D sky130_fd_sc_hd__mux4_1
*I *2708:Q O *D sky130_fd_sc_hd__dfxtp_1
*CAP
1 *2989:A 6.01806e-05
2 *2439:A2 1.8339e-05
3 *2708:Q 0
4 *434:16 0.000552969
5 *434:6 0.00059481
6 *2989:A *641:143 4.83778e-05
7 *2989:A *659:112 4.41619e-05
8 *434:16 *442:25 4.6318e-06
9 *434:16 *591:10 9.67842e-05
10 *434:16 *641:143 3.91747e-05
11 *434:16 *645:151 0
12 *434:16 *650:42 0
13 *434:16 *659:112 4.16601e-05
14 *2533:S *434:16 7.67478e-05
15 *333:136 *434:16 0.000367207
16 *338:44 *2439:A2 1.70074e-05
*RES
1 *2708:Q *434:6 38 
2 *434:6 *434:16 40.6264 
3 *434:16 *2439:A2 38.3832 
4 *434:6 *2989:A 39.9057 
*END

*D_NET *435 0.00226752
*CONN
*I *2445:A2 I *D sky130_fd_sc_hd__mux4_1
*I *2876:A I *D sky130_fd_sc_hd__dlygate4sd3_1
*I *2709:Q O *D sky130_fd_sc_hd__dfxtp_1
*CAP
1 *2445:A2 0.000396881
2 *2876:A 0
3 *2709:Q 0.000323053
4 *435:16 0.000247366
5 *435:6 0.0009673
6 *435:6 *2578:A0 2.93845e-05
7 *435:6 *2578:A1 5.12254e-05
8 *435:16 *2532:A1 1.61361e-05
9 *2661:CLK *435:16 1.59094e-05
10 *138:12 *435:6 1.5769e-05
11 *303:8 *2445:A2 5.3304e-05
12 *303:14 *435:16 3.31683e-05
13 *305:12 *435:16 0.000111852
14 *347:129 *435:6 6.17437e-06
*RES
1 *2709:Q *435:6 27.9093 
2 *435:6 *435:16 33.9771 
3 *435:16 *2876:A 23 
4 *435:6 *2445:A2 29.7425 
*END

*D_NET *436 0.00211933
*CONN
*I *2924:A I *D sky130_fd_sc_hd__dlygate4sd3_1
*I *2451:A2 I *D sky130_fd_sc_hd__mux4_1
*I *2710:Q O *D sky130_fd_sc_hd__dfxtp_1
*CAP
1 *2924:A 5.51775e-05
2 *2451:A2 0
3 *2710:Q 0.000297475
4 *436:22 0.000232148
5 *436:8 0.0005848
6 *2924:A *641:42 0.000169683
7 *2924:A *656:23 0.000129513
8 *2924:A *656:56 3.70187e-05
9 *436:8 *2570:A0 4.96717e-05
10 *436:8 *2570:A1 4.79544e-05
11 *436:22 *641:42 0.000253721
12 *436:22 *645:121 0
13 *436:22 *656:23 5.94125e-05
14 *2454:A0 *436:22 6.32688e-05
15 *131:8 *436:8 2.30292e-05
16 *338:65 *436:8 9.41704e-05
17 *339:69 *436:22 2.22827e-05
*RES
1 *2710:Q *436:8 42.9093 
2 *436:8 *436:22 49.9404 
3 *436:22 *2451:A2 23 
4 *436:8 *2924:A 40.2579 
*END

*D_NET *437 0.00271328
*CONN
*I *2933:A I *D sky130_fd_sc_hd__dlygate4sd3_1
*I *2457:A2 I *D sky130_fd_sc_hd__mux4_1
*I *2711:Q O *D sky130_fd_sc_hd__dfxtp_1
*CAP
1 *2933:A 3.0106e-05
2 *2457:A2 0
3 *2711:Q 0.000184648
4 *437:20 0.000111371
5 *437:12 0.000264823
6 *437:8 0.000307994
7 *2933:A *564:8 8.34394e-05
8 *437:8 *2580:A1 5.21024e-05
9 *437:8 *511:10 6.78463e-05
10 *437:12 *564:8 0.000480236
11 *437:20 *445:12 0.000192087
12 *312:6 *437:12 2.43944e-05
13 *313:10 *437:20 6.4393e-05
14 *323:112 *437:8 0.000345286
15 *339:110 *437:20 1.01712e-05
16 *341:34 *2933:A 9.5877e-05
17 *341:34 *437:12 0.000398503
18 *341:34 *437:20 0
*RES
1 *2711:Q *437:8 42.7229 
2 *437:8 *437:12 20.3857 
3 *437:12 *437:20 32.8845 
4 *437:20 *2457:A2 23 
5 *437:12 *2933:A 24.0979 
*END

*D_NET *438 0.00162508
*CONN
*I *2973:A I *D sky130_fd_sc_hd__dlygate4sd3_1
*I *2463:A2 I *D sky130_fd_sc_hd__mux4_1
*I *2712:Q O *D sky130_fd_sc_hd__dfxtp_1
*CAP
1 *2973:A 0.000169175
2 *2463:A2 0.000332681
3 *2712:Q 0
4 *438:6 0.000501855
5 *2463:A2 *446:8 0.000131514
6 *2463:A2 *513:10 2.79004e-05
7 *2973:A *513:10 6.85412e-05
8 *318:10 *2463:A2 0.000189606
9 *320:26 *2463:A2 0
10 *323:126 *2973:A 7.63049e-05
11 *323:130 *2463:A2 0.000119745
12 *323:130 *2973:A 7.75329e-06
*RES
1 *2712:Q *438:6 38 
2 *438:6 *2463:A2 46.4411 
3 *438:6 *2973:A 41.6664 
*END

*D_NET *439 0.0027815
*CONN
*I *2999:A I *D sky130_fd_sc_hd__dlygate4sd3_1
*I *2419:A3 I *D sky130_fd_sc_hd__mux4_1
*I *2713:Q O *D sky130_fd_sc_hd__dfxtp_1
*CAP
1 *2999:A 0.000205384
2 *2419:A3 3.87333e-05
3 *2713:Q 4.90023e-05
4 *439:16 0.000670673
5 *439:8 0.000475558
6 *2999:A *637:30 0
7 *439:16 *2574:A1 5.12254e-05
8 *439:16 *666:93 2.13733e-05
9 *439:16 *666:106 5.42229e-05
10 *2419:A1 *2419:A3 1.94812e-05
11 *2419:A1 *2999:A 8.04817e-05
12 *2998:A *2999:A 0.000257486
13 *134:8 *439:8 0.000113153
14 *264:20 *2999:A 0.000400528
15 *264:20 *439:16 0.000136486
16 *331:27 *2419:A3 5.41385e-05
17 *342:67 *439:8 0.000110922
18 *431:23 *2999:A 2.76611e-06
19 *431:23 *439:16 3.98859e-05
*RES
1 *2713:Q *439:8 39.5536 
2 *439:8 *439:16 36.3386 
3 *439:16 *2419:A3 39.0979 
4 *439:16 *2999:A 43.7793 
*END

*D_NET *440 0.00205079
*CONN
*I *2425:A3 I *D sky130_fd_sc_hd__mux4_1
*I *2897:A I *D sky130_fd_sc_hd__dlygate4sd3_1
*I *2714:Q O *D sky130_fd_sc_hd__dfxtp_1
*CAP
1 *2425:A3 0
2 *2897:A 0
3 *2714:Q 0
4 *440:27 0.000375895
5 *440:12 0.000226638
6 *440:4 0.000602533
7 *440:27 *2566:A1 2.70047e-05
8 *440:27 *647:89 5.10276e-05
9 *440:27 *647:122 1.40281e-05
10 *440:27 *705:20 1.26461e-05
11 *135:10 *440:12 8.72173e-05
12 *285:24 *440:12 5.95743e-05
13 *285:24 *440:27 8.04316e-05
14 *286:6 *440:27 6.23119e-06
15 *325:34 *440:12 0
16 *325:34 *440:27 0.000353001
17 *338:18 *440:27 9.62923e-05
18 *345:128 *440:12 5.82721e-05
*RES
1 *2714:Q *440:4 23 
2 *440:4 *440:12 34.2879 
3 *440:12 *2897:A 23 
4 *440:4 *440:27 37.3691 
5 *440:27 *2425:A3 23 
*END

*D_NET *441 0.00389705
*CONN
*I *2433:A3 I *D sky130_fd_sc_hd__mux4_1
*I *2887:A I *D sky130_fd_sc_hd__dlygate4sd3_1
*I *2715:Q O *D sky130_fd_sc_hd__dfxtp_1
*CAP
1 *2433:A3 0
2 *2887:A 0
3 *2715:Q 0.000378267
4 *441:31 0.000743357
5 *441:12 0.000743357
6 *441:10 0.000378267
7 *441:10 *637:121 0.000296947
8 *441:10 *650:84 0.000351513
9 *441:31 *2576:A0 2.02872e-05
10 *441:31 *2576:A1 0.000136738
11 *441:31 *650:66 0
12 *441:31 *650:76 5.35499e-05
13 *441:31 *663:33 0.000145775
14 *441:31 *663:37 0.000161121
15 *2433:A2 *441:31 8.61327e-05
16 *2576:S *441:31 9.61128e-05
17 *327:65 *441:10 0.000117378
18 *338:109 *441:31 0.000161121
19 *358:34 *441:10 2.71291e-05
*RES
1 *2715:Q *441:10 45.975 
2 *441:10 *441:12 15 
3 *441:12 *2887:A 23 
4 *441:12 *441:31 44.0236 
5 *441:31 *2433:A3 23 
*END

*D_NET *442 0.00240641
*CONN
*I *2439:A3 I *D sky130_fd_sc_hd__mux4_1
*I *2882:A I *D sky130_fd_sc_hd__dlygate4sd3_1
*I *2716:Q O *D sky130_fd_sc_hd__dfxtp_1
*CAP
1 *2439:A3 0
2 *2882:A 0
3 *2716:Q 0.000157355
4 *442:25 0.000339105
5 *442:12 0.000188747
6 *442:6 0.000685208
7 *442:12 *645:151 0.000348465
8 *442:25 *569:8 0
9 *442:25 *645:151 0
10 *442:25 *650:42 1.44546e-05
11 *298:12 *442:12 0.000138727
12 *300:14 *442:12 0
13 *331:131 *442:6 0.000228001
14 *331:131 *442:25 0.000301719
15 *434:16 *442:25 4.6318e-06
*RES
1 *2716:Q *442:6 25.5271 
2 *442:6 *442:12 34.7229 
3 *442:12 *2882:A 23 
4 *442:6 *442:25 35.7379 
5 *442:25 *2439:A3 23 
*END

*D_NET *443 0.00378981
*CONN
*I *2886:A I *D sky130_fd_sc_hd__dlygate4sd3_1
*I *2445:A3 I *D sky130_fd_sc_hd__mux4_1
*I *2717:Q O *D sky130_fd_sc_hd__dfxtp_1
*CAP
1 *2886:A 0.000222413
2 *2445:A3 9.0895e-05
3 *2717:Q 0.000650626
4 *443:10 0.000963933
5 *2886:A *647:133 0.000398673
6 *2886:A *669:40 0.000119467
7 *2886:A *678:12 0.000223692
8 *443:10 *642:111 7.06771e-05
9 *443:10 *647:133 1.01436e-05
10 *2677:CLK *443:10 0.000103647
11 *2677:D *443:10 0.000358369
12 *333:108 *2886:A 0.00021673
13 *333:122 *2886:A 0.000181943
14 *333:122 *443:10 0.000178602
15 *371:10 *443:10 0
*RES
1 *2717:Q *443:10 48.5021 
2 *443:10 *2445:A3 39.0979 
3 *443:10 *2886:A 45.9543 
*END

*D_NET *444 0.0010672
*CONN
*I *2996:A I *D sky130_fd_sc_hd__dlygate4sd3_1
*I *2451:A3 I *D sky130_fd_sc_hd__mux4_1
*I *2718:Q O *D sky130_fd_sc_hd__dfxtp_1
*CAP
1 *2996:A 0
2 *2451:A3 0
3 *2718:Q 0.000262666
4 *444:14 0.000137476
5 *444:8 0.000400142
6 *444:8 *641:50 0.000187129
7 *444:14 *641:42 4.21594e-06
8 *444:14 *641:50 7.55729e-05
9 *444:14 *645:127 0
*RES
1 *2718:Q *444:8 27.3293 
2 *444:8 *444:14 32.9621 
3 *444:14 *2451:A3 23 
4 *444:8 *2996:A 23 
*END

*D_NET *445 0.0022186
*CONN
*I *2986:A I *D sky130_fd_sc_hd__dlygate4sd3_1
*I *2457:A3 I *D sky130_fd_sc_hd__mux4_1
*I *2719:Q O *D sky130_fd_sc_hd__dfxtp_1
*CAP
1 *2986:A 0.000351991
2 *2457:A3 0
3 *2719:Q 8.07189e-05
4 *445:12 0.0001229
5 *445:6 0.00055561
6 *445:12 *654:20 7.62842e-05
7 *312:6 *445:6 0.000184527
8 *313:10 *445:12 1.34354e-05
9 *341:34 *2986:A 0.000371269
10 *341:34 *445:6 0.000269775
11 *437:20 *445:12 0.000192087
*RES
1 *2719:Q *445:6 26.0036 
2 *445:6 *445:12 33.3143 
3 *445:12 *2457:A3 23 
4 *445:6 *2986:A 30.3121 
*END

*D_NET *446 0.00198782
*CONN
*I *2463:A3 I *D sky130_fd_sc_hd__mux4_1
*I *2883:A I *D sky130_fd_sc_hd__dlygate4sd3_1
*I *2720:Q O *D sky130_fd_sc_hd__dfxtp_1
*CAP
1 *2463:A3 1.5965e-05
2 *2883:A 0.000206898
3 *2720:Q 0.000382191
4 *446:8 0.000605054
5 *2463:A3 *2463:S0 3.3123e-05
6 *2883:A *2463:S0 8.57661e-05
7 *2883:A *641:127 5.50106e-05
8 *2883:A *645:68 7.91493e-05
9 *2463:A2 *446:8 0.000131514
10 *318:10 *446:8 9.54112e-06
11 *320:20 *2883:A 1.32314e-05
12 *320:26 *2463:A3 5.46706e-05
13 *320:26 *2883:A 0.000289685
14 *339:44 *2883:A 2.60152e-05
*RES
1 *2720:Q *446:8 43.3857 
2 *446:8 *2883:A 43.3443 
3 *446:8 *2463:A3 38.8493 
*END

*D_NET *447 0.00360903
*CONN
*I *2900:A I *D sky130_fd_sc_hd__dlygate4sd3_1
*I *2418:A0 I *D sky130_fd_sc_hd__mux4_1
*I *2747:Q O *D sky130_fd_sc_hd__dfxtp_1
*CAP
1 *2900:A 0.00017285
2 *2418:A0 0.000319667
3 *2747:Q 0.00028263
4 *447:10 0.000492516
5 *447:8 0.00028263
6 *2418:A0 *463:25 0.000158789
7 *447:8 *643:116 0
8 *447:8 *666:86 0.000449714
9 *2823:A *447:8 0.000264208
10 *280:8 *2900:A 0.00031495
11 *333:24 *2418:A0 0.000393388
12 *333:24 *2900:A 6.19539e-05
13 *337:22 *2900:A 0.000226306
14 *337:26 *447:8 0
15 *337:28 *447:8 0
16 *359:55 *447:8 0.000189431
*RES
1 *2747:Q *447:8 45.8921 
2 *447:8 *447:10 15 
3 *447:10 *2418:A0 31.5757 
4 *447:10 *2900:A 28.5514 
*END

*D_NET *448 0.00126152
*CONN
*I *2424:A0 I *D sky130_fd_sc_hd__mux4_1
*I *2931:A I *D sky130_fd_sc_hd__dlygate4sd3_1
*I *2748:Q O *D sky130_fd_sc_hd__dfxtp_1
*CAP
1 *2424:A0 0.000169497
2 *2931:A 6.35177e-05
3 *2748:Q 7.37141e-05
4 *448:8 0.000306728
5 *2424:A0 *456:10 6.49723e-05
6 *2748:D *2931:A 5.50049e-05
7 *151:8 *2424:A0 8.62876e-05
8 *151:8 *2931:A 8.72173e-05
9 *325:51 *2931:A 2.4754e-05
10 *340:24 *2424:A0 0.000105965
11 *340:24 *2931:A 3.14214e-05
12 *360:33 *2931:A 9.5877e-05
13 *360:33 *448:8 5.41288e-05
14 *360:39 *2424:A0 4.24313e-05
*RES
1 *2748:Q *448:8 39.0979 
2 *448:8 *2931:A 40.2993 
3 *448:8 *2424:A0 42.7229 
*END

*D_NET *449 0.00109186
*CONN
*I *2951:A I *D sky130_fd_sc_hd__dlygate4sd3_1
*I *2432:A0 I *D sky130_fd_sc_hd__mux4_1
*I *2749:Q O *D sky130_fd_sc_hd__dfxtp_1
*CAP
1 *2951:A 0.000212924
2 *2432:A0 0
3 *2749:Q 5.28173e-05
4 *449:10 0.000212924
5 *449:8 5.28173e-05
6 *152:8 *449:8 0.000140949
7 *292:12 *2951:A 0.000188912
8 *340:100 *449:8 0.000138718
9 *342:36 *2951:A 9.17998e-05
*RES
1 *2749:Q *449:8 39.9057 
2 *449:8 *449:10 15 
3 *449:10 *2432:A0 23 
4 *449:10 *2951:A 27.4329 
*END

*D_NET *450 0.00284732
*CONN
*I *2913:A I *D sky130_fd_sc_hd__dlygate4sd3_1
*I *2438:A0 I *D sky130_fd_sc_hd__mux4_1
*I *2750:Q O *D sky130_fd_sc_hd__dfxtp_1
*CAP
1 *2913:A 0.000757901
2 *2438:A0 0.000135033
3 *2750:Q 0.000110948
4 *450:12 0.000892934
5 *450:10 0.000110948
6 *2913:A *699:6 0.00018012
7 *450:10 *637:86 5.50106e-05
8 *2586:S *2913:A 0.000352027
9 *2595:S *2913:A 2.64616e-05
10 *153:8 *450:10 8.62876e-05
11 *299:16 *450:10 0.000139647
12 *337:30 *450:10 0
*RES
1 *2750:Q *450:10 40.5271 
2 *450:10 *450:12 15 
3 *450:12 *2438:A0 25.0507 
4 *450:12 *2913:A 36.2364 
*END

*D_NET *451 0.00264261
*CONN
*I *2982:A I *D sky130_fd_sc_hd__dlygate4sd3_1
*I *2444:A0 I *D sky130_fd_sc_hd__mux4_1
*I *2751:Q O *D sky130_fd_sc_hd__dfxtp_1
*CAP
1 *2982:A 0.000240723
2 *2444:A0 0
3 *2751:Q 0
4 *451:14 0.000778306
5 *451:4 0.00101903
6 *2982:A *639:67 0.000160051
7 *451:14 *2444:A2 0.000163291
8 *451:14 *2444:S0 5.50049e-05
9 *451:14 *467:10 6.33614e-05
10 *451:14 *634:74 3.94723e-05
11 *451:14 *657:104 3.39335e-05
12 *347:47 *451:14 8.94394e-05
*RES
1 *2751:Q *451:4 23 
2 *451:4 *451:14 42.615 
3 *451:14 *2444:A0 23 
4 *451:4 *2982:A 26.9771 
*END

*D_NET *452 0.000712586
*CONN
*I *2450:A0 I *D sky130_fd_sc_hd__mux4_1
*I *2948:A I *D sky130_fd_sc_hd__dlygate4sd3_1
*I *2752:Q O *D sky130_fd_sc_hd__dfxtp_1
*CAP
1 *2450:A0 0
2 *2948:A 0.000142949
3 *2752:Q 0
4 *452:19 0.00011729
5 *452:4 0.000260239
6 *452:19 *641:73 5.11807e-05
7 *2752:D *2948:A 0.000140927
*RES
1 *2752:Q *452:4 23 
2 *452:4 *2948:A 25.9 
3 *452:4 *452:19 31.9057 
4 *452:19 *2450:A0 23 
*END

*D_NET *453 0.00155059
*CONN
*I *2927:A I *D sky130_fd_sc_hd__dlygate4sd3_1
*I *2456:A0 I *D sky130_fd_sc_hd__mux4_1
*I *2753:Q O *D sky130_fd_sc_hd__dfxtp_1
*CAP
1 *2927:A 0.000296542
2 *2456:A0 1.7294e-05
3 *2753:Q 0.000434147
4 *453:12 0.000747983
5 *2456:A0 *2456:A2 2.93747e-05
6 *2456:A0 *461:25 2.18888e-05
7 *2927:A *2966:A 0
8 *2927:A *469:10 0
9 *453:12 *646:132 3.36312e-06
10 *337:142 *453:12 0
*RES
1 *2753:Q *453:12 44.3593 
2 *453:12 *2456:A0 38.6214 
3 *453:12 *2927:A 43.4271 
*END

*D_NET *454 0.00185677
*CONN
*I *2934:A I *D sky130_fd_sc_hd__dlygate4sd3_1
*I *2462:A0 I *D sky130_fd_sc_hd__mux4_1
*I *2754:Q O *D sky130_fd_sc_hd__dfxtp_1
*CAP
1 *2934:A 0
2 *2462:A0 0
3 *2754:Q 0.000224929
4 *454:31 0.000223462
5 *454:18 0.000285856
6 *454:6 0.000734248
7 *454:6 *618:31 0.000174932
8 *454:18 *470:18 2.18888e-05
9 *454:18 *478:35 2.93747e-05
10 *454:31 *618:31 9.72406e-05
11 *337:107 *454:18 0
12 *342:42 *454:31 6.48356e-05
*RES
1 *2754:Q *454:6 26.48 
2 *454:6 *454:18 35.0543 
3 *454:18 *2462:A0 23 
4 *454:6 *454:31 33.9564 
5 *454:31 *2934:A 23 
*END

*D_NET *455 0.00242055
*CONN
*I *2870:A I *D sky130_fd_sc_hd__dlygate4sd3_1
*I *2418:A1 I *D sky130_fd_sc_hd__mux4_1
*I *2722:Q O *D sky130_fd_sc_hd__dfxtp_1
*CAP
1 *2870:A 0
2 *2418:A1 0
3 *2722:Q 0
4 *455:25 0.000489109
5 *455:12 0.000167042
6 *455:4 0.000656151
7 *455:12 *463:10 0.000276775
8 *455:12 *633:127 0.000271373
9 *455:12 *646:82 9.5877e-05
10 *455:25 *2875:A 8.62876e-05
11 *455:25 *471:8 8.7283e-06
12 *455:25 *585:10 4.36401e-06
13 *455:25 *643:126 0.00012304
14 *455:25 *646:82 8.264e-05
15 *455:25 *670:74 2.02872e-05
16 *455:25 *670:78 0
17 *2722:D *455:25 5.25848e-05
18 *150:12 *455:25 8.62876e-05
*RES
1 *2722:Q *455:4 23 
2 *455:4 *455:12 34.7643 
3 *455:12 *2418:A1 23 
4 *455:4 *455:25 38.2029 
5 *455:25 *2870:A 23 
*END

*D_NET *456 0.0024281
*CONN
*I *2990:A I *D sky130_fd_sc_hd__dlygate4sd3_1
*I *2424:A1 I *D sky130_fd_sc_hd__mux4_1
*I *2723:Q O *D sky130_fd_sc_hd__dfxtp_1
*CAP
1 *2990:A 0.00041205
2 *2424:A1 0
3 *2723:Q 0.000391545
4 *456:10 0.000803594
5 *2990:A *2584:A0 5.50106e-05
6 *456:10 *2593:A1 0.000130353
7 *2424:A0 *456:10 6.49723e-05
8 *2723:D *456:10 5.50049e-05
9 *331:56 *2990:A 0.000173452
10 *340:24 *2990:A 0
11 *340:24 *456:10 0
12 *341:103 *2990:A 0.000188386
13 *341:103 *456:10 1.38338e-05
14 *345:12 *2990:A 1.74874e-06
15 *360:39 *456:10 0.000138145
*RES
1 *2723:Q *456:10 44.6907 
2 *456:10 *2424:A1 38 
3 *456:10 *2990:A 46.9071 
*END

*D_NET *457 0.00170017
*CONN
*I *2432:A1 I *D sky130_fd_sc_hd__mux4_1
*I *2994:A I *D sky130_fd_sc_hd__dlygate4sd3_1
*I *2724:Q O *D sky130_fd_sc_hd__dfxtp_1
*CAP
1 *2432:A1 0
2 *2994:A 0.000211205
3 *2724:Q 0.000239355
4 *457:10 0.00045056
5 *457:10 *528:8 0.000111852
6 *2724:CLK *457:10 6.34418e-05
7 *340:100 *2994:A 0.000211512
8 *340:100 *457:10 8.20688e-05
9 *341:59 *2994:A 3.71198e-05
10 *342:30 *2994:A 4.4382e-05
11 *342:30 *457:10 2.49733e-05
12 *356:107 *2994:A 0.000223698
*RES
1 *2724:Q *457:10 42.3086 
2 *457:10 *2994:A 43.4893 
3 *457:10 *2432:A1 38 
*END

*D_NET *458 0.00109827
*CONN
*I *2954:A I *D sky130_fd_sc_hd__dlygate4sd3_1
*I *2438:A1 I *D sky130_fd_sc_hd__mux4_1
*I *2725:Q O *D sky130_fd_sc_hd__dfxtp_1
*CAP
1 *2954:A 8.88081e-05
2 *2438:A1 0
3 *2725:Q 2.34823e-05
4 *458:14 0.000121212
5 *458:6 0.000233502
6 *2725:D *2954:A 0.000164364
7 *2725:D *458:14 5.41385e-05
8 *299:16 *458:14 7.30978e-05
9 *336:22 *2954:A 0.000171898
10 *336:22 *458:14 5.41385e-05
11 *337:30 *458:14 0.000113624
*RES
1 *2725:Q *458:6 23.4971 
2 *458:6 *458:14 34.06 
3 *458:14 *2438:A1 23 
4 *458:6 *2954:A 26.48 
*END

*D_NET *459 0.00320677
*CONN
*I *2444:A1 I *D sky130_fd_sc_hd__mux4_1
*I *2907:A I *D sky130_fd_sc_hd__dlygate4sd3_1
*I *2726:Q O *D sky130_fd_sc_hd__dfxtp_1
*CAP
1 *2444:A1 5.13614e-05
2 *2907:A 0.000224507
3 *2726:Q 0.000570797
4 *459:10 0.000477243
5 *459:8 0.000772172
6 *2444:A1 *634:74 9.67842e-05
7 *2907:A *541:6 9.91798e-05
8 *2907:A *634:74 0.000100522
9 *2907:A *637:86 2.18409e-05
10 *459:10 *613:10 4.08537e-05
11 *2586:S *2907:A 1.01436e-05
12 *2586:S *459:10 0.000234382
13 *2726:D *459:8 5.60363e-05
14 *340:24 *459:10 0.000111852
15 *341:105 *459:10 0
16 *341:117 *2907:A 0.000141052
17 *347:34 *2907:A 0.00010763
18 *347:34 *459:10 9.04083e-05
*RES
1 *2726:Q *459:8 45.2914 
2 *459:8 *459:10 4.72286 
3 *459:10 *2907:A 43.6343 
4 *459:10 *2444:A1 39.0979 
*END

*D_NET *460 0.00124032
*CONN
*I *2917:A I *D sky130_fd_sc_hd__dlygate4sd3_1
*I *2450:A1 I *D sky130_fd_sc_hd__mux4_1
*I *2727:Q O *D sky130_fd_sc_hd__dfxtp_1
*CAP
1 *2917:A 0.000223901
2 *2450:A1 0.00019789
3 *2727:Q 9.63576e-05
4 *460:8 0.000518149
5 *2450:A1 *2450:A3 0
6 *2450:A1 *2890:A 0
7 *2917:A *2890:A 0
8 *2784:CLK *2450:A1 3.31127e-05
9 *2784:CLK *2917:A 9.03979e-05
10 *334:76 *2450:A1 0
11 *340:131 *2917:A 0
12 *346:14 *2917:A 8.05114e-05
*RES
1 *2727:Q *460:8 39.0979 
2 *460:8 *2450:A1 41.6664 
3 *460:8 *2917:A 42.7229 
*END

*D_NET *461 0.00273902
*CONN
*I *2456:A1 I *D sky130_fd_sc_hd__mux4_1
*I *2942:A I *D sky130_fd_sc_hd__dlygate4sd3_1
*I *2728:Q O *D sky130_fd_sc_hd__dfxtp_1
*CAP
1 *2456:A1 0
2 *2942:A 0.000137712
3 *2728:Q 3.23975e-05
4 *461:25 0.000840324
5 *461:8 0.00101043
6 *2942:A *643:89 0
7 *2942:A *646:42 0.000135884
8 *2942:A *646:120 0.000107367
9 *461:25 *2456:A2 7.92069e-05
10 *461:25 *504:10 8.50366e-05
11 *461:25 *646:120 0.000233139
12 *2456:A0 *461:25 2.18888e-05
13 *357:24 *461:8 5.56279e-05
*RES
1 *2728:Q *461:8 38.6214 
2 *461:8 *2942:A 41.3143 
3 *461:8 *461:25 27.9879 
4 *461:25 *2456:A1 23 
*END

*D_NET *462 0.00195238
*CONN
*I *2932:A I *D sky130_fd_sc_hd__dlygate4sd3_1
*I *2462:A1 I *D sky130_fd_sc_hd__mux4_1
*I *2729:Q O *D sky130_fd_sc_hd__dfxtp_1
*CAP
1 *2932:A 0.000261392
2 *2462:A1 0
3 *2729:Q 0
4 *462:12 0.000545333
5 *462:4 0.000806725
6 *462:12 *470:18 0
7 *462:12 *645:95 0.000182081
8 *462:12 *645:101 0
9 *2729:D *462:12 0.00015067
10 *337:122 *462:12 0
11 *338:123 *2932:A 6.17437e-06
*RES
1 *2729:Q *462:4 23 
2 *462:4 *462:12 38.2443 
3 *462:12 *2462:A1 23 
4 *462:4 *2932:A 27.3293 
*END

*D_NET *463 0.00284757
*CONN
*I *2418:A2 I *D sky130_fd_sc_hd__mux4_1
*I *2939:A I *D sky130_fd_sc_hd__dlygate4sd3_1
*I *2697:Q O *D sky130_fd_sc_hd__dfxtp_1
*CAP
1 *2418:A2 0
2 *2939:A 0
3 *2697:Q 0
4 *463:25 0.000480353
5 *463:10 0.000281334
6 *463:4 0.000761687
7 *463:10 *633:127 0.000193702
8 *463:10 *666:28 8.57765e-05
9 *463:25 *2418:A3 1.14452e-05
10 *463:25 *643:116 6.11099e-05
11 *2418:A0 *463:25 0.000158789
12 *2583:S *463:10 0.00050932
13 *150:12 *463:25 1.62655e-05
14 *333:24 *463:25 1.10105e-05
15 *455:12 *463:10 0.000276775
*RES
1 *2697:Q *463:4 23 
2 *463:4 *463:10 39.3007 
3 *463:10 *2939:A 23 
4 *463:4 *463:25 36.9859 
5 *463:25 *2418:A2 23 
*END

*D_NET *464 0.00275195
*CONN
*I *2424:A2 I *D sky130_fd_sc_hd__mux4_1
*I *2920:A I *D sky130_fd_sc_hd__dlygate4sd3_1
*I *2698:Q O *D sky130_fd_sc_hd__dfxtp_1
*CAP
1 *2424:A2 0
2 *2920:A 0
3 *2698:Q 0.000119058
4 *464:27 0.000387465
5 *464:12 0.00012424
6 *464:6 0.000630763
7 *464:6 *642:64 0.000136738
8 *464:27 *2424:A3 3.28708e-05
9 *464:27 *642:54 1.14452e-05
10 *464:27 *642:64 0.000150846
11 *464:27 *664:10 8.4047e-05
12 *464:27 *664:14 1.6318e-05
13 *464:27 *664:28 5.24393e-05
14 *2723:D *464:27 0.000404202
15 *329:107 *464:12 0.000299178
16 *336:14 *464:12 0.000302339
*RES
1 *2698:Q *464:6 24.5743 
2 *464:6 *464:12 34.0186 
3 *464:12 *2920:A 23 
4 *464:6 *464:27 37.1982 
5 *464:27 *2424:A2 23 
*END

*D_NET *465 0.00285815
*CONN
*I *2950:A I *D sky130_fd_sc_hd__dlygate4sd3_1
*I *2432:A2 I *D sky130_fd_sc_hd__mux4_1
*I *2699:Q O *D sky130_fd_sc_hd__dfxtp_1
*CAP
1 *2950:A 0.000322096
2 *2432:A2 1.52415e-05
3 *2699:Q 0.000161059
4 *465:18 0.00112374
5 *465:10 0.00094746
6 *2950:A *473:20 3.98859e-05
7 *2950:A *527:8 0
8 *2950:A *643:89 0.000118526
9 *465:10 *2549:A0 9.01062e-05
10 *465:18 *473:20 0
11 *465:18 *643:66 2.13226e-05
12 *144:18 *2432:A2 7.02666e-06
13 *144:18 *2950:A 0
14 *292:12 *2432:A2 1.16872e-05
15 *329:44 *465:10 0
16 *337:97 *2950:A 0
*RES
1 *2699:Q *465:10 49.1382 
2 *465:10 *465:18 11.2009 
3 *465:18 *2432:A2 38.2745 
4 *465:18 *2950:A 44.525 
*END

*D_NET *466 0.00157296
*CONN
*I *2438:A2 I *D sky130_fd_sc_hd__mux4_1
*I *2967:A I *D sky130_fd_sc_hd__dlygate4sd3_1
*I *2700:Q O *D sky130_fd_sc_hd__dfxtp_1
*CAP
1 *2438:A2 0
2 *2967:A 3.53997e-05
3 *2700:Q 9.76724e-05
4 *466:27 0.000400437
5 *466:6 0.000533509
6 *2967:A *634:98 0.00010018
7 *466:6 *634:98 4.21378e-05
8 *466:27 *2438:A3 9.81081e-06
9 *466:27 *474:33 2.05503e-05
10 *466:27 *634:94 8.7283e-06
11 *466:27 *634:98 7.1915e-05
12 *466:27 *641:18 3.70187e-05
13 *466:27 *641:143 0.000164282
14 *2750:CLK *466:27 4.72772e-05
15 *297:20 *466:27 4.04598e-06
*RES
1 *2700:Q *466:6 25.0507 
2 *466:6 *2967:A 24.595 
3 *466:6 *466:27 36.6182 
4 *466:27 *2438:A2 23 
*END

*D_NET *467 0.00311634
*CONN
*I *2444:A2 I *D sky130_fd_sc_hd__mux4_1
*I *2963:A I *D sky130_fd_sc_hd__dlygate4sd3_1
*I *2701:Q O *D sky130_fd_sc_hd__dfxtp_1
*CAP
1 *2444:A2 0.000194739
2 *2963:A 0
3 *2701:Q 0.000678788
4 *467:10 0.000873527
5 *2444:A2 *634:74 9.89201e-05
6 *2444:A2 *657:104 0.000218943
7 *467:10 *639:67 6.82514e-05
8 *467:10 *639:73 1.02949e-05
9 *467:10 *657:104 0.000135557
10 *347:47 *467:10 0.000610671
11 *451:14 *2444:A2 0.000163291
12 *451:14 *467:10 6.33614e-05
*RES
1 *2701:Q *467:10 49.1029 
2 *467:10 *2963:A 38 
3 *467:10 *2444:A2 43.7275 
*END

*D_NET *468 0.00155088
*CONN
*I *2450:A2 I *D sky130_fd_sc_hd__mux4_1
*I *2944:A I *D sky130_fd_sc_hd__dlygate4sd3_1
*I *2702:Q O *D sky130_fd_sc_hd__dfxtp_1
*CAP
1 *2450:A2 0.000164265
2 *2944:A 0
3 *2702:Q 0.0001998
4 *468:14 0.000216156
5 *468:8 0.000580222
6 *2450:A2 *641:73 4.04459e-05
7 *468:14 *522:10 0
8 *307:16 *2450:A2 0.000119591
9 *307:16 *468:8 1.94693e-05
10 *337:122 *468:14 0
11 *346:63 *468:14 9.3813e-05
12 *346:65 *468:14 0.000117121
*RES
1 *2702:Q *468:8 26.5007 
2 *468:8 *468:14 35.4271 
3 *468:14 *2944:A 23 
4 *468:8 *2450:A2 26.7182 
*END

*D_NET *469 0.00245376
*CONN
*I *2966:A I *D sky130_fd_sc_hd__dlygate4sd3_1
*I *2456:A2 I *D sky130_fd_sc_hd__mux4_1
*I *2703:Q O *D sky130_fd_sc_hd__dfxtp_1
*CAP
1 *2966:A 7.45286e-05
2 *2456:A2 0.00054674
3 *2703:Q 0.000302006
4 *469:10 0.000923275
5 *2456:A2 *646:120 1.42239e-05
6 *2456:A0 *2456:A2 2.93747e-05
7 *2927:A *2966:A 0
8 *2927:A *469:10 0
9 *329:44 *2966:A 0.000132665
10 *329:44 *469:10 0.000222113
11 *337:142 *2456:A2 7.59794e-05
12 *337:142 *469:10 5.36457e-05
13 *461:25 *2456:A2 7.92069e-05
*RES
1 *2703:Q *469:10 43.4893 
2 *469:10 *2456:A2 46.4152 
3 *469:10 *2966:A 39.9057 
*END

*D_NET *470 0.00283913
*CONN
*I *2979:A I *D sky130_fd_sc_hd__dlygate4sd3_1
*I *2462:A2 I *D sky130_fd_sc_hd__mux4_1
*I *2704:Q O *D sky130_fd_sc_hd__dfxtp_1
*CAP
1 *2979:A 0.000184016
2 *2462:A2 1.87905e-05
3 *2704:Q 7.08762e-05
4 *470:18 0.000795503
5 *470:8 0.0010316
6 *470:8 *618:14 8.1796e-05
7 *470:8 *618:31 2.18409e-05
8 *470:8 *651:21 9.67842e-05
9 *470:18 *478:35 9.43294e-05
10 *470:18 *651:12 5.97612e-05
11 *329:54 *2979:A 0
12 *329:54 *470:18 0
13 *337:107 *2979:A 0.000123439
14 *337:107 *470:18 0.000112779
15 *337:122 *470:18 9.26005e-05
16 *340:110 *470:18 0
17 *342:42 *470:18 3.3123e-05
18 *454:18 *470:18 2.18888e-05
19 *462:12 *470:18 0
*RES
1 *2704:Q *470:8 40.0507 
2 *470:8 *470:18 42.4079 
3 *470:18 *2462:A2 38.3832 
4 *470:8 *2979:A 41.9357 
*END

*D_NET *471 0.00320071
*CONN
*I *2875:A I *D sky130_fd_sc_hd__dlygate4sd3_1
*I *2418:A3 I *D sky130_fd_sc_hd__mux4_1
*I *2689:Q O *D sky130_fd_sc_hd__dfxtp_1
*CAP
1 *2875:A 0.000544721
2 *2418:A3 8.84372e-05
3 *2689:Q 0.000404445
4 *471:8 0.0010376
5 *2418:A3 *643:126 0.000137442
6 *2875:A *585:10 0.00030894
7 *2875:A *643:126 0.000219882
8 *2875:A *666:86 2.02872e-05
9 *471:8 *646:82 1.61361e-05
10 *471:8 *670:74 4.38756e-05
11 *2722:D *471:8 4.93341e-05
12 *150:12 *2418:A3 7.45997e-05
13 *150:12 *2875:A 6.2155e-05
14 *341:8 *2875:A 8.63919e-05
15 *455:25 *2875:A 8.62876e-05
16 *455:25 *471:8 8.7283e-06
17 *463:25 *2418:A3 1.14452e-05
*RES
1 *2689:Q *471:8 42.9093 
2 *471:8 *2418:A3 40.2579 
3 *471:8 *2875:A 48.15 
*END

*D_NET *472 0.00175098
*CONN
*I *2965:A I *D sky130_fd_sc_hd__dlygate4sd3_1
*I *2424:A3 I *D sky130_fd_sc_hd__mux4_1
*I *2690:Q O *D sky130_fd_sc_hd__dfxtp_1
*CAP
1 *2965:A 8.53738e-05
2 *2424:A3 0.000273292
3 *2690:Q 9.01176e-05
4 *472:8 0.000448783
5 *2424:A3 *642:54 0
6 *2424:A3 *664:14 0.000139987
7 *2424:A3 *664:28 0
8 *264:20 *2965:A 2.47015e-05
9 *285:6 *2424:A3 0.000243257
10 *329:107 *2424:A3 0.000283088
11 *329:107 *2965:A 0.000129513
12 *345:117 *2424:A3 0
13 *345:117 *2965:A 0
14 *464:27 *2424:A3 3.28708e-05
*RES
1 *2690:Q *472:8 39.0979 
2 *472:8 *2424:A3 46.5757 
3 *472:8 *2965:A 39.9057 
*END

*D_NET *473 0.0026338
*CONN
*I *2885:A I *D sky130_fd_sc_hd__dlygate4sd3_1
*I *2432:A3 I *D sky130_fd_sc_hd__mux4_1
*I *2691:Q O *D sky130_fd_sc_hd__dfxtp_1
*CAP
1 *2885:A 8.34283e-05
2 *2432:A3 0
3 *2691:Q 0.000148759
4 *473:20 0.000722957
5 *473:10 0.000955144
6 *473:20 *643:89 0.000194465
7 *2724:CLK *473:20 9.44012e-05
8 *2724:D *473:20 3.07898e-05
9 *2950:A *473:20 3.98859e-05
10 *329:44 *2885:A 0.000140558
11 *329:44 *473:10 4.08641e-05
12 *337:97 *2885:A 0.000144168
13 *337:97 *473:10 3.83778e-05
14 *465:18 *473:20 0
*RES
1 *2691:Q *473:10 40.2993 
2 *473:10 *473:20 40.6471 
3 *473:20 *2432:A3 38 
4 *473:10 *2885:A 41.6664 
*END

*D_NET *474 0.00268748
*CONN
*I *2438:A3 I *D sky130_fd_sc_hd__mux4_1
*I *2983:A I *D sky130_fd_sc_hd__dlygate4sd3_1
*I *2692:Q O *D sky130_fd_sc_hd__dfxtp_1
*CAP
1 *2438:A3 0.000277316
2 *2983:A 0
3 *2692:Q 0
4 *474:33 0.000701726
5 *474:12 0.000287853
6 *474:4 0.000712263
7 *2438:A3 *641:34 6.17437e-06
8 *474:12 *560:10 0.000141869
9 *474:12 *634:115 0
10 *474:12 *641:34 5.67058e-05
11 *474:12 *661:47 0.000108672
12 *474:12 *678:40 4.02064e-05
13 *474:33 *637:98 0
14 *474:33 *641:34 0.000160286
15 *474:33 *659:112 2.92235e-05
16 *474:33 *678:40 2.30917e-05
17 *2750:CLK *474:33 2.26497e-05
18 *337:42 *474:33 0
19 *355:29 *474:12 9.8971e-06
20 *355:29 *474:33 7.91871e-05
21 *466:27 *2438:A3 9.81081e-06
22 *466:27 *474:33 2.05503e-05
*RES
1 *2692:Q *474:4 23 
2 *474:4 *474:12 36.7529 
3 *474:12 *2983:A 23 
4 *474:4 *474:33 35.9419 
5 *474:33 *2438:A3 42.4743 
*END

*D_NET *475 0.00131831
*CONN
*I *2444:A3 I *D sky130_fd_sc_hd__mux4_1
*I *2902:A I *D sky130_fd_sc_hd__dlygate4sd3_1
*I *2693:Q O *D sky130_fd_sc_hd__dfxtp_1
*CAP
1 *2444:A3 0
2 *2902:A 1.83025e-05
3 *2693:Q 0.000200049
4 *475:23 0.000225857
5 *475:8 0.000444208
6 *475:23 *642:41 5.26101e-05
7 *340:45 *475:23 1.40958e-05
8 *341:105 *475:23 0
9 *347:10 *2902:A 4.00259e-06
10 *347:10 *475:8 0.000155853
11 *347:10 *475:23 0.00010655
12 *347:12 *475:8 9.67842e-05
*RES
1 *2693:Q *475:8 26.9771 
2 *475:8 *2902:A 23.4971 
3 *475:8 *475:23 34.785 
4 *475:23 *2444:A3 23 
*END

*D_NET *476 0.00267378
*CONN
*I *2890:A I *D sky130_fd_sc_hd__dlygate4sd3_1
*I *2450:A3 I *D sky130_fd_sc_hd__mux4_1
*I *2694:Q O *D sky130_fd_sc_hd__dfxtp_1
*CAP
1 *2890:A 0.000422706
2 *2450:A3 0.000176988
3 *2694:Q 0.000511895
4 *476:8 0.00111159
5 *2450:A3 *641:73 6.13245e-05
6 *2890:A *641:96 0
7 *2450:A1 *2450:A3 0
8 *2450:A1 *2890:A 0
9 *2727:D *476:8 9.92992e-06
10 *2917:A *2890:A 0
11 *307:16 *2450:A3 3.42398e-05
12 *340:131 *2890:A 0.000216721
13 *346:59 *476:8 0.000128391
*RES
1 *2694:Q *476:8 44.815 
2 *476:8 *2450:A3 41.3557 
3 *476:8 *2890:A 45.5814 
*END

*D_NET *477 0.00377441
*CONN
*I *2456:A3 I *D sky130_fd_sc_hd__mux4_1
*I *2905:A I *D sky130_fd_sc_hd__dlygate4sd3_1
*I *2695:Q O *D sky130_fd_sc_hd__dfxtp_1
*CAP
1 *2456:A3 0.000259233
2 *2905:A 0.000324687
3 *2695:Q 0.000637638
4 *477:8 0.00122156
5 *2456:A3 *643:89 0.000487443
6 *2905:A *2589:A0 0.000190627
7 *2905:A *643:89 0.000109374
8 *2905:A *653:81 0.000146195
9 *2728:D *477:8 8.41382e-05
10 *148:8 *2905:A 0
11 *336:65 *2905:A 5.99764e-05
12 *357:24 *2456:A3 0
13 *357:24 *477:8 3.2136e-05
14 *357:30 *477:8 0.000221406
*RES
1 *2695:Q *477:8 47.1971 
2 *477:8 *2905:A 45.105 
3 *477:8 *2456:A3 44.4836 
*END

*D_NET *478 0.00344804
*CONN
*I *2462:A3 I *D sky130_fd_sc_hd__mux4_1
*I *2899:A I *D sky130_fd_sc_hd__dlygate4sd3_1
*I *2696:Q O *D sky130_fd_sc_hd__dfxtp_1
*CAP
1 *2462:A3 0
2 *2899:A 0.000385698
3 *2696:Q 4.55529e-05
4 *478:35 0.00079968
5 *478:8 0.00123093
6 *2899:A *610:8 4.08537e-05
7 *478:35 *651:12 0.000142818
8 *2563:S *478:35 4.67488e-05
9 *2729:CLK *478:8 2.93747e-05
10 *329:54 *2899:A 0
11 *329:54 *478:35 0
12 *337:107 *478:35 7.15126e-05
13 *337:122 *2899:A 0.000485221
14 *337:122 *478:35 4.59507e-05
15 *454:18 *478:35 2.93747e-05
16 *470:18 *478:35 9.43294e-05
*RES
1 *2696:Q *478:8 38.6214 
2 *478:8 *2899:A 46.5343 
3 *478:8 *478:35 28.4643 
4 *478:35 *2462:A3 23 
*END

*D_NET *479 0.00165935
*CONN
*I *2941:A I *D sky130_fd_sc_hd__dlygate4sd3_1
*I *2421:A0 I *D sky130_fd_sc_hd__mux4_1
*I *2681:Q O *D sky130_fd_sc_hd__dfxtp_1
*CAP
1 *2941:A 0.000275522
2 *2421:A0 0.000100313
3 *2681:Q 0.000204624
4 *479:10 0.000580459
5 *2421:A0 *2421:A1 9.84794e-05
6 *2941:A *2421:A1 0.000185278
7 *479:10 *2421:A1 1.58805e-05
8 *2422:A1 *479:10 0
9 *283:8 *2421:A0 1.94693e-05
10 *322:31 *479:10 0
11 *327:12 *2941:A 0
12 *327:12 *479:10 0
13 *332:12 *2421:A0 0.000148688
14 *334:12 *479:10 0
15 *350:64 *479:10 3.06338e-05
*RES
1 *2681:Q *479:10 41.3557 
2 *479:10 *2421:A0 41.0036 
3 *479:10 *2941:A 43.4271 
*END

*D_NET *480 0.00272282
*CONN
*I *2953:A I *D sky130_fd_sc_hd__dlygate4sd3_1
*I *2428:A0 I *D sky130_fd_sc_hd__mux4_1
*I *2682:Q O *D sky130_fd_sc_hd__dfxtp_1
*CAP
1 *2953:A 0
2 *2428:A0 0
3 *2682:Q 4.57773e-05
4 *480:31 0.000419813
5 *480:16 0.000143467
6 *480:6 0.000609057
7 *480:16 *488:20 0.000114422
8 *480:16 *644:49 8.50067e-05
9 *480:31 *2501:A0 2.93845e-05
10 *480:31 *488:20 0.00010581
11 *480:31 *634:170 1.94812e-05
12 *480:31 *648:98 0.0002013
13 *2898:A *480:31 0.000205615
14 *264:20 *480:16 0.000188916
15 *264:20 *480:31 8.30722e-05
16 *329:107 *480:16 0.000185755
17 *361:12 *480:6 5.50106e-05
18 *361:12 *480:31 0.000168693
19 *384:10 *480:31 6.22372e-05
*RES
1 *2682:Q *480:6 23.6214 
2 *480:6 *480:16 34.205 
3 *480:16 *2428:A0 23 
4 *480:6 *480:31 40.2121 
5 *480:31 *2953:A 23 
*END

*D_NET *481 0.00166404
*CONN
*I *2923:A I *D sky130_fd_sc_hd__dlygate4sd3_1
*I *2435:A0 I *D sky130_fd_sc_hd__mux4_1
*I *2683:Q O *D sky130_fd_sc_hd__dfxtp_1
*CAP
1 *2923:A 0.000197984
2 *2435:A0 0
3 *2683:Q 0.000137567
4 *481:10 0.000335552
5 *2923:A *2611:A0 0.000226226
6 *2923:A *501:8 0.000137788
7 *2923:A *583:8 1.7992e-05
8 *481:10 *501:8 0.000166513
9 *340:110 *2923:A 0.000179702
10 *340:110 *481:10 0.000166513
11 *356:39 *481:10 9.82009e-05
*RES
1 *2683:Q *481:10 41.3557 
2 *481:10 *2435:A0 38 
3 *481:10 *2923:A 43.1371 
*END

*D_NET *482 0.00133533
*CONN
*I *2909:A I *D sky130_fd_sc_hd__dlygate4sd3_1
*I *2441:A0 I *D sky130_fd_sc_hd__mux4_1
*I *2684:Q O *D sky130_fd_sc_hd__dfxtp_1
*CAP
1 *2909:A 0.000348614
2 *2441:A0 0
3 *2684:Q 0
4 *482:12 0.000181319
5 *482:4 0.000529933
6 *482:12 *490:10 0.000141879
7 *2541:S *2909:A 0.000131133
8 *2541:S *482:12 2.45549e-06
9 *386:14 *482:12 0
*RES
1 *2684:Q *482:4 23 
2 *482:4 *482:12 33.0036 
3 *482:12 *2441:A0 23 
4 *482:4 *2909:A 28.7586 
*END

*D_NET *483 0.00294492
*CONN
*I *2972:A I *D sky130_fd_sc_hd__dlygate4sd3_1
*I *2447:A0 I *D sky130_fd_sc_hd__mux4_1
*I *2685:Q O *D sky130_fd_sc_hd__dfxtp_1
*CAP
1 *2972:A 0.000227038
2 *2447:A0 0
3 *2685:Q 0
4 *483:16 0.00107135
5 *483:4 0.00129839
6 *483:16 *2447:A1 6.343e-05
7 *483:16 *584:25 0
8 *483:16 *642:119 0.000210922
9 *2447:A2 *483:16 7.3799e-05
*RES
1 *2685:Q *483:4 23 
2 *483:4 *483:16 46.1364 
3 *483:16 *2447:A0 23 
4 *483:4 *2972:A 26.9771 
*END

*D_NET *484 0.00120671
*CONN
*I *2453:A0 I *D sky130_fd_sc_hd__mux4_1
*I *2970:A I *D sky130_fd_sc_hd__dlygate4sd3_1
*I *2686:Q O *D sky130_fd_sc_hd__dfxtp_1
*CAP
1 *2453:A0 0
2 *2970:A 0.000234558
3 *2686:Q 0
4 *484:19 0.000248112
5 *484:4 0.00048267
6 *484:19 *2542:A1 9.63815e-05
7 *484:19 *492:10 6.6869e-05
8 *484:19 *655:38 7.81176e-05
*RES
1 *2686:Q *484:4 23 
2 *484:4 *2970:A 27.3293 
3 *484:4 *484:19 34.7229 
4 *484:19 *2453:A0 23 
*END

*D_NET *485 0.00288184
*CONN
*I *2960:A I *D sky130_fd_sc_hd__dlygate4sd3_1
*I *2459:A0 I *D sky130_fd_sc_hd__mux4_1
*I *2687:Q O *D sky130_fd_sc_hd__dfxtp_1
*CAP
1 *2960:A 0
2 *2459:A0 0
3 *2687:Q 0
4 *485:29 0.000311421
5 *485:14 0.000601517
6 *485:4 0.000912937
7 *485:14 *537:8 5.85449e-05
8 *485:14 *607:18 4.77237e-06
9 *485:14 *643:178 3.7122e-06
10 *485:14 *646:141 4.75804e-05
11 *485:14 *646:166 3.30257e-05
12 *485:29 *526:8 0.000166522
13 *485:29 *537:8 1.8312e-05
14 *485:29 *646:166 0.000225613
15 *485:29 *653:105 8.90445e-05
16 *2459:A2 *485:14 0.000115336
17 *332:42 *485:29 5.62243e-05
18 *357:119 *485:29 7.38091e-05
19 *357:121 *485:29 0.000140259
20 *357:147 *485:29 2.32101e-05
*RES
1 *2687:Q *485:4 23 
2 *485:4 *485:14 39.5493 
3 *485:14 *2459:A0 23 
4 *485:4 *485:29 38.2443 
5 *485:29 *2960:A 23 
*END

*D_NET *486 0.00155788
*CONN
*I *2955:A I *D sky130_fd_sc_hd__dlygate4sd3_1
*I *2465:A0 I *D sky130_fd_sc_hd__mux4_1
*I *2688:Q O *D sky130_fd_sc_hd__dfxtp_1
*CAP
1 *2955:A 0
2 *2465:A0 0
3 *2688:Q 0
4 *486:25 0.000195377
5 *486:12 0.000196963
6 *486:4 0.00039234
7 *486:12 *494:14 0.000136609
8 *486:12 *533:8 0.000138727
9 *320:20 *486:12 0.000185368
10 *320:20 *486:25 4.21048e-05
11 *340:131 *486:25 0.000270393
*RES
1 *2688:Q *486:4 23 
2 *486:4 *486:12 33.9564 
3 *486:12 *2465:A0 23 
4 *486:4 *486:25 34.2879 
5 *486:25 *2955:A 23 
*END

*D_NET *487 0.00188082
*CONN
*I *2929:A I *D sky130_fd_sc_hd__dlygate4sd3_1
*I *2421:A1 I *D sky130_fd_sc_hd__mux4_1
*I *2787:Q O *D sky130_fd_sc_hd__dfxtp_1
*CAP
1 *2929:A 0.00011414
2 *2421:A1 0.000411852
3 *2787:Q 0.000150146
4 *487:8 0.000676138
5 *2421:A1 *519:8 0
6 *487:8 *667:10 0.000228903
7 *2421:A0 *2421:A1 9.84794e-05
8 *2609:S *2421:A1 0
9 *2609:S *2929:A 0
10 *2941:A *2421:A1 0.000185278
11 *334:12 *2421:A1 0
12 *342:16 *2421:A1 0
13 *479:10 *2421:A1 1.58805e-05
*RES
1 *2787:Q *487:8 40.5271 
2 *487:8 *2421:A1 45.9336 
3 *487:8 *2929:A 39.9057 
*END

*D_NET *488 0.00314939
*CONN
*I *2987:A I *D sky130_fd_sc_hd__dlygate4sd3_1
*I *2428:A1 I *D sky130_fd_sc_hd__mux4_1
*I *2788:Q O *D sky130_fd_sc_hd__dfxtp_1
*CAP
1 *2987:A 0
2 *2428:A1 0
3 *2788:Q 0
4 *488:35 0.000559408
5 *488:20 0.000430111
6 *488:4 0.000989519
7 *488:20 *2520:A1 3.16784e-05
8 *488:20 *644:49 6.30416e-05
9 *488:20 *648:98 0
10 *488:35 *2520:A1 6.15314e-05
11 *488:35 *637:26 0.000194318
12 *488:35 *644:35 0.000313255
13 *488:35 *664:82 8.08199e-05
14 *103:10 *488:35 0.000137651
15 *264:20 *488:20 6.7825e-05
16 *341:103 *488:35 0
17 *480:16 *488:20 0.000114422
18 *480:31 *488:20 0.00010581
*RES
1 *2788:Q *488:4 23 
2 *488:4 *488:20 37.2707 
3 *488:20 *2428:A1 23 
4 *488:4 *488:35 41.4757 
5 *488:35 *2987:A 23 
*END

*D_NET *489 0.00209052
*CONN
*I *2874:A I *D sky130_fd_sc_hd__dlygate4sd3_1
*I *2435:A1 I *D sky130_fd_sc_hd__mux4_1
*I *2789:Q O *D sky130_fd_sc_hd__dfxtp_1
*CAP
1 *2874:A 0.000101018
2 *2435:A1 0
3 *2789:Q 0.000406024
4 *489:12 0.000101018
5 *489:10 0.000406024
6 *2874:A *643:41 0.000164518
7 *2874:A *646:16 0.000308039
8 *489:10 *501:8 0.000138718
9 *489:10 *662:61 6.4393e-05
10 *334:74 *489:10 0.00025307
11 *340:110 *489:10 0.000115519
12 *341:59 *489:10 3.21823e-05
*RES
1 *2789:Q *489:10 47.0107 
2 *489:10 *489:12 15 
3 *489:12 *2435:A1 23 
4 *489:12 *2874:A 26.48 
*END

*D_NET *490 0.00170496
*CONN
*I *2984:A I *D sky130_fd_sc_hd__dlygate4sd3_1
*I *2441:A1 I *D sky130_fd_sc_hd__mux4_1
*I *2790:Q O *D sky130_fd_sc_hd__dfxtp_1
*CAP
1 *2984:A 0.000151792
2 *2441:A1 4.24211e-05
3 *2790:Q 0.000415645
4 *490:10 0.000609859
5 *2984:A *645:151 0
6 *105:8 *490:10 0
7 *334:93 *490:10 0.000153145
8 *334:99 *490:10 0.000190218
9 *482:12 *490:10 0.000141879
*RES
1 *2790:Q *490:10 47.135 
2 *490:10 *2441:A1 38.6214 
3 *490:10 *2984:A 40.9621 
*END

*D_NET *491 0.00229147
*CONN
*I *2985:A I *D sky130_fd_sc_hd__dlygate4sd3_1
*I *2447:A1 I *D sky130_fd_sc_hd__mux4_1
*I *2791:Q O *D sky130_fd_sc_hd__dfxtp_1
*CAP
1 *2985:A 0.000279072
2 *2447:A1 0.000123776
3 *2791:Q 0.000338636
4 *491:10 0.000741484
5 *2985:A *2613:A0 5.3304e-05
6 *2985:A *647:45 0.000192087
7 *2985:A *657:34 7.73735e-05
8 *2985:A *657:60 1.5769e-05
9 *491:10 *647:45 1.01436e-05
10 *491:10 *657:32 0
11 *2447:A2 *2447:A1 0.000181125
12 *2541:S *491:10 4.39278e-05
13 *329:145 *2985:A 4.73689e-05
14 *329:145 *491:10 0.000123977
15 *347:55 *491:10 0
16 *387:12 *491:10 0
17 *483:16 *2447:A1 6.343e-05
*RES
1 *2791:Q *491:10 44.6493 
2 *491:10 *2447:A1 41.0036 
3 *491:10 *2985:A 44.09 
*END

*D_NET *492 0.0011218
*CONN
*I *2968:A I *D sky130_fd_sc_hd__dlygate4sd3_1
*I *2453:A1 I *D sky130_fd_sc_hd__mux4_1
*I *2792:Q O *D sky130_fd_sc_hd__dfxtp_1
*CAP
1 *2968:A 2.10561e-05
2 *2453:A1 0
3 *2792:Q 0.000339246
4 *492:12 2.10561e-05
5 *492:10 0.000339246
6 *2968:A *645:127 2.93845e-05
7 *492:10 *2614:A1 0.000182832
8 *492:10 *546:10 2.29192e-05
9 *171:8 *492:10 6.9805e-05
10 *332:92 *2968:A 2.93845e-05
11 *484:19 *492:10 6.6869e-05
*RES
1 *2792:Q *492:10 43.3857 
2 *492:10 *492:12 15 
3 *492:12 *2453:A1 23 
4 *492:12 *2968:A 23.6214 
*END

*D_NET *493 0.00158809
*CONN
*I *2949:A I *D sky130_fd_sc_hd__dlygate4sd3_1
*I *2459:A1 I *D sky130_fd_sc_hd__mux4_1
*I *2793:Q O *D sky130_fd_sc_hd__dfxtp_1
*CAP
1 *2949:A 0.000416834
2 *2459:A1 0.000277969
3 *2793:Q 0
4 *493:6 0.000694804
5 *2459:A1 *607:10 0
6 *2949:A *607:10 0
7 *108:18 *2459:A1 2.5415e-05
8 *357:133 *2459:A1 5.26101e-05
9 *381:12 *2459:A1 0.000120456
*RES
1 *2793:Q *493:6 38 
2 *493:6 *2459:A1 44.4836 
3 *493:6 *2949:A 44.815 
*END

*D_NET *494 0.00275075
*CONN
*I *2888:A I *D sky130_fd_sc_hd__dlygate4sd3_1
*I *2465:A1 I *D sky130_fd_sc_hd__mux4_1
*I *2794:Q O *D sky130_fd_sc_hd__dfxtp_1
*CAP
1 *2888:A 0
2 *2465:A1 2.06475e-05
3 *2794:Q 0.000534634
4 *494:37 0.000305856
5 *494:14 0.000861138
6 *2465:A1 *2465:S0 5.56356e-05
7 *494:14 *533:8 0.000194242
8 *494:14 *641:96 0
9 *494:37 *2544:A0 5.50049e-05
10 *494:37 *2616:A1 9.5876e-06
11 *494:37 *533:8 0.000168674
12 *494:37 *651:59 2.18506e-05
13 *2794:D *494:14 8.5521e-05
14 *173:8 *494:14 1.22906e-05
15 *334:121 *2465:A1 1.83408e-05
16 *334:121 *494:37 1.91648e-05
17 *342:42 *494:37 0.000251554
18 *382:33 *494:37 0
19 *486:12 *494:14 0.000136609
*RES
1 *2794:Q *494:14 48.3779 
2 *494:14 *2465:A1 38.6214 
3 *494:14 *494:37 37.7886 
4 *494:37 *2888:A 38 
*END

*D_NET *495 0.00118241
*CONN
*I *2360:A1 I *D sky130_fd_sc_hd__o31a_1
*I *3002:X O *D sky130_fd_sc_hd__clkbuf_1
*CAP
1 *2360:A1 0.000273751
2 *3002:X 0.000118573
3 *495:8 0.000392324
4 *2360:A1 *606:6 0.00034672
5 *495:8 *678:10 0
6 *3013:A *495:8 5.1038e-05
*RES
1 *3002:X *495:8 40.2579 
2 *495:8 *2360:A1 44.815 
*END

*D_NET *496 0.000757653
*CONN
*I *2293:A I *D sky130_fd_sc_hd__inv_2
*I *3003:X O *D sky130_fd_sc_hd__clkbuf_1
*CAP
1 *2293:A 0
2 *3003:X 0.000378826
3 *496:10 0.000378826
4 *496:10 *621:10 0
*RES
1 *3003:X *496:10 43.3857 
2 *496:10 *2293:A 38 
*END

*D_NET *497 0.00163664
*CONN
*I *2496:A0 I *D sky130_fd_sc_hd__mux2_1
*I *2919:X O *D sky130_fd_sc_hd__dlygate4sd3_1
*CAP
1 *2496:A0 0.000206955
2 *2919:X 0.000182204
3 *497:8 0.000389159
4 *2496:A0 *643:155 0.000266271
5 *497:8 *575:8 0.000296026
6 *325:81 *497:8 0.000296026
*RES
1 *2919:X *497:8 42.0186 
2 *497:8 *2496:A0 41.0036 
*END

*D_NET *498 0.00101831
*CONN
*I *2557:A0 I *D sky130_fd_sc_hd__mux2_1
*I *2920:X O *D sky130_fd_sc_hd__dlygate4sd3_1
*CAP
1 *2557:A0 8.72935e-05
2 *2920:X 0.000221937
3 *498:8 0.00030923
4 *2557:A0 *2557:A1 0.000228903
5 *2557:S *2557:A0 5.70419e-05
6 *111:10 *2557:A0 1.39317e-05
7 *337:30 *498:8 0
8 *342:71 *498:8 9.99686e-05
*RES
1 *2920:X *498:8 42.3707 
2 *498:8 *2557:A0 41.0036 
*END

*D_NET *499 0.000341463
*CONN
*I *2487:A0 I *D sky130_fd_sc_hd__mux2_1
*I *2921:X O *D sky130_fd_sc_hd__dlygate4sd3_1
*CAP
1 *2487:A0 0.000170731
2 *2921:X 0.000170731
*RES
1 *2921:X *2487:A0 48.5271 
*END

*D_NET *500 0.00179527
*CONN
*I *2482:A0 I *D sky130_fd_sc_hd__mux2_1
*I *2922:X O *D sky130_fd_sc_hd__dlygate4sd3_1
*CAP
1 *2482:A0 0
2 *2922:X 0.000348638
3 *500:10 0.000348638
4 *500:10 *2602:A0 0.000141052
5 *500:10 *646:54 4.73987e-05
6 *2434:A1 *500:10 0.000232132
7 *2922:A *500:10 8.62876e-05
8 *325:93 *500:10 0.000504835
9 *417:12 *500:10 8.62876e-05
*RES
1 *2922:X *500:10 46.41 
2 *500:10 *2482:A0 38 
*END

*D_NET *501 0.00110808
*CONN
*I *2539:A0 I *D sky130_fd_sc_hd__mux2_1
*I *2923:X O *D sky130_fd_sc_hd__dlygate4sd3_1
*CAP
1 *2539:A0 7.66282e-05
2 *2923:X 0.000177469
3 *501:8 0.000254098
4 *501:8 *583:8 4.08641e-05
5 *501:8 *662:61 1.84226e-05
6 *2923:A *501:8 0.000137788
7 *356:39 *2539:A0 9.75779e-05
8 *481:10 *501:8 0.000166513
9 *489:10 *501:8 0.000138718
*RES
1 *2923:X *501:8 42.0186 
2 *501:8 *2539:A0 39.0979 
*END

*D_NET *502 0.000619623
*CONN
*I *2570:A0 I *D sky130_fd_sc_hd__mux2_1
*I *2924:X O *D sky130_fd_sc_hd__dlygate4sd3_1
*CAP
1 *2570:A0 6.0743e-05
2 *2924:X 5.65898e-05
3 *502:8 0.000117333
4 *310:28 *502:8 0.000168754
5 *339:44 *502:8 0.000166532
6 *436:8 *2570:A0 4.96717e-05
*RES
1 *2924:X *502:8 40.2579 
2 *502:8 *2570:A0 39.0979 
*END

*D_NET *503 0.0011764
*CONN
*I *2565:A0 I *D sky130_fd_sc_hd__mux2_1
*I *2926:X O *D sky130_fd_sc_hd__dlygate4sd3_1
*CAP
1 *2565:A0 0
2 *2926:X 0.000515957
3 *503:10 0.000515957
4 *126:10 *503:10 8.62783e-05
5 *332:153 *503:10 4.08641e-05
6 *431:8 *503:10 1.73399e-05
*RES
1 *2926:X *503:10 45.0636 
2 *503:10 *2565:A0 38 
*END

*D_NET *504 0.000868252
*CONN
*I *2598:A0 I *D sky130_fd_sc_hd__mux2_1
*I *2927:X O *D sky130_fd_sc_hd__dlygate4sd3_1
*CAP
1 *2598:A0 0
2 *2927:X 0.000256
3 *504:10 0.000256
4 *504:10 *646:120 0.000225265
5 *504:10 *646:132 0
6 *504:10 *653:71 4.59507e-05
7 *461:25 *504:10 8.50366e-05
*RES
1 *2927:X *504:10 43.1164 
2 *504:10 *2598:A0 38 
*END

*D_NET *505 0.000417885
*CONN
*I *2522:A0 I *D sky130_fd_sc_hd__mux2_1
*I *2928:X O *D sky130_fd_sc_hd__dlygate4sd3_1
*CAP
1 *2522:A0 0
2 *2928:X 0.00018144
3 *505:10 0.00018144
4 *505:10 *573:18 0
5 *329:123 *505:10 5.50049e-05
*RES
1 *2928:X *505:10 40.8793 
2 *505:10 *2522:A0 38 
*END

*D_NET *506 0.000340788
*CONN
*I *2609:A0 I *D sky130_fd_sc_hd__mux2_1
*I *2929:X O *D sky130_fd_sc_hd__dlygate4sd3_1
*CAP
1 *2609:A0 0.000109204
2 *2929:X 0.000109204
3 *325:67 *2609:A0 0.00012238
*RES
1 *2929:X *2609:A0 48.5271 
*END

*D_NET *507 0.000553598
*CONN
*I *2868:A I *D sky130_fd_sc_hd__buf_2
*I *3004:X O *D sky130_fd_sc_hd__clkbuf_1
*CAP
1 *2868:A 0
2 *3004:X 0.000193538
3 *507:10 0.000193538
4 *507:10 *518:14 0.000166522
5 *3004:A *507:10 0
*RES
1 *3004:X *507:10 41.3557 
2 *507:10 *2868:A 38 
*END

*D_NET *508 0.000487327
*CONN
*I *2492:A0 I *D sky130_fd_sc_hd__mux2_1
*I *2930:X O *D sky130_fd_sc_hd__dlygate4sd3_1
*CAP
1 *2492:A0 0
2 *2930:X 7.66388e-05
3 *508:8 7.66388e-05
4 *508:8 *663:10 0.000160182
5 *508:8 *663:16 1.14452e-05
6 *339:32 *508:8 0.000162422
*RES
1 *2930:X *508:8 40.2579 
2 *508:8 *2492:A0 38 
*END

*D_NET *509 0.000763784
*CONN
*I *2593:A0 I *D sky130_fd_sc_hd__mux2_1
*I *2931:X O *D sky130_fd_sc_hd__dlygate4sd3_1
*CAP
1 *2593:A0 0
2 *2931:X 0.000240749
3 *509:10 0.000240749
4 *509:10 *642:41 0
5 *2674:CLK *509:10 0.00010655
6 *341:103 *509:10 6.16531e-05
7 *341:105 *509:10 0.000114083
*RES
1 *2931:X *509:10 42.3086 
2 *509:10 *2593:A0 38 
*END

*D_NET *510 0.000927216
*CONN
*I *2590:A0 I *D sky130_fd_sc_hd__mux2_1
*I *2932:X O *D sky130_fd_sc_hd__dlygate4sd3_1
*CAP
1 *2590:A0 8.22699e-05
2 *2932:X 0.000108906
3 *510:8 0.000191176
4 *2590:A0 *2590:A1 0.000227935
5 *2590:A0 *632:26 6.82004e-05
6 *510:8 *645:95 3.95187e-05
7 *2590:S *2590:A0 0.000142173
8 *340:110 *510:8 6.15872e-05
9 *340:131 *510:8 5.44889e-06
*RES
1 *2932:X *510:8 40.2579 
2 *510:8 *2590:A0 41.0036 
*END

*D_NET *511 0.00217211
*CONN
*I *2571:A0 I *D sky130_fd_sc_hd__mux2_1
*I *2933:X O *D sky130_fd_sc_hd__dlygate4sd3_1
*CAP
1 *2571:A0 0
2 *2933:X 0.000575529
3 *511:10 0.000575529
4 *511:10 *2571:A1 0.000194309
5 *511:10 *2580:A0 0.000192087
6 *511:10 *2580:A1 8.62783e-05
7 *511:10 *564:8 0.000394988
8 *140:10 *511:10 2.5415e-05
9 *312:6 *511:10 2.92911e-06
10 *323:112 *511:10 0
11 *323:114 *511:10 5.72034e-05
12 *334:62 *511:10 0
13 *437:8 *511:10 6.78463e-05
*RES
1 *2933:X *511:10 49.745 
2 *511:10 *2571:A0 38 
*END

*D_NET *512 0.000424803
*CONN
*I *2599:A0 I *D sky130_fd_sc_hd__mux2_1
*I *2934:X O *D sky130_fd_sc_hd__dlygate4sd3_1
*CAP
1 *2599:A0 0
2 *2934:X 0.000169883
3 *512:10 0.000169883
4 *334:74 *512:10 0
5 *340:110 *512:10 8.50366e-05
*RES
1 *2934:X *512:10 40.2993 
2 *512:10 *2599:A0 38 
*END

*D_NET *513 0.00123262
*CONN
*I *2517:A0 I *D sky130_fd_sc_hd__mux2_1
*I *2935:X O *D sky130_fd_sc_hd__dlygate4sd3_1
*CAP
1 *2517:A0 0
2 *2935:X 0.000410162
3 *513:10 0.000410162
4 *2463:A2 *513:10 2.79004e-05
5 *2973:A *513:10 6.85412e-05
6 *85:8 *513:10 0
7 *325:97 *513:10 0
8 *338:123 *513:10 0.000315857
*RES
1 *2935:X *513:10 45.4986 
2 *513:10 *2517:A0 38 
*END

*D_NET *514 0.000449191
*CONN
*I *2485:A0 I *D sky130_fd_sc_hd__mux2_1
*I *2937:X O *D sky130_fd_sc_hd__dlygate4sd3_1
*CAP
1 *2485:A0 0.000111899
2 *2937:X 0.000111899
3 *2485:A0 *2485:A1 0.000225393
*RES
1 *2937:X *2485:A0 48.5271 
*END

*D_NET *515 0.000645591
*CONN
*I *2486:A0 I *D sky130_fd_sc_hd__mux2_1
*I *2938:X O *D sky130_fd_sc_hd__dlygate4sd3_1
*CAP
1 *2486:A0 9.60752e-05
2 *2938:X 0.000113289
3 *515:8 0.000209364
4 *2486:A0 *653:127 3.22879e-05
5 *2486:S *2486:A0 0.000141954
6 *60:8 *515:8 0
7 *405:12 *515:8 5.26204e-05
*RES
1 *2938:X *515:8 40.2579 
2 *515:8 *2486:A0 40.5271 
*END

*D_NET *516 0.00219431
*CONN
*I *2556:A0 I *D sky130_fd_sc_hd__mux2_1
*I *2939:X O *D sky130_fd_sc_hd__dlygate4sd3_1
*CAP
1 *2556:A0 0.000379463
2 *2939:X 0.000188371
3 *516:8 0.000567834
4 *2556:A0 *639:143 0
5 *2556:A0 *666:45 0.00015605
6 *516:8 *637:36 0.000269781
7 *327:49 *2556:A0 0.000353996
8 *358:74 *2556:A0 0.000222113
9 *359:14 *2556:A0 5.67058e-05
*RES
1 *2939:X *516:8 41.0036 
2 *516:8 *2556:A0 48.2743 
*END

*D_NET *517 0.00100971
*CONN
*I *2528:A0 I *D sky130_fd_sc_hd__mux2_1
*I *2940:X O *D sky130_fd_sc_hd__dlygate4sd3_1
*CAP
1 *2528:A0 0
2 *2940:X 0.000257629
3 *517:10 0.000257629
4 *517:10 *648:111 0.000100179
5 *517:10 *666:106 0.000288512
6 *2673:CLK *517:10 1.94693e-05
7 *78:10 *517:10 8.62876e-05
*RES
1 *2940:X *517:10 42.64 
2 *517:10 *2528:A0 38 
*END

*D_NET *518 0.00883291
*CONN
*I *2861:A I *D sky130_fd_sc_hd__buf_2
*I *2768:CLK I *D sky130_fd_sc_hd__dfrtp_2
*I *2767:CLK I *D sky130_fd_sc_hd__dfrtp_2
*I *2860:A I *D sky130_fd_sc_hd__buf_2
*I *3005:X O *D sky130_fd_sc_hd__clkbuf_1
*CAP
1 *2861:A 0
2 *2768:CLK 0.00017658
3 *2767:CLK 4.24511e-05
4 *2860:A 0
5 *3005:X 0
6 *518:55 9.81802e-05
7 *518:40 0.00137349
8 *518:25 0.00269815
9 *518:14 0.000353962
10 *518:4 0.00191093
11 *2768:CLK *674:16 5.72217e-05
12 *518:14 *2863:A 5.50106e-05
13 *518:14 *673:8 4.93223e-05
14 *518:14 *678:50 0.000382574
15 *518:25 *3029:A 2.71992e-05
16 *518:25 *529:10 0
17 *518:25 *551:8 2.54046e-05
18 *518:25 *622:10 0.000323559
19 *518:25 *678:50 0
20 *518:25 *751:10 0
21 *518:40 *2768:RESET_B 1.53169e-05
22 *518:40 *674:8 5.38249e-05
23 *518:40 *674:12 4.03452e-05
24 *518:40 *674:16 3.98818e-05
25 *518:40 *675:122 3.3577e-05
26 *518:40 *751:10 0
27 *518:55 *722:19 0
28 *518:55 *752:8 0.000166513
29 *3004:A *518:14 0
30 *3005:A *518:14 0
31 *3005:A *518:25 6.48142e-05
32 *3008:A *518:25 0.000105399
33 *20:10 *518:25 9.0063e-05
34 *27:11 *518:25 0.000482609
35 *507:10 *518:14 0.000166522
*RES
1 *3005:X *518:4 23 
2 *518:4 *518:14 38.2236 
3 *518:14 *2860:A 23 
4 *518:4 *518:25 48.7643 
5 *518:25 *2767:CLK 38.6214 
6 *518:25 *518:40 30.7221 
7 *518:40 *2768:CLK 25.9 
8 *518:40 *518:55 32.2579 
9 *518:55 *2861:A 23 
*END

*D_NET *519 0.000448388
*CONN
*I *2537:A0 I *D sky130_fd_sc_hd__mux2_1
*I *2941:X O *D sky130_fd_sc_hd__dlygate4sd3_1
*CAP
1 *2537:A0 9.47017e-05
2 *2941:X 7.63852e-05
3 *519:8 0.000171087
4 *2537:A0 *2537:A1 5.67058e-05
5 *2421:A1 *519:8 0
6 *2609:S *519:8 0
7 *327:26 *2537:A0 4.95081e-05
*RES
1 *2941:X *519:8 39.2014 
2 *519:8 *2537:A0 39.5743 
*END

*D_NET *520 0.000447551
*CONN
*I *2589:A0 I *D sky130_fd_sc_hd__mux2_1
*I *2942:X O *D sky130_fd_sc_hd__dlygate4sd3_1
*CAP
1 *2589:A0 4.35743e-05
2 *2942:X 4.35743e-05
3 *2589:A0 *653:81 2.4754e-05
4 *2905:A *2589:A0 0.000190627
5 *336:65 *2589:A0 4.42181e-05
6 *340:83 *2589:A0 0.000100803
*RES
1 *2942:X *2589:A0 48.5271 
*END

*D_NET *521 0.000666173
*CONN
*I *2533:A0 I *D sky130_fd_sc_hd__mux2_1
*I *2943:X O *D sky130_fd_sc_hd__dlygate4sd3_1
*CAP
1 *2533:A0 0.000218756
2 *2943:X 0.000218756
3 *2533:A0 *656:32 5.50049e-05
4 *2533:S *2533:A0 0.000153369
5 *338:65 *2533:A0 2.02872e-05
*RES
1 *2943:X *2533:A0 49.6457 
*END

*D_NET *522 0.000326749
*CONN
*I *2561:A0 I *D sky130_fd_sc_hd__mux2_1
*I *2944:X O *D sky130_fd_sc_hd__dlygate4sd3_1
*CAP
1 *2561:A0 0
2 *2944:X 0.000149424
3 *522:10 0.000149424
4 *332:72 *522:10 2.79004e-05
5 *468:14 *522:10 0
*RES
1 *2944:X *522:10 40.2993 
2 *522:10 *2561:A0 38 
*END

*D_NET *523 0.000693484
*CONN
*I *2497:A0 I *D sky130_fd_sc_hd__mux2_1
*I *2945:X O *D sky130_fd_sc_hd__dlygate4sd3_1
*CAP
1 *2497:A0 0.000117144
2 *2945:X 8.66144e-05
3 *523:8 0.000203759
4 *523:8 *637:121 0
5 *28:17 *2497:A0 9.47033e-05
6 *327:65 *523:8 3.70094e-05
7 *327:69 *523:8 0.00014411
8 *358:34 *523:8 1.01436e-05
*RES
1 *2945:X *523:8 40.2579 
2 *523:8 *2497:A0 40.0507 
*END

*D_NET *524 0.000991828
*CONN
*I *2516:A0 I *D sky130_fd_sc_hd__mux2_1
*I *2946:X O *D sky130_fd_sc_hd__dlygate4sd3_1
*CAP
1 *2516:A0 5.40173e-05
2 *2946:X 9.44589e-05
3 *524:8 0.000148476
4 *2516:A0 *654:74 4.95081e-05
5 *524:8 *646:54 7.461e-05
6 *325:81 *524:8 6.7177e-06
7 *331:35 *2516:A0 0.000139352
8 *331:35 *524:8 0.000135557
9 *340:73 *2516:A0 1.76557e-05
10 *345:76 *2516:A0 0.000271476
*RES
1 *2946:X *524:8 40.2579 
2 *524:8 *2516:A0 41.0036 
*END

*D_NET *525 0.000742281
*CONN
*I *2597:A0 I *D sky130_fd_sc_hd__mux2_1
*I *2948:X O *D sky130_fd_sc_hd__dlygate4sd3_1
*CAP
1 *2597:A0 0
2 *2948:X 0.000247934
3 *525:10 0.000247934
4 *525:10 *655:62 4.06408e-05
5 *334:76 *525:10 0.000168754
6 *341:67 *525:10 3.70187e-05
*RES
1 *2948:X *525:10 42.3086 
2 *525:10 *2597:A0 38 
*END

*D_NET *526 0.000754101
*CONN
*I *2615:A0 I *D sky130_fd_sc_hd__mux2_1
*I *2949:X O *D sky130_fd_sc_hd__dlygate4sd3_1
*CAP
1 *2615:A0 4.5791e-05
2 *2949:X 0.000176918
3 *526:8 0.000222709
4 *526:8 *537:8 8.71559e-05
5 *332:42 *2615:A0 5.50049e-05
6 *485:29 *526:8 0.000166522
*RES
1 *2949:X *526:8 42.0186 
2 *526:8 *2615:A0 38.6214 
*END

*D_NET *527 0.00158486
*CONN
*I *2558:A0 I *D sky130_fd_sc_hd__mux2_1
*I *2950:X O *D sky130_fd_sc_hd__dlygate4sd3_1
*CAP
1 *2558:A0 0.000130457
2 *2950:X 0.000240254
3 *527:8 0.000370711
4 *527:8 *643:66 0
5 *2950:A *527:8 0
6 *144:18 *527:8 0.000148048
7 *337:97 *527:8 0.000510859
8 *356:117 *2558:A0 0.000184527
*RES
1 *2950:X *527:8 44.8357 
2 *527:8 *2558:A0 40.0507 
*END

*D_NET *528 0.000413338
*CONN
*I *2594:A0 I *D sky130_fd_sc_hd__mux2_1
*I *2951:X O *D sky130_fd_sc_hd__dlygate4sd3_1
*CAP
1 *2594:A0 0
2 *2951:X 5.50644e-05
3 *528:8 5.50644e-05
4 *340:100 *528:8 1.94522e-05
5 *342:30 *528:8 0.000171906
6 *457:10 *528:8 0.000111852
*RES
1 *2951:X *528:8 40.2579 
2 *528:8 *2594:A0 38 
*END

*D_NET *529 0.00149521
*CONN
*I *2390:B I *D sky130_fd_sc_hd__and2b_2
*I *3006:X O *D sky130_fd_sc_hd__clkbuf_1
*CAP
1 *2390:B 0
2 *3006:X 0.000409223
3 *529:10 0.000409223
4 *529:10 *3029:A 6.48049e-05
5 *529:10 *622:10 7.4878e-05
6 *529:10 *625:10 0.000128583
7 *529:10 *678:50 0.000275894
8 *27:11 *529:10 0.000132607
9 *518:25 *529:10 0
*RES
1 *3006:X *529:10 49.6829 
2 *529:10 *2390:B 38 
*END

*D_NET *530 0.000745939
*CONN
*I *2523:A0 I *D sky130_fd_sc_hd__mux2_1
*I *2952:X O *D sky130_fd_sc_hd__dlygate4sd3_1
*CAP
1 *2523:A0 2.2222e-05
2 *2952:X 0.000195104
3 *530:8 0.000217326
4 *2523:A0 *657:44 7.53384e-06
5 *530:8 *628:12 0.000122952
6 *530:8 *657:44 4.41619e-05
7 *2952:A *530:8 0
8 *170:10 *530:8 8.16356e-05
9 *332:105 *2523:A0 5.50049e-05
*RES
1 *2952:X *530:8 43.075 
2 *530:8 *2523:A0 38.6214 
*END

*D_NET *531 0.000414549
*CONN
*I *2538:A0 I *D sky130_fd_sc_hd__mux2_1
*I *2953:X O *D sky130_fd_sc_hd__dlygate4sd3_1
*CAP
1 *2538:A0 0
2 *2953:X 0.000139222
3 *531:10 0.000139222
4 *531:10 *2501:A0 8.62783e-05
5 *531:10 *634:170 8.97286e-06
6 *340:16 *531:10 4.08537e-05
*RES
1 *2953:X *531:10 40.2993 
2 *531:10 *2538:A0 38 
*END

*D_NET *532 0.000444821
*CONN
*I *2586:A0 I *D sky130_fd_sc_hd__mux2_1
*I *2954:X O *D sky130_fd_sc_hd__dlygate4sd3_1
*CAP
1 *2586:A0 7.39275e-05
2 *2954:X 4.50246e-05
3 *532:8 0.000118952
4 *2586:A0 *2586:A1 5.50106e-05
5 *2586:A0 *699:6 2.4754e-05
6 *329:107 *532:8 4.08641e-05
7 *347:18 *532:8 8.62876e-05
*RES
1 *2954:X *532:8 39.2014 
2 *532:8 *2586:A0 39.0979 
*END

*D_NET *533 0.00197417
*CONN
*I *2544:A0 I *D sky130_fd_sc_hd__mux2_1
*I *2955:X O *D sky130_fd_sc_hd__dlygate4sd3_1
*CAP
1 *2544:A0 0.000173981
2 *2955:X 0.000222644
3 *533:8 0.000396625
4 *2544:A0 *651:59 5.44264e-05
5 *2544:A0 *651:65 5.56279e-05
6 *173:8 *533:8 0.000507996
7 *334:121 *533:8 6.22448e-06
8 *486:12 *533:8 0.000138727
9 *494:14 *533:8 0.000194242
10 *494:37 *2544:A0 5.50049e-05
11 *494:37 *533:8 0.000168674
*RES
1 *2955:X *533:8 45.1879 
2 *533:8 *2544:A0 41.0036 
*END

*D_NET *534 0.000413286
*CONN
*I *2532:A0 I *D sky130_fd_sc_hd__mux2_1
*I *2956:X O *D sky130_fd_sc_hd__dlygate4sd3_1
*CAP
1 *2532:A0 8.04844e-05
2 *2956:X 8.04844e-05
3 *2532:A0 *2532:A1 5.67058e-05
4 *2532:S *2532:A0 0.00010018
5 *2956:A *2532:A0 5.50106e-05
6 *427:10 *2532:A0 4.04206e-05
*RES
1 *2956:X *2532:A0 48.5271 
*END

*D_NET *535 0.000972427
*CONN
*I *2520:A0 I *D sky130_fd_sc_hd__mux2_1
*I *2957:X O *D sky130_fd_sc_hd__dlygate4sd3_1
*CAP
1 *2520:A0 0.000112214
2 *2957:X 0.00013562
3 *535:8 0.000247834
4 *2520:A0 *2520:A1 9.75779e-05
5 *71:8 *535:8 2.5415e-05
6 *329:90 *535:8 5.45887e-05
7 *332:153 *535:8 0.000299178
8 *342:67 *535:8 0
*RES
1 *2957:X *535:8 42.0186 
2 *535:8 *2520:A0 39.5743 
*END

*D_NET *536 0.000397087
*CONN
*I *2470:A0 I *D sky130_fd_sc_hd__mux2_1
*I *2959:X O *D sky130_fd_sc_hd__dlygate4sd3_1
*CAP
1 *2470:A0 4.57773e-05
2 *2959:X 3.89734e-05
3 *536:8 8.47506e-05
4 *536:8 *666:20 8.62876e-05
5 *332:28 *2470:A0 5.50106e-05
6 *399:14 *536:8 8.62876e-05
*RES
1 *2959:X *536:8 39.2014 
2 *536:8 *2470:A0 38.6214 
*END

*D_NET *537 0.00180874
*CONN
*I *2543:A0 I *D sky130_fd_sc_hd__mux2_1
*I *2960:X O *D sky130_fd_sc_hd__dlygate4sd3_1
*CAP
1 *2543:A0 0.000186344
2 *2960:X 0.000327173
3 *537:8 0.000513517
4 *2543:A0 *653:56 7.31354e-05
5 *2543:A0 *653:65 0.000274234
6 *537:8 *653:105 0.00027032
7 *485:14 *537:8 5.85449e-05
8 *485:29 *537:8 1.8312e-05
9 *526:8 *537:8 8.71559e-05
*RES
1 *2960:X *537:8 45.1879 
2 *537:8 *2543:A0 41.9771 
*END

*D_NET *538 0.000482131
*CONN
*I *2474:A0 I *D sky130_fd_sc_hd__mux2_1
*I *2961:X O *D sky130_fd_sc_hd__dlygate4sd3_1
*CAP
1 *2474:A0 0
2 *2961:X 0.000214153
3 *538:10 0.000214153
4 *538:10 *642:41 0
5 *538:10 *650:24 5.38249e-05
6 *341:105 *538:10 0
*RES
1 *2961:X *538:10 41.2521 
2 *538:10 *2474:A0 38 
*END

*D_NET *539 0.000529334
*CONN
*I *2473:A0 I *D sky130_fd_sc_hd__mux2_1
*I *2962:X O *D sky130_fd_sc_hd__dlygate4sd3_1
*CAP
1 *2473:A0 0
2 *2962:X 0.000172598
3 *539:10 0.000172598
4 *539:10 *632:14 6.99589e-05
5 *539:10 *634:115 2.79004e-05
6 *539:10 *659:124 8.62783e-05
*RES
1 *2962:X *539:10 40.7757 
2 *539:10 *2473:A0 38 
*END

*D_NET *540 0.00499316
*CONN
*I *2857:A I *D sky130_fd_sc_hd__clkbuf_2
*I *2858:A I *D sky130_fd_sc_hd__buf_1
*I *3007:X O *D sky130_fd_sc_hd__buf_1
*CAP
1 *2857:A 0.000520015
2 *2858:A 0
3 *3007:X 0.000125693
4 *540:18 0.000773428
5 *540:10 0.00175676
6 *540:8 0.000589014
7 *2857:A *2423:A0 5.67058e-05
8 *540:10 *2423:A0 9.78179e-05
9 *540:10 *3028:A 0.000175171
10 *540:18 *667:10 0.000232654
11 *2423:S *2857:A 2.93747e-05
12 *38:10 *2857:A 2.30292e-05
13 *264:20 *540:10 3.0647e-05
14 *264:20 *540:18 0.00021621
15 *264:39 *540:10 6.32688e-05
16 *284:12 *540:18 5.44006e-05
17 *383:12 *540:18 0.00024897
*RES
1 *3007:X *540:8 39.5743 
2 *540:8 *540:10 11.0614 
3 *540:10 *540:18 31.4264 
4 *540:18 *2858:A 23 
5 *540:10 *2857:A 47.1971 
*END

*D_NET *541 0.00129986
*CONN
*I *2560:A0 I *D sky130_fd_sc_hd__mux2_1
*I *2963:X O *D sky130_fd_sc_hd__dlygate4sd3_1
*CAP
1 *2560:A0 0
2 *2963:X 0.000221519
3 *541:6 0.000221519
4 *541:6 *637:86 0.00017934
5 *541:6 *647:41 5.50106e-05
6 *541:6 *658:25 0.000354122
7 *541:6 *658:33 5.67058e-05
8 *2907:A *541:6 9.91798e-05
9 *337:57 *541:6 0.00010018
10 *341:117 *541:6 1.22822e-05
*RES
1 *2963:X *541:6 30.2914 
2 *541:6 *2560:A0 23 
*END

*D_NET *542 0.000549969
*CONN
*I *2494:A0 I *D sky130_fd_sc_hd__mux2_1
*I *2964:X O *D sky130_fd_sc_hd__dlygate4sd3_1
*CAP
1 *2494:A0 0
2 *2964:X 0.000196285
3 *542:10 0.000196285
4 *542:10 *2449:S 1.40958e-05
5 *542:10 *2621:CLK 0
6 *542:10 *634:74 5.3304e-05
7 *542:10 *669:34 8.62876e-05
8 *2449:A1 *542:10 3.7122e-06
*RES
1 *2964:X *542:10 40.7757 
2 *542:10 *2494:A0 38 
*END

*D_NET *543 0.000986631
*CONN
*I *2548:A1 I *D sky130_fd_sc_hd__mux2_1
*I *2965:X O *D sky130_fd_sc_hd__dlygate4sd3_1
*CAP
1 *2548:A1 9.26883e-05
2 *2965:X 0.000169057
3 *543:8 0.000261745
4 *2548:A1 *2557:A1 3.52383e-05
5 *2548:A1 *664:14 1.94693e-05
6 *111:10 *543:8 5.36457e-05
7 *337:28 *543:8 0
8 *342:71 *543:8 0.000354788
*RES
1 *2965:X *543:8 42.7229 
2 *543:8 *2548:A1 39.5743 
*END

*D_NET *544 0.00053245
*CONN
*I *2562:A0 I *D sky130_fd_sc_hd__mux2_1
*I *2966:X O *D sky130_fd_sc_hd__dlygate4sd3_1
*CAP
1 *2562:A0 9.02395e-05
2 *2966:X 0.000102874
3 *544:8 0.000193113
4 *544:8 *2553:A0 1.83667e-05
5 *544:8 *653:25 7.28526e-05
6 *329:44 *544:8 0
7 *337:142 *2562:A0 5.50049e-05
*RES
1 *2966:X *544:8 40.2579 
2 *544:8 *2562:A0 39.5743 
*END

*D_NET *545 0.00056135
*CONN
*I *2559:A0 I *D sky130_fd_sc_hd__mux2_1
*I *2967:X O *D sky130_fd_sc_hd__dlygate4sd3_1
*CAP
1 *2559:A0 0
2 *2967:X 0.00017722
3 *545:10 0.00017722
4 *545:10 *633:44 9.5877e-05
5 *545:10 *634:98 2.4754e-05
6 *545:10 *659:112 8.62783e-05
*RES
1 *2967:X *545:10 40.7757 
2 *545:10 *2559:A0 38 
*END

*D_NET *546 0.000597197
*CONN
*I *2614:A0 I *D sky130_fd_sc_hd__mux2_1
*I *2968:X O *D sky130_fd_sc_hd__dlygate4sd3_1
*CAP
1 *2614:A0 0
2 *2968:X 0.000242087
3 *546:10 0.000242087
4 *332:92 *546:10 9.01041e-05
5 *492:10 *546:10 2.29192e-05
*RES
1 *2968:X *546:10 41.7286 
2 *546:10 *2614:A0 38 
*END

*D_NET *547 0.000728514
*CONN
*I *2542:A0 I *D sky130_fd_sc_hd__mux2_1
*I *2970:X O *D sky130_fd_sc_hd__dlygate4sd3_1
*CAP
1 *2542:A0 0.0002
2 *2970:X 6.87722e-05
3 *547:8 0.000268772
4 *2542:A0 *2542:A1 9.84794e-05
5 *547:8 *2542:A1 2.5415e-05
6 *334:80 *2542:A0 1.41077e-05
7 *334:93 *2542:A0 5.29672e-05
*RES
1 *2970:X *547:8 39.2014 
2 *547:8 *2542:A0 41.0036 
*END

*D_NET *548 0.00246095
*CONN
*I *2524:A0 I *D sky130_fd_sc_hd__mux2_1
*I *2971:X O *D sky130_fd_sc_hd__dlygate4sd3_1
*CAP
1 *2524:A0 0
2 *2971:X 6.87722e-05
3 *548:16 0.000766627
4 *548:8 0.000835399
5 *548:8 *655:38 2.5415e-05
6 *548:16 *645:127 0.000267173
7 *2453:A2 *548:16 1.16872e-05
8 *2453:A3 *548:16 6.82416e-05
9 *2524:S *548:16 0.000102389
10 *332:92 *548:16 0.000315245
*RES
1 *2971:X *548:8 39.2014 
2 *548:8 *548:16 27.9257 
3 *548:16 *2524:A0 23 
*END

*D_NET *549 0.00108003
*CONN
*I *2541:A0 I *D sky130_fd_sc_hd__mux2_1
*I *2972:X O *D sky130_fd_sc_hd__dlygate4sd3_1
*CAP
1 *2541:A0 0.000396199
2 *2972:X 0.000126199
3 *549:8 0.000522398
4 *106:10 *2541:A0 3.52383e-05
*RES
1 *2972:X *549:8 40.2579 
2 *549:8 *2541:A0 45.2914 
*END

*D_NET *550 0.00145065
*CONN
*I *2572:A0 I *D sky130_fd_sc_hd__mux2_1
*I *2973:X O *D sky130_fd_sc_hd__dlygate4sd3_1
*CAP
1 *2572:A0 0
2 *2973:X 0.000348425
3 *550:10 0.000348425
4 *334:74 *550:10 0.000298257
5 *338:123 *550:10 0.000310653
6 *341:67 *550:10 0.000144894
*RES
1 *2973:X *550:10 45.4986 
2 *550:10 *2572:A0 38 
*END

*D_NET *551 0.0124287
*CONN
*I *2856:A I *D sky130_fd_sc_hd__buf_1
*I *2855:A I *D sky130_fd_sc_hd__clkbuf_2
*I *3008:X O *D sky130_fd_sc_hd__buf_1
*CAP
1 *2856:A 0
2 *2855:A 0
3 *3008:X 6.88062e-05
4 *551:38 0.00165615
5 *551:26 0.00253626
6 *551:18 0.00263739
7 *551:8 0.00182608
8 *551:8 *678:50 0
9 *551:18 *2401:A 2.4754e-05
10 *551:18 *2732:RESET_B 0.0002263
11 *551:18 *2735:D 0.000182826
12 *551:18 *2735:RESET_B 9.18637e-05
13 *551:18 *634:24 7.30555e-05
14 *551:18 *668:69 0.000208328
15 *551:18 *708:10 9.96265e-05
16 *551:18 *720:18 0.000277586
17 *551:18 *754:33 3.59538e-05
18 *551:26 *2732:CLK 0.000191335
19 *551:26 *2732:RESET_B 6.44844e-05
20 *551:26 *634:40 4.08664e-05
21 *551:26 *634:44 5.50049e-05
22 *551:26 *647:101 9.41704e-05
23 *551:26 *720:18 0.000138486
24 *551:38 *634:52 7.41956e-06
25 *551:38 *642:33 0.000260688
26 *551:38 *647:101 0.0004981
27 *2407:C1 *551:18 5.3304e-05
28 *2425:A1 *551:38 6.10551e-06
29 *2575:S *551:38 0.000474256
30 *143:8 *551:38 7.42471e-05
31 *264:18 *551:38 0
32 *267:10 *551:26 1.24487e-05
33 *271:10 *551:18 0.000107451
34 *339:140 *551:38 0.000227763
35 *340:24 *551:38 0.000152208
36 *518:25 *551:8 2.54046e-05
*RES
1 *3008:X *551:8 39.2014 
2 *551:8 *551:18 43.4407 
3 *551:18 *551:26 13.6714 
4 *551:26 *551:38 37.9239 
5 *551:38 *2855:A 38 
6 *551:26 *2856:A 23 
*END

*D_NET *552 0.000933657
*CONN
*I *2515:A0 I *D sky130_fd_sc_hd__mux2_1
*I *2974:X O *D sky130_fd_sc_hd__dlygate4sd3_1
*CAP
1 *2515:A0 6.18543e-05
2 *2974:X 9.68311e-05
3 *552:8 0.000158685
4 *2515:A0 *656:44 5.67058e-05
5 *552:8 *573:18 0
6 *2451:A0 *2515:A0 0.000185428
7 *2515:S *2515:A0 4.9662e-05
8 *2515:S *552:8 0.000110913
9 *338:65 *2515:A0 2.02872e-05
10 *339:69 *2515:A0 2.9938e-05
11 *372:8 *552:8 0.000163352
*RES
1 *2974:X *552:8 40.2579 
2 *552:8 *2515:A0 40.5271 
*END

*D_NET *553 0.00049756
*CONN
*I *2603:A1 I *D sky130_fd_sc_hd__mux2_1
*I *2975:X O *D sky130_fd_sc_hd__dlygate4sd3_1
*CAP
1 *2603:A1 0
2 *2975:X 9.71606e-05
3 *553:10 9.71606e-05
4 *553:10 *633:44 0.000141879
5 *553:10 *661:60 0.000141879
6 *2820:A *553:10 1.94812e-05
*RES
1 *2975:X *553:10 40.5271 
2 *553:10 *2603:A1 38 
*END

*D_NET *554 0.000849807
*CONN
*I *2490:A0 I *D sky130_fd_sc_hd__mux2_1
*I *2976:X O *D sky130_fd_sc_hd__dlygate4sd3_1
*CAP
1 *2490:A0 0.000184275
2 *2976:X 6.28669e-05
3 *554:8 0.000247142
4 *554:8 *582:8 0
5 *323:74 *554:8 8.4047e-05
6 *332:28 *2490:A0 0.000271476
*RES
1 *2976:X *554:8 39.2014 
2 *554:8 *2490:A0 41.0036 
*END

*D_NET *555 0.000299648
*CONN
*I *2475:A0 I *D sky130_fd_sc_hd__mux2_1
*I *2977:X O *D sky130_fd_sc_hd__dlygate4sd3_1
*CAP
1 *2475:A0 0
2 *2977:X 9.80101e-05
3 *555:10 9.80101e-05
4 *555:10 *655:112 8.62876e-05
5 *51:8 *555:10 0
6 *412:6 *555:10 1.73399e-05
*RES
1 *2977:X *555:10 39.8229 
2 *555:10 *2475:A0 38 
*END

*D_NET *556 0.000497368
*CONN
*I *2525:A0 I *D sky130_fd_sc_hd__mux2_1
*I *2978:X O *D sky130_fd_sc_hd__dlygate4sd3_1
*CAP
1 *2525:A0 0.000103369
2 *2978:X 6.87722e-05
3 *556:8 0.000172141
4 *2525:A0 *2525:A1 5.50049e-05
5 *2525:A0 *653:6 5.50106e-05
6 *556:8 *607:10 2.5415e-05
7 *332:46 *2525:A0 1.76557e-05
*RES
1 *2978:X *556:8 39.2014 
2 *556:8 *2525:A0 39.5743 
*END

*D_NET *557 0.00125643
*CONN
*I *2563:A0 I *D sky130_fd_sc_hd__mux2_1
*I *2979:X O *D sky130_fd_sc_hd__dlygate4sd3_1
*CAP
1 *2563:A0 0
2 *2979:X 0.000244533
3 *557:10 0.000244533
4 *329:54 *557:10 0.000382564
5 *332:70 *557:10 0.000384805
*RES
1 *2979:X *557:10 44.6493 
2 *557:10 *2563:A0 38 
*END

*D_NET *558 0.00043955
*CONN
*I *2480:A0 I *D sky130_fd_sc_hd__mux2_1
*I *2981:X O *D sky130_fd_sc_hd__dlygate4sd3_1
*CAP
1 *2480:A0 9.7219e-05
2 *2981:X 8.52074e-05
3 *558:8 0.000182426
4 *2480:A0 *666:14 5.70419e-05
5 *2480:A0 *666:20 1.76557e-05
6 *558:8 *666:8 0
7 *558:8 *670:78 0
*RES
1 *2981:X *558:8 39.2014 
2 *558:8 *2480:A0 39.5743 
*END

*D_NET *559 0.00134204
*CONN
*I *2596:A0 I *D sky130_fd_sc_hd__mux2_1
*I *2982:X O *D sky130_fd_sc_hd__dlygate4sd3_1
*CAP
1 *2596:A0 0.000113103
2 *2982:X 7.92719e-05
3 *559:8 0.000192374
4 *2596:A0 *669:40 0.000210959
5 *2596:A0 *678:12 0.000484551
6 *559:8 *657:104 8.16459e-05
7 *2596:S *2596:A0 9.84851e-05
8 *347:47 *559:8 8.16459e-05
*RES
1 *2982:X *559:8 40.2579 
2 *559:8 *2596:A0 43.3857 
*END

*D_NET *560 0.000948639
*CONN
*I *2550:A1 I *D sky130_fd_sc_hd__mux2_1
*I *2983:X O *D sky130_fd_sc_hd__dlygate4sd3_1
*CAP
1 *2550:A1 0
2 *2983:X 0.00033571
3 *560:10 0.00033571
4 *560:10 *678:40 0.00013535
5 *474:12 *560:10 0.000141869
*RES
1 *2983:X *560:10 43.3857 
2 *560:10 *2550:A1 38 
*END

*D_NET *561 0.000411483
*CONN
*I *2612:A0 I *D sky130_fd_sc_hd__mux2_1
*I *2984:X O *D sky130_fd_sc_hd__dlygate4sd3_1
*CAP
1 *2612:A0 0.000153644
2 *2984:X 0.000153644
3 *2612:A0 *2612:A1 2.93747e-05
4 *332:105 *2612:A0 2.06822e-05
5 *342:83 *2612:A0 5.41385e-05
*RES
1 *2984:X *2612:A0 48.5271 
*END

*D_NET *562 0.00840284
*CONN
*I *2854:A I *D sky130_fd_sc_hd__buf_1
*I *2853:A I *D sky130_fd_sc_hd__clkbuf_2
*I *3009:X O *D sky130_fd_sc_hd__buf_1
*CAP
1 *2854:A 0.000449396
2 *2853:A 0
3 *3009:X 0.000455792
4 *562:25 0.00159385
5 *562:16 0.000220785
6 *562:10 0.00182103
7 *2854:A *639:143 0
8 *2854:A *643:39 0
9 *2854:A *646:54 0.000484291
10 *562:10 *626:24 0.000196264
11 *562:16 *662:120 0
12 *562:25 *2585:A0 0.000357959
13 *562:25 *626:16 3.7122e-06
14 *562:25 *626:24 0.00055004
15 *562:25 *662:48 0.000180519
16 *562:25 *662:55 0.000442856
17 *562:25 *662:74 0.000439364
18 *2434:A1 *2854:A 0.000100522
19 *2635:CLK *562:25 0.000255642
20 *2635:D *562:25 0.000183564
21 *325:81 *2854:A 0
22 *329:44 *562:16 0.000407218
23 *332:64 *562:16 0
24 *356:20 *562:25 0.000139346
25 *401:8 *562:25 9.84851e-05
26 *417:25 *2854:A 2.22079e-05
*RES
1 *3009:X *562:10 30.4571 
2 *562:10 *562:16 35.4271 
3 *562:16 *2853:A 23 
4 *562:10 *562:25 43.2543 
5 *562:25 *2854:A 47.3007 
*END

*D_NET *563 0.000429521
*CONN
*I *2613:A0 I *D sky130_fd_sc_hd__mux2_1
*I *2985:X O *D sky130_fd_sc_hd__dlygate4sd3_1
*CAP
1 *2613:A0 7.61223e-05
2 *2985:X 7.61223e-05
3 *2613:A0 *657:34 9.6103e-05
4 *2613:A0 *657:44 2.93845e-05
5 *2985:A *2613:A0 5.3304e-05
6 *342:117 *2613:A0 9.84851e-05
*RES
1 *2985:X *2613:A0 48.5271 
*END

*D_NET *564 0.00233536
*CONN
*I *2580:A1 I *D sky130_fd_sc_hd__mux2_1
*I *2986:X O *D sky130_fd_sc_hd__dlygate4sd3_1
*CAP
1 *2580:A1 6.50784e-05
2 *2986:X 0.000399044
3 *564:8 0.000464122
4 *2933:A *564:8 8.34394e-05
5 *140:10 *2580:A1 0
6 *312:6 *564:8 2.13733e-05
7 *341:34 *564:8 0.000288696
8 *437:8 *2580:A1 5.21024e-05
9 *437:12 *564:8 0.000480236
10 *511:10 *2580:A1 8.62783e-05
11 *511:10 *564:8 0.000394988
*RES
1 *2986:X *564:8 48.6264 
2 *564:8 *2580:A1 39.5536 
*END

*D_NET *565 0.00199841
*CONN
*I *2610:A0 I *D sky130_fd_sc_hd__mux2_1
*I *2987:X O *D sky130_fd_sc_hd__dlygate4sd3_1
*CAP
1 *2610:A0 0.000274875
2 *2987:X 0.000240461
3 *565:8 0.000515337
4 *2610:A0 *2610:A1 0.000315852
5 *565:8 *637:26 0.000141304
6 *2610:S *2610:A0 9.84851e-05
7 *289:8 *565:8 8.62876e-05
8 *333:58 *2610:A0 0.000325805
9 *341:103 *565:8 0
*RES
1 *2987:X *565:8 43.075 
2 *565:8 *2610:A0 45.7679 
*END

*D_NET *566 0.00119483
*CONN
*I *2477:A0 I *D sky130_fd_sc_hd__mux2_1
*I *2988:X O *D sky130_fd_sc_hd__dlygate4sd3_1
*CAP
1 *2477:A0 0.00015509
2 *2988:X 0.000103845
3 *566:8 0.000258935
4 *2477:A0 *2462:S1 5.50049e-05
5 *566:8 *651:114 8.51432e-05
6 *317:6 *2477:A0 0.000488848
7 *323:120 *2477:A0 2.4754e-05
8 *323:120 *566:8 0
9 *323:126 *2477:A0 2.32101e-05
*RES
1 *2988:X *566:8 40.2579 
2 *566:8 *2477:A0 43.3857 
*END

*D_NET *567 0.00131778
*CONN
*I *2568:A0 I *D sky130_fd_sc_hd__mux2_1
*I *2989:X O *D sky130_fd_sc_hd__dlygate4sd3_1
*CAP
1 *2568:A0 3.83793e-05
2 *2989:X 0.000394313
3 *567:10 0.000432693
4 *567:10 *2455:A0 9.87414e-05
5 *567:10 *573:18 0.000296947
6 *2943:A *567:10 0
7 *338:44 *2568:A0 5.67058e-05
*RES
1 *2989:X *567:10 45.0221 
2 *567:10 *2568:A0 38.6214 
*END

*D_NET *568 0.000422135
*CONN
*I *2584:A0 I *D sky130_fd_sc_hd__mux2_1
*I *2990:X O *D sky130_fd_sc_hd__dlygate4sd3_1
*CAP
1 *2584:A0 0.00010046
2 *2990:X 0.00010046
3 *2584:A0 *2584:A1 5.67058e-05
4 *2584:S *2584:A0 2.4754e-05
5 *2990:A *2584:A0 5.50106e-05
6 *331:56 *2584:A0 2.80394e-05
7 *345:12 *2584:A0 5.67058e-05
*RES
1 *2990:X *2584:A0 48.5271 
*END

*D_NET *569 0.00155482
*CONN
*I *2513:A0 I *D sky130_fd_sc_hd__mux2_1
*I *2992:X O *D sky130_fd_sc_hd__dlygate4sd3_1
*CAP
1 *2513:A0 0
2 *2992:X 0.000319066
3 *569:8 0.000319066
4 *569:8 *650:42 0.000381644
5 *2439:A1 *569:8 0.000274543
6 *2513:S *569:8 3.56537e-05
7 *2992:A *569:8 7.6144e-05
8 *331:131 *569:8 2.64506e-05
9 *342:77 *569:8 0.000122247
10 *442:25 *569:8 0
*RES
1 *2992:X *569:8 47.6529 
2 *569:8 *2513:A0 38 
*END

*D_NET *570 0.000379171
*CONN
*I *2505:A1 I *D sky130_fd_sc_hd__mux2_1
*I *2993:X O *D sky130_fd_sc_hd__dlygate4sd3_1
*CAP
1 *2505:A1 5.2637e-05
2 *2993:X 6.1555e-05
3 *570:8 0.000114192
4 *2505:A1 *655:10 5.3304e-05
5 *2505:A1 *655:20 1.24376e-05
6 *570:8 *2453:S1 8.50457e-05
*RES
1 *2993:X *570:8 39.2014 
2 *570:8 *2505:A1 38.6214 
*END

*D_NET *571 0.00120552
*CONN
*I *2585:A0 I *D sky130_fd_sc_hd__mux2_1
*I *2994:X O *D sky130_fd_sc_hd__dlygate4sd3_1
*CAP
1 *2585:A0 9.33752e-05
2 *2994:X 0.000105701
3 *571:8 0.000199076
4 *2585:A0 *626:24 9.1497e-05
5 *2585:S *2585:A0 0.000184407
6 *340:100 *571:8 0.000138727
7 *340:110 *571:8 3.47781e-05
8 *341:59 *571:8 0
9 *562:25 *2585:A0 0.000357959
*RES
1 *2994:X *571:8 40.2579 
2 *571:8 *2585:A0 41.9564 
*END

*D_NET *572 0.00181675
*CONN
*I *2606:A1 I *D sky130_fd_sc_hd__mux2_1
*I *2995:X O *D sky130_fd_sc_hd__dlygate4sd3_1
*CAP
1 *2606:A1 0.000169035
2 *2995:X 0.000263002
3 *572:10 0.000432037
4 *2606:A1 *654:105 2.02872e-05
5 *314:8 *2606:A1 5.3304e-05
6 *315:8 *2606:A1 0.000267167
7 *315:14 *572:10 0.000324733
8 *323:112 *572:10 0.000160672
9 *334:41 *572:10 6.9805e-05
10 *413:10 *572:10 5.67058e-05
*RES
1 *2995:X *572:10 44.4214 
2 *572:10 *2606:A1 41.48 
*END

*D_NET *573 0.00783771
*CONN
*I *2851:A I *D sky130_fd_sc_hd__clkbuf_2
*I *2852:A I *D sky130_fd_sc_hd__buf_1
*I *3010:X O *D sky130_fd_sc_hd__buf_1
*CAP
1 *2851:A 0
2 *2852:A 0
3 *3010:X 0.00165056
4 *573:18 0.00133058
5 *573:12 0.00170231
6 *573:6 0.00202229
7 *573:12 *630:20 0.000301997
8 *573:18 *2455:S 0
9 *573:18 *630:10 0
10 *573:18 *630:20 0
11 *573:18 *645:16 8.7327e-05
12 *573:18 *659:112 0
13 *573:18 *678:40 0
14 *2441:A2 *573:12 2.64506e-05
15 *2928:A *573:18 0.000130066
16 *73:8 *573:12 0
17 *73:8 *573:18 0.000114092
18 *89:8 *573:18 0
19 *129:8 *573:18 5.56203e-05
20 *342:101 *573:18 0.000119467
21 *354:56 *573:12 0
22 *505:10 *573:18 0
23 *552:8 *573:18 0
24 *567:10 *573:18 0.000296947
*RES
1 *3010:X *573:6 45.0607 
2 *573:6 *573:12 38.2443 
3 *573:12 *573:18 39.8571 
4 *573:18 *2852:A 38 
5 *573:12 *2851:A 23 
*END

*D_NET *574 0.000871591
*CONN
*I *2579:A1 I *D sky130_fd_sc_hd__mux2_1
*I *2996:X O *D sky130_fd_sc_hd__dlygate4sd3_1
*CAP
1 *2579:A1 0
2 *2996:X 0.000348016
3 *574:10 0.000348016
4 *574:10 *595:31 0
5 *574:10 *641:50 0.000105183
6 *310:28 *574:10 7.03766e-05
*RES
1 *2996:X *574:10 43.8621 
2 *574:10 *2579:A1 38 
*END

*D_NET *575 0.00331937
*CONN
*I *2476:A0 I *D sky130_fd_sc_hd__mux2_1
*I *2997:X O *D sky130_fd_sc_hd__dlygate4sd3_1
*CAP
1 *2476:A0 0.000187926
2 *2997:X 0.000278823
3 *575:8 0.000466749
4 *2476:A0 *646:166 2.68539e-05
5 *2476:A0 *653:112 5.67058e-05
6 *2476:A0 *653:127 9.84794e-05
7 *575:8 *654:14 6.7177e-06
8 *575:8 *654:105 0
9 *2460:A3 *575:8 7.21237e-05
10 *2647:D *2476:A0 0.000146207
11 *323:96 *2476:A0 0.000355023
12 *323:102 *2476:A0 9.90162e-05
13 *325:81 *575:8 7.72381e-05
14 *332:42 *2476:A0 0.000911471
15 *405:12 *575:8 0.000240012
16 *497:8 *575:8 0.000296026
*RES
1 *2997:X *575:8 44.4836 
2 *575:8 *2476:A0 48.15 
*END

*D_NET *576 0.00135458
*CONN
*I *2510:A0 I *D sky130_fd_sc_hd__mux2_1
*I *2998:X O *D sky130_fd_sc_hd__dlygate4sd3_1
*CAP
1 *2510:A0 0.000109831
2 *2998:X 0.000266705
3 *576:10 0.000376536
4 *281:14 *576:10 0
5 *331:27 *2510:A0 7.73389e-05
6 *333:12 *576:10 9.57796e-05
7 *336:6 *576:10 0.000141954
8 *341:101 *576:10 0.00028644
*RES
1 *2998:X *576:10 43.5929 
2 *576:10 *2510:A0 39.5743 
*END

*D_NET *577 0.00148437
*CONN
*I *2574:A1 I *D sky130_fd_sc_hd__mux2_1
*I *2999:X O *D sky130_fd_sc_hd__dlygate4sd3_1
*CAP
1 *2574:A1 3.54591e-05
2 *2999:X 0.000282998
3 *577:8 0.000318457
4 *2574:A1 *666:93 3.22879e-05
5 *2574:A1 *666:106 2.93747e-05
6 *336:10 *577:8 0.000102126
7 *342:67 *577:8 0.000544824
8 *367:14 *577:8 8.76134e-05
9 *439:16 *2574:A1 5.12254e-05
*RES
1 *2999:X *577:8 45.54 
2 *577:8 *2574:A1 39.0979 
*END

*D_NET *578 0.000710331
*CONN
*I *2512:A0 I *D sky130_fd_sc_hd__mux2_1
*I *3000:X O *D sky130_fd_sc_hd__dlygate4sd3_1
*CAP
1 *2512:A0 6.1499e-05
2 *3000:X 6.1499e-05
3 *331:56 *2512:A0 0.00031495
4 *345:20 *2512:A0 0.000272383
*RES
1 *3000:X *2512:A0 49.48 
*END

*D_NET *579 0.000535092
*CONN
*I *2495:A0 I *D sky130_fd_sc_hd__mux2_1
*I *3001:X O *D sky130_fd_sc_hd__dlygate4sd3_1
*CAP
1 *2495:A0 0
2 *3001:X 0.000174216
3 *579:10 0.000174216
4 *579:10 *639:109 2.72055e-05
5 *579:10 *641:34 8.4047e-05
6 *579:10 *669:56 0
7 *327:69 *579:10 1.83667e-05
8 *354:26 *579:10 5.70419e-05
*RES
1 *3001:X *579:10 41.3557 
2 *579:10 *2495:A0 38 
*END

*D_NET *580 0.000452024
*CONN
*I *2601:A1 I *D sky130_fd_sc_hd__mux2_1
*I *2871:X O *D sky130_fd_sc_hd__dlygate4sd3_1
*CAP
1 *2601:A1 0.000134602
2 *2871:X 0.000134602
3 *2601:A1 *670:64 0.00018282
*RES
1 *2871:X *2601:A1 48.0507 
*END

*D_NET *581 0.00048483
*CONN
*I *2604:A1 I *D sky130_fd_sc_hd__mux2_1
*I *2872:X O *D sky130_fd_sc_hd__dlygate4sd3_1
*CAP
1 *2604:A1 7.20136e-05
2 *2872:X 7.20136e-05
3 *2604:A1 *633:22 9.67842e-05
4 *2604:A1 *633:34 5.3304e-05
5 *2604:A1 *639:49 1.21972e-05
6 *348:69 *2604:A1 0.000178517
*RES
1 *2872:X *2604:A1 48.0507 
*END

*D_NET *582 0.000339912
*CONN
*I *2519:A0 I *D sky130_fd_sc_hd__mux2_1
*I *2873:X O *D sky130_fd_sc_hd__dlygate4sd3_1
*CAP
1 *2519:A0 7.43879e-05
2 *2873:X 6.87722e-05
3 *582:8 0.00014316
4 *2787:CLK *582:8 2.5415e-05
5 *327:26 *2519:A0 2.81767e-05
6 *554:8 *582:8 0
*RES
1 *2873:X *582:8 39.2014 
2 *582:8 *2519:A0 39.0979 
*END

*D_NET *583 0.00145626
*CONN
*I *2611:A0 I *D sky130_fd_sc_hd__mux2_1
*I *2874:X O *D sky130_fd_sc_hd__dlygate4sd3_1
*CAP
1 *2611:A0 0.000391859
2 *2874:X 7.99144e-05
3 *583:8 0.000471774
4 *2611:A0 *662:40 5.79559e-05
5 *583:8 *662:61 0.000169674
6 *2923:A *2611:A0 0.000226226
7 *2923:A *583:8 1.7992e-05
8 *501:8 *583:8 4.08641e-05
*RES
1 *2874:X *583:8 40.2579 
2 *583:8 *2611:A0 44.815 
*END

*D_NET *584 0.00632111
*CONN
*I *2850:A I *D sky130_fd_sc_hd__buf_1
*I *2849:A I *D sky130_fd_sc_hd__clkbuf_2
*I *3011:X O *D sky130_fd_sc_hd__buf_1
*CAP
1 *2850:A 0
2 *2849:A 2.72842e-05
3 *3011:X 0.00073377
4 *584:25 0.0011995
5 *584:10 0.00196056
6 *2849:A *657:8 5.50049e-05
7 *584:25 *596:10 1.22906e-05
8 *584:25 *637:86 5.3304e-05
9 *584:25 *657:32 0
10 *584:25 *657:60 7.91596e-05
11 *584:25 *657:71 0.000201464
12 *584:25 *657:82 0.000104051
13 *584:25 *658:10 2.64616e-05
14 *106:10 *584:25 0.000167443
15 *305:12 *584:25 0.000253707
16 *338:28 *584:25 0.000629885
17 *339:140 *584:25 0.000817221
18 *387:25 *584:10 0
19 *387:25 *584:25 0
20 *483:16 *584:25 0
*RES
1 *3011:X *584:10 48.3779 
2 *584:10 *2849:A 38.6214 
3 *584:10 *584:25 46.0507 
4 *584:25 *2850:A 23 
*END

*D_NET *585 0.00210288
*CONN
*I *2547:A1 I *D sky130_fd_sc_hd__mux2_1
*I *2875:X O *D sky130_fd_sc_hd__dlygate4sd3_1
*CAP
1 *2547:A1 0
2 *2875:X 0.000213941
3 *585:20 0.000486644
4 *585:10 0.000700584
5 *585:10 *666:69 0.000156994
6 *585:10 *666:86 0.000185428
7 *585:10 *670:78 2.33476e-05
8 *585:20 *633:123 0
9 *2875:A *585:10 0.00030894
10 *336:57 *585:20 2.26406e-05
11 *340:63 *585:20 0
12 *455:25 *585:10 4.36401e-06
*RES
1 *2875:X *585:10 43.7068 
2 *585:10 *585:20 32.3216 
3 *585:20 *2547:A1 23 
*END

*D_NET *586 0.000524844
*CONN
*I *2569:A0 I *D sky130_fd_sc_hd__mux2_1
*I *2876:X O *D sky130_fd_sc_hd__dlygate4sd3_1
*CAP
1 *2569:A0 0.000170555
2 *2876:X 0.000170555
3 *2569:A0 *2569:A1 0.000183733
*RES
1 *2876:X *2569:A0 48.5271 
*END

*D_NET *587 0.00173478
*CONN
*I *2500:A1 I *D sky130_fd_sc_hd__mux2_1
*I *2877:X O *D sky130_fd_sc_hd__dlygate4sd3_1
*CAP
1 *2500:A1 9.75705e-05
2 *2877:X 0.000366301
3 *587:8 0.000463872
4 *2500:A1 *667:24 9.0102e-05
5 *2500:A1 *667:30 2.93747e-05
6 *587:8 *667:24 0.000113685
7 *2421:A2 *2500:A1 9.84851e-05
8 *2873:A *587:8 0.000187281
9 *284:12 *587:8 0
10 *332:12 *2500:A1 0.00014876
11 *332:18 *2500:A1 0.000139352
*RES
1 *2877:X *587:8 45.54 
2 *587:8 *2500:A1 41.48 
*END

*D_NET *588 0.000899932
*CONN
*I *2481:A0 I *D sky130_fd_sc_hd__mux2_1
*I *2878:X O *D sky130_fd_sc_hd__dlygate4sd3_1
*CAP
1 *2481:A0 0
2 *2878:X 0.000251586
3 *588:10 0.000251586
4 *588:10 *670:64 0.000267386
5 *323:16 *588:10 4.08537e-05
6 *333:46 *588:10 8.85189e-05
*RES
1 *2878:X *588:10 42.205 
2 *588:10 *2481:A0 38 
*END

*D_NET *589 0.00129671
*CONN
*I *2472:A0 I *D sky130_fd_sc_hd__mux2_1
*I *2879:X O *D sky130_fd_sc_hd__dlygate4sd3_1
*CAP
1 *2472:A0 0
2 *2879:X 0.000284379
3 *589:10 0.000284379
4 *295:14 *589:10 0.000271476
5 *323:120 *589:10 0.000151909
6 *356:24 *589:10 0.00030457
*RES
1 *2879:X *589:10 45.0221 
2 *589:10 *2472:A0 38 
*END

*D_NET *590 0.000253203
*CONN
*I *2605:A1 I *D sky130_fd_sc_hd__mux2_1
*I *2880:X O *D sky130_fd_sc_hd__dlygate4sd3_1
*CAP
1 *2605:A1 0
2 *2880:X 8.92395e-05
3 *590:8 8.92395e-05
4 *590:8 *633:50 1.14452e-05
5 *310:28 *590:8 6.32792e-05
*RES
1 *2880:X *590:8 39.9057 
2 *590:8 *2605:A1 38 
*END

*D_NET *591 0.00043283
*CONN
*I *2577:A1 I *D sky130_fd_sc_hd__mux2_1
*I *2882:X O *D sky130_fd_sc_hd__dlygate4sd3_1
*CAP
1 *2577:A1 0
2 *2882:X 0.000147596
3 *591:10 0.000147596
4 *591:10 *641:143 4.08537e-05
5 *591:10 *659:112 0
6 *434:16 *591:10 9.67842e-05
*RES
1 *2882:X *591:10 40.2993 
2 *591:10 *2577:A1 38 
*END

*D_NET *592 0.000501895
*CONN
*I *2581:A1 I *D sky130_fd_sc_hd__mux2_1
*I *2883:X O *D sky130_fd_sc_hd__dlygate4sd3_1
*CAP
1 *2581:A1 4.64935e-05
2 *2883:X 0.000117331
3 *592:8 0.000163824
4 *2581:A1 *2581:A0 3.22879e-05
5 *2581:A1 *645:72 0.00014196
6 *592:8 *641:127 0
7 *323:130 *592:8 0
*RES
1 *2883:X *592:8 39.9057 
2 *592:8 *2581:A1 39.5743 
*END

*D_NET *593 0.000446232
*CONN
*I *2521:A0 I *D sky130_fd_sc_hd__mux2_1
*I *2884:X O *D sky130_fd_sc_hd__dlygate4sd3_1
*CAP
1 *2521:A0 0.000175252
2 *2884:X 0.000175252
3 *2521:A0 *662:40 3.98818e-05
4 *2521:S *2521:A0 2.93845e-05
5 *332:52 *2521:A0 2.64616e-05
*RES
1 *2884:X *2521:A0 48.5271 
*END

*D_NET *594 0.000256825
*CONN
*I *2549:A1 I *D sky130_fd_sc_hd__mux2_1
*I *2885:X O *D sky130_fd_sc_hd__dlygate4sd3_1
*CAP
1 *2549:A1 4.16134e-05
2 *2885:X 7.63852e-05
3 *594:8 0.000117999
4 *2549:A1 *2549:A0 7.53384e-06
5 *2549:S *2549:A1 1.32939e-05
6 *329:44 *594:8 0
7 *332:48 *594:8 0
*RES
1 *2885:X *594:8 39.2014 
2 *594:8 *2549:A1 38.6214 
*END

*D_NET *595 0.0068615
*CONN
*I *2848:A I *D sky130_fd_sc_hd__buf_1
*I *2847:A I *D sky130_fd_sc_hd__clkbuf_2
*I *3012:X O *D sky130_fd_sc_hd__buf_1
*CAP
1 *2848:A 0
2 *2847:A 0
3 *3012:X 0.000952096
4 *595:31 0.000748226
5 *595:12 0.00121256
6 *595:6 0.00141643
7 *595:12 *2542:A1 0.00014694
8 *595:12 *655:38 5.23457e-05
9 *595:31 *655:62 0
10 *595:31 *656:10 0.000109506
11 *2453:A3 *595:12 0.000133316
12 *2971:A *595:31 0.000482844
13 *2993:A *595:12 7.39034e-05
14 *139:8 *595:31 0.000169683
15 *310:22 *595:31 0.000484545
16 *310:28 *595:31 0
17 *334:76 *595:12 0.000879115
18 *574:10 *595:31 0
*RES
1 *3012:X *595:6 35.0557 
2 *595:6 *595:12 43.5264 
3 *595:12 *2847:A 23 
4 *595:12 *595:31 48.1871 
5 *595:31 *2848:A 23 
*END

*D_NET *596 0.00184652
*CONN
*I *2578:A1 I *D sky130_fd_sc_hd__mux2_1
*I *2886:X O *D sky130_fd_sc_hd__dlygate4sd3_1
*CAP
1 *2578:A1 5.54673e-05
2 *2886:X 0.000343247
3 *596:10 0.000398714
4 *596:10 *678:12 0.000267173
5 *305:12 *596:10 0.000370869
6 *339:140 *596:10 0.000347536
7 *435:6 *2578:A1 5.12254e-05
8 *584:25 *596:10 1.22906e-05
*RES
1 *2886:X *596:10 46.0786 
2 *596:10 *2578:A1 39.0979 
*END

*D_NET *597 0.000630681
*CONN
*I *2576:A1 I *D sky130_fd_sc_hd__mux2_1
*I *2887:X O *D sky130_fd_sc_hd__dlygate4sd3_1
*CAP
1 *2576:A1 0.000101163
2 *2887:X 0.000101163
3 *2576:A1 *2576:A0 2.79662e-05
4 *2576:S *2576:A1 0.000263652
5 *441:31 *2576:A1 0.000136738
*RES
1 *2887:X *2576:A1 49.0036 
*END

*D_NET *598 0.000677199
*CONN
*I *2616:A0 I *D sky130_fd_sc_hd__mux2_1
*I *2888:X O *D sky130_fd_sc_hd__dlygate4sd3_1
*CAP
1 *2616:A0 7.05424e-05
2 *2888:X 9.33102e-05
3 *598:8 0.000163853
4 *2616:A0 *645:87 1.34914e-05
5 *598:8 *2616:A1 2.50756e-05
6 *598:8 *651:44 4.80826e-05
7 *340:131 *598:8 0.000164019
8 *342:42 *2616:A0 9.88259e-05
*RES
1 *2888:X *598:8 40.2579 
2 *598:8 *2616:A0 39.5743 
*END

*D_NET *599 0.00106548
*CONN
*I *2514:A0 I *D sky130_fd_sc_hd__mux2_1
*I *2889:X O *D sky130_fd_sc_hd__dlygate4sd3_1
*CAP
1 *2514:A0 0.000246232
2 *2889:X 0.000140094
3 *599:8 0.000386326
4 *2514:A0 *2514:A1 5.67058e-05
5 *2514:S *2514:A0 5.3304e-05
6 *331:102 *599:8 0
7 *331:108 *2514:A0 0.00018282
*RES
1 *2889:X *599:8 40.2579 
2 *599:8 *2514:A0 43.3857 
*END

*D_NET *600 0.000955633
*CONN
*I *2552:A1 I *D sky130_fd_sc_hd__mux2_1
*I *2890:X O *D sky130_fd_sc_hd__dlygate4sd3_1
*CAP
1 *2552:A1 0.000218585
2 *2890:X 5.94633e-05
3 *600:8 0.000278048
4 *600:8 *641:96 8.62876e-05
5 *336:92 *600:8 0
6 *346:33 *2552:A1 0.000313249
*RES
1 *2890:X *600:8 39.2014 
2 *600:8 *2552:A1 41.48 
*END

*D_NET *601 0.000642678
*CONN
*I *2503:A1 I *D sky130_fd_sc_hd__mux2_1
*I *2891:X O *D sky130_fd_sc_hd__dlygate4sd3_1
*CAP
1 *2503:A1 0
2 *2891:X 0.000133562
3 *601:10 0.000133562
4 *601:10 *630:20 0.000140958
5 *329:111 *601:10 4.2573e-05
6 *329:123 *601:10 5.3304e-05
7 *329:134 *601:10 0.000138718
*RES
1 *2891:X *601:10 41.0036 
2 *601:10 *2503:A1 38 
*END

*D_NET *602 0.000527674
*CONN
*I *2506:A1 I *D sky130_fd_sc_hd__mux2_1
*I *2893:X O *D sky130_fd_sc_hd__dlygate4sd3_1
*CAP
1 *2506:A1 0
2 *2893:X 0.000209818
3 *602:10 0.000209818
4 *602:10 *653:25 0
5 *329:38 *602:10 1.39431e-05
6 *329:42 *602:10 2.72257e-05
7 *329:72 *602:10 6.6869e-05
*RES
1 *2893:X *602:10 41.48 
2 *602:10 *2506:A1 38 
*END

*D_NET *603 0.00166981
*CONN
*I *2602:A1 I *D sky130_fd_sc_hd__mux2_1
*I *2894:X O *D sky130_fd_sc_hd__dlygate4sd3_1
*CAP
1 *2602:A1 0
2 *2894:X 0.000330575
3 *603:8 0.000330575
4 *603:8 *644:59 0.00010404
5 *2879:A *603:8 0.000292856
6 *56:8 *603:8 0.000376252
7 *325:93 *603:8 0
8 *393:20 *603:8 1.02387e-05
9 *409:8 *603:8 0.000225275
10 *417:12 *603:8 0
*RES
1 *2894:X *603:8 47.6529 
2 *603:8 *2602:A1 38 
*END

*D_NET *604 0.000617416
*CONN
*I *2600:A1 I *D sky130_fd_sc_hd__mux2_1
*I *2895:X O *D sky130_fd_sc_hd__dlygate4sd3_1
*CAP
1 *2600:A1 0
2 *2895:X 0.000176103
3 *604:10 0.000176103
4 *604:10 *633:123 6.65598e-06
5 *604:10 *633:127 6.07611e-06
6 *604:10 *667:38 6.38845e-05
7 *604:10 *677:87 1.00765e-05
8 *334:35 *604:10 0.000178517
*RES
1 *2895:X *604:10 40.9 
2 *604:10 *2600:A1 38 
*END

*D_NET *605 0.000312849
*CONN
*I *2504:A1 I *D sky130_fd_sc_hd__mux2_1
*I *2896:X O *D sky130_fd_sc_hd__dlygate4sd3_1
*CAP
1 *2504:A1 9.30008e-05
2 *2896:X 9.30008e-05
3 *2504:A1 *2504:A0 0.000126847
*RES
1 *2896:X *2504:A1 48.5271 
*END

*D_NET *606 0.0019733
*CONN
*I *2358:B1 I *D sky130_fd_sc_hd__o21a_1
*I *2357:A I *D sky130_fd_sc_hd__or3_1
*I *3013:X O *D sky130_fd_sc_hd__clkbuf_1
*CAP
1 *2358:B1 5.81852e-05
2 *2357:A 0
3 *3013:X 0.000471451
4 *606:12 0.000111671
5 *606:6 0.000641307
6 *2357:B *606:12 0
7 *2360:A1 *606:6 0.00034672
8 *2360:A2 *606:6 0.000228001
9 *239:8 *2358:B1 4.00259e-06
10 *239:16 *606:12 4.48568e-05
11 *240:10 *606:12 0
12 *242:12 *2358:B1 5.67058e-05
13 *242:12 *606:6 1.03955e-05
*RES
1 *3013:X *606:6 33.15 
2 *606:6 *606:12 32.2579 
3 *606:12 *2357:A 23 
4 *606:6 *2358:B1 24.4707 
*END

*D_NET *607 0.00805535
*CONN
*I *2845:A I *D sky130_fd_sc_hd__clkbuf_2
*I *2846:A I *D sky130_fd_sc_hd__buf_1
*I *3014:X O *D sky130_fd_sc_hd__buf_1
*CAP
1 *2845:A 0
2 *2846:A 0
3 *3014:X 0.00062377
4 *607:18 0.00225093
5 *607:10 0.00250465
6 *607:8 0.000877487
7 *607:10 *653:19 0
8 *607:18 *643:178 0.000305555
9 *607:18 *653:19 0
10 *607:18 *654:14 4.51908e-05
11 *607:18 *654:105 0.00062758
12 *2459:A1 *607:10 0
13 *2459:A2 *607:18 0.000562284
14 *2949:A *607:10 0
15 *314:8 *607:18 2.03764e-06
16 *315:8 *607:18 4.02485e-05
17 *381:6 *607:18 0.000185428
18 *381:12 *607:10 0
19 *381:12 *607:18 0
20 *485:14 *607:18 4.77237e-06
21 *556:8 *607:10 2.5415e-05
*RES
1 *3014:X *607:8 46.2443 
2 *607:8 *607:10 4.72286 
3 *607:10 *607:18 48.6193 
4 *607:18 *2846:A 23 
5 *607:10 *2845:A 38 
*END

*D_NET *608 0.00156666
*CONN
*I *2575:A1 I *D sky130_fd_sc_hd__mux2_1
*I *2897:X O *D sky130_fd_sc_hd__dlygate4sd3_1
*CAP
1 *2575:A1 4.81599e-05
2 *2897:X 0.000397742
3 *608:12 0.000445902
4 *2575:A1 *2575:A0 3.03065e-05
5 *2575:A1 *685:10 2.0204e-05
6 *608:12 *2511:A1 7.53384e-06
7 *608:12 *2575:A0 5.58152e-06
8 *608:12 *665:12 1.03654e-05
9 *608:12 *665:46 0.000106929
10 *2958:A *2575:A1 2.97157e-05
11 *327:103 *608:12 0.000387972
12 *331:56 *608:12 3.41017e-05
13 *331:94 *608:12 4.21471e-05
*RES
1 *2897:X *608:12 46.5239 
2 *608:12 *2575:A1 39.1704 
*END

*D_NET *609 0.000455331
*CONN
*I *2501:A1 I *D sky130_fd_sc_hd__mux2_1
*I *2898:X O *D sky130_fd_sc_hd__dlygate4sd3_1
*CAP
1 *2501:A1 0
2 *2898:X 0.000127096
3 *609:10 0.000127096
4 *336:10 *609:10 6.33511e-05
5 *376:12 *609:10 0.000137788
*RES
1 *2898:X *609:10 40.5271 
2 *609:10 *2501:A1 38 
*END

*D_NET *610 0.000297994
*CONN
*I *2554:A1 I *D sky130_fd_sc_hd__mux2_1
*I *2899:X O *D sky130_fd_sc_hd__dlygate4sd3_1
*CAP
1 *2554:A1 4.72972e-05
2 *2899:X 5.11113e-05
3 *610:8 9.84086e-05
4 *2899:A *610:8 4.08537e-05
5 *329:54 *610:8 4.08537e-05
6 *336:81 *2554:A1 1.94693e-05
*RES
1 *2899:X *610:8 39.2014 
2 *610:8 *2554:A1 38.6214 
*END

*D_NET *611 0.00134131
*CONN
*I *2592:A0 I *D sky130_fd_sc_hd__mux2_1
*I *2900:X O *D sky130_fd_sc_hd__dlygate4sd3_1
*CAP
1 *2592:A0 0
2 *2900:X 0.000122588
3 *611:16 0.000381118
4 *611:8 0.000503706
5 *611:8 *666:86 6.38844e-05
6 *611:16 *643:126 0.000165583
7 *2722:D *611:16 0.000104433
8 *332:153 *611:8 0
9 *359:66 *611:16 0
*RES
1 *2900:X *611:8 40.61 
2 *611:8 *611:16 36.6907 
3 *611:16 *2592:A0 38 
*END

*D_NET *612 0.000400942
*CONN
*I *2607:A1 I *D sky130_fd_sc_hd__mux2_1
*I *2901:X O *D sky130_fd_sc_hd__dlygate4sd3_1
*CAP
1 *2607:A1 8.70488e-05
2 *2901:X 8.27711e-05
3 *612:8 0.00016982
4 *2607:A1 *633:139 6.71408e-06
5 *612:8 *652:22 0
6 *341:59 *612:8 5.45887e-05
*RES
1 *2901:X *612:8 39.5536 
2 *612:8 *2607:A1 39.0979 
*END

*D_NET *613 0.0011838
*CONN
*I *2551:A1 I *D sky130_fd_sc_hd__mux2_1
*I *2902:X O *D sky130_fd_sc_hd__dlygate4sd3_1
*CAP
1 *2551:A1 0.000160109
2 *2902:X 0.000193763
3 *613:10 0.000353871
4 *2551:S *2551:A1 3.22879e-05
5 *340:24 *613:10 2.09183e-05
6 *340:45 *613:10 5.67058e-05
7 *341:105 *613:10 0.000104536
8 *348:38 *2551:A1 5.3304e-05
9 *348:46 *613:10 0.000167452
10 *459:10 *613:10 4.08537e-05
*RES
1 *2902:X *613:10 42.9921 
2 *613:10 *2551:A1 40.5271 
*END

*D_NET *614 0.000698727
*CONN
*I *2502:A1 I *D sky130_fd_sc_hd__mux2_1
*I *2904:X O *D sky130_fd_sc_hd__dlygate4sd3_1
*CAP
1 *2502:A1 0.000151517
2 *2904:X 7.97336e-05
3 *614:8 0.000231251
4 *2502:A1 *2502:A0 3.7122e-06
5 *329:44 *614:8 3.5664e-05
6 *329:48 *2502:A1 0.000185434
7 *329:54 *2502:A1 1.14154e-05
8 *332:64 *614:8 0
*RES
1 *2904:X *614:8 39.5536 
2 *614:8 *2502:A1 41.0243 
*END

*D_NET *615 0.000261398
*CONN
*I *2553:A1 I *D sky130_fd_sc_hd__mux2_1
*I *2905:X O *D sky130_fd_sc_hd__dlygate4sd3_1
*CAP
1 *2553:A1 7.58626e-05
2 *2905:X 7.58626e-05
3 *2553:S *2553:A1 5.67058e-05
4 *336:65 *2553:A1 5.29672e-05
*RES
1 *2905:X *2553:A1 48.0507 
*END

*D_NET *616 0.000741671
*CONN
*I *2507:A1 I *D sky130_fd_sc_hd__mux2_1
*I *2906:X O *D sky130_fd_sc_hd__dlygate4sd3_1
*CAP
1 *2507:A1 0
2 *2906:X 0.000195468
3 *616:10 0.000195468
4 *616:10 *651:71 0.000141879
5 *2906:A *616:10 6.6978e-05
6 *332:70 *616:10 0.000141879
*RES
1 *2906:X *616:10 41.9564 
2 *616:10 *2507:A1 38 
*END

*D_NET *617 0.00199438
*CONN
*I *2587:A0 I *D sky130_fd_sc_hd__mux2_1
*I *2907:X O *D sky130_fd_sc_hd__dlygate4sd3_1
*CAP
1 *2587:A0 0
2 *2907:X 0.000536224
3 *617:10 0.000536224
4 *617:10 *647:67 9.32613e-05
5 *617:10 *658:10 0.000477634
6 *617:10 *658:51 5.50106e-05
7 *339:140 *617:10 0.000296026
*RES
1 *2907:X *617:10 47.8807 
2 *617:10 *2587:A0 38 
*END

*D_NET *618 0.00596488
*CONN
*I *2844:A I *D sky130_fd_sc_hd__buf_1
*I *2843:A I *D sky130_fd_sc_hd__clkbuf_2
*I *3015:X O *D sky130_fd_sc_hd__buf_1
*CAP
1 *2844:A 0
2 *2843:A 0
3 *3015:X 0.000309851
4 *618:31 0.00158405
5 *618:14 0.00188519
6 *618:10 0.000610996
7 *618:31 *651:21 0.000260892
8 *2599:S *618:31 6.69899e-05
9 *2704:CLK *618:10 0
10 *2754:CLK *618:31 0.000217153
11 *2754:D *618:31 0.00017242
12 *2786:D *618:31 1.64354e-05
13 *125:8 *618:10 0.000169674
14 *336:77 *618:10 0.000195248
15 *422:10 *618:31 0.00010018
16 *454:6 *618:31 0.000174932
17 *454:31 *618:31 9.72406e-05
18 *470:8 *618:14 8.1796e-05
19 *470:8 *618:31 2.18409e-05
*RES
1 *3015:X *618:10 44.5664 
2 *618:10 *618:14 19.9093 
3 *618:14 *2843:A 23 
4 *618:14 *618:31 29.9114 
5 *618:31 *2844:A 23 
*END

*D_NET *619 0.000484876
*CONN
*I *2364:B I *D sky130_fd_sc_hd__and2b_1
*I *3016:X O *D sky130_fd_sc_hd__clkbuf_1
*CAP
1 *2364:B 0
2 *3016:X 0.000215369
3 *619:10 0.000215369
4 *619:10 *3027:A 0
5 *619:10 *623:10 0
6 *37:11 *619:10 5.41385e-05
*RES
1 *3016:X *619:10 41.7079 
2 *619:10 *2364:B 38 
*END

*D_NET *620 0.000792397
*CONN
*I *3024:A I *D sky130_fd_sc_hd__buf_2
*I *2730:Q O *D sky130_fd_sc_hd__dfstp_1
*CAP
1 *3024:A 0
2 *2730:Q 0.000192102
3 *620:10 0.000192102
4 *620:10 *649:10 0.00019747
5 *3:8 *620:10 8.05114e-05
6 *8:13 *620:10 0.000130212
*RES
1 *2730:Q *620:10 43.1061 
2 *620:10 *3024:A 38 
*END

*D_NET *621 0.00043334
*CONN
*I *3025:A I *D sky130_fd_sc_hd__buf_2
*I *2741:Q O *D sky130_fd_sc_hd__dfrtp_1
*CAP
1 *3025:A 0
2 *2741:Q 0.00019905
3 *621:10 0.00019905
4 afull *621:10 3.52397e-05
5 *496:10 *621:10 0
*RES
1 *2741:Q *621:10 41.3557 
2 *621:10 *3025:A 38 
*END

*D_NET *622 0.0021908
*CONN
*I *2390:A_N I *D sky130_fd_sc_hd__and2b_2
*I *3026:A I *D sky130_fd_sc_hd__buf_2
*I *2721:Q O *D sky130_fd_sc_hd__dfstp_1
*CAP
1 *2390:A_N 0
2 *3026:A 0.000459044
3 *2721:Q 0.000159968
4 *622:12 0.000459044
5 *622:10 0.000159968
6 *3026:A *2431:A0 0.000394988
7 *622:10 *625:10 5.62433e-06
8 *20:10 *622:10 9.7017e-05
9 *39:10 *3026:A 5.67058e-05
10 *518:25 *622:10 0.000323559
11 *529:10 *622:10 7.4878e-05
*RES
1 *2721:Q *622:10 42.7539 
2 *622:10 *622:12 15 
3 *622:12 *3026:A 31.265 
4 *622:12 *2390:A_N 23 
*END

*D_NET *623 0.00108203
*CONN
*I *3027:A I *D sky130_fd_sc_hd__buf_2
*I *2364:A_N I *D sky130_fd_sc_hd__and2b_1
*I *2740:Q O *D sky130_fd_sc_hd__dfrtp_1
*CAP
1 *3027:A 0.000125135
2 *2364:A_N 0.000183454
3 *2740:Q 0.00021711
4 *623:10 0.000525699
5 *623:10 *2740:RESET_B 3.06338e-05
6 *619:10 *3027:A 0
7 *619:10 *623:10 0
*RES
1 *2740:Q *623:10 41.7079 
2 *623:10 *2364:A_N 41.0036 
3 *623:10 *3027:A 40.2579 
*END

*D_NET *624 0.00161801
*CONN
*I *3028:A I *D sky130_fd_sc_hd__buf_2
*I *2423:A0 I *D sky130_fd_sc_hd__mux2_1
*I *2617:Q O *D sky130_fd_sc_hd__dfrtp_1
*CAP
1 *3028:A 0.000301175
2 *2423:A0 0.00019966
3 *2617:Q 7.36847e-05
4 *624:8 0.00057452
5 *2423:A0 *677:67 3.55887e-05
6 *3028:A *677:67 4.95442e-05
7 *624:8 *2617:RESET_B 5.41385e-05
8 *2857:A *2423:A0 5.67058e-05
9 *3007:A *3028:A 0
10 *38:10 *2423:A0 0
11 *540:10 *2423:A0 9.78179e-05
12 *540:10 *3028:A 0.000175171
*RES
1 *2617:Q *624:8 39.0979 
2 *624:8 *2423:A0 42.64 
3 *624:8 *3028:A 45.54 
*END

*D_NET *625 0.00187734
*CONN
*I *2431:A0 I *D sky130_fd_sc_hd__mux2_1
*I *3029:A I *D sky130_fd_sc_hd__buf_2
*I *2618:Q O *D sky130_fd_sc_hd__dfrtp_1
*CAP
1 *2431:A0 0.000159858
2 *3029:A 0.000166018
3 *2618:Q 0.00011567
4 *625:10 0.000441546
5 *2431:A0 *2431:S 5.12254e-05
6 *3029:A *678:50 0
7 *3026:A *2431:A0 0.000394988
8 *20:10 *3029:A 0.000165974
9 *20:10 *625:10 0.000124169
10 *264:10 *2431:A0 3.16784e-05
11 *518:25 *3029:A 2.71992e-05
12 *529:10 *3029:A 6.48049e-05
13 *529:10 *625:10 0.000128583
14 *622:10 *625:10 5.62433e-06
*RES
1 *2618:Q *625:10 40.5271 
2 *625:10 *3029:A 41.9357 
3 *625:10 *2431:A0 42.4329 
*END

*D_NET *626 0.0102504
*CONN
*I *2437:A0 I *D sky130_fd_sc_hd__mux2_1
*I *3030:A I *D sky130_fd_sc_hd__buf_2
*I *2619:Q O *D sky130_fd_sc_hd__dfrtp_1
*CAP
1 *2437:A0 0
2 *3030:A 0
3 *2619:Q 0
4 *626:43 0.000543105
5 *626:24 0.00211283
6 *626:16 0.00277195
7 *626:4 0.00120222
8 *626:16 *2436:S1 9.67842e-05
9 *626:16 *639:124 1.58805e-05
10 *626:16 *639:143 0.00020394
11 *626:16 *663:10 1.22803e-05
12 *626:24 *2472:A1 5.50106e-05
13 *626:43 *633:127 0
14 *626:43 *643:31 6.47135e-05
15 *2436:A0 *626:16 5.12254e-05
16 *2585:A0 *626:24 9.1497e-05
17 *2585:S *626:24 0.000184407
18 *2635:CLK *626:24 0.000113497
19 *2635:D *626:24 5.77882e-05
20 *2643:CLK *626:43 0.000198545
21 *31:15 *626:24 3.44446e-05
22 *40:10 *626:43 0.000184527
23 *48:10 *626:24 9.67842e-05
24 *144:10 *626:24 0.000101762
25 *292:18 *626:16 0.00034721
26 *327:53 *626:16 0.000219383
27 *327:65 *626:16 0.000404056
28 *338:109 *626:43 0.00019747
29 *356:20 *626:24 7.15126e-05
30 *393:20 *626:16 5.42593e-05
31 *401:8 *626:16 1.32939e-05
32 *562:10 *626:24 0.000196264
33 *562:25 *626:16 3.7122e-06
34 *562:25 *626:24 0.00055004
*RES
1 *2619:Q *626:4 23 
2 *626:4 *626:16 46.095 
3 *626:16 *626:24 37.845 
4 *626:24 *3030:A 23 
5 *626:4 *626:43 40.6886 
6 *626:43 *2437:A0 23 
*END

*D_NET *627 0.00116127
*CONN
*I *2354:A I *D sky130_fd_sc_hd__or3_1
*I *2355:B1 I *D sky130_fd_sc_hd__o21a_1
*I *3017:X O *D sky130_fd_sc_hd__clkbuf_1
*CAP
1 *2354:A 0
2 *2355:B1 0.000169133
3 *3017:X 0.000313001
4 *627:8 0.000482134
5 *2353:A *2355:B1 0
6 *2354:B *627:8 1.14154e-05
7 *2354:C *2355:B1 6.23487e-05
8 *226:44 *2355:B1 9.84794e-05
9 *236:6 *2355:B1 2.4754e-05
*RES
1 *3017:X *627:8 28.4064 
2 *627:8 *2355:B1 26.8736 
3 *627:8 *2354:A 23 
*END

*D_NET *628 0.00570225
*CONN
*I *2443:A0 I *D sky130_fd_sc_hd__mux2_1
*I *3031:A I *D sky130_fd_sc_hd__buf_2
*I *2620:Q O *D sky130_fd_sc_hd__dfrtp_1
*CAP
1 *2443:A0 0
2 *3031:A 0
3 *2620:Q 0.000123237
4 *628:23 0.000638344
5 *628:12 0.00151078
6 *628:8 0.00227236
7 *628:8 *678:12 0.000185428
8 *628:23 *2596:A1 0
9 *628:23 *658:33 8.80821e-05
10 *2596:S *628:23 0
11 *2952:A *628:12 0
12 *3011:A *628:12 0
13 *74:10 *628:12 0
14 *90:10 *628:12 0
15 *122:8 *628:23 3.14481e-05
16 *130:8 *628:12 0
17 *154:8 *628:23 0
18 *170:10 *628:12 0
19 *333:136 *628:12 0
20 *337:57 *628:23 0.000614963
21 *347:34 *628:23 0
22 *347:88 *628:12 0.000114645
23 *530:8 *628:12 0.000122952
*RES
1 *2620:Q *628:8 40.0507 
2 *628:8 *628:12 42.6121 
3 *628:12 *3031:A 23 
4 *628:8 *628:23 27.9464 
5 *628:23 *2443:A0 23 
*END

*D_NET *629 0.00650465
*CONN
*I *3032:A I *D sky130_fd_sc_hd__buf_2
*I *2449:A0 I *D sky130_fd_sc_hd__mux2_1
*I *2621:Q O *D sky130_fd_sc_hd__dfrtp_1
*CAP
1 *3032:A 0
2 *2449:A0 0.000922725
3 *2621:Q 0
4 *629:21 0.00142915
5 *629:4 0.00235187
6 *2449:A0 *2449:S 0
7 *2449:A0 *648:16 2.86712e-05
8 *629:21 *648:16 0.000217374
9 *629:21 *678:10 0.000487434
10 *629:21 *753:16 5.70419e-05
11 *2361:A1 *629:21 2.93747e-05
12 *2361:A2 *629:21 0.000227208
13 *2361:B1 *629:21 0.000359326
14 *2621:D *2449:A0 0.000193163
15 *221:12 *629:21 0.000185428
16 *237:8 *629:21 1.58805e-05
17 *244:8 *629:21 0
*RES
1 *2621:Q *629:4 23 
2 *629:4 *2449:A0 36.2571 
3 *629:4 *629:21 45.9471 
4 *629:21 *3032:A 38 
*END

*D_NET *630 0.00508041
*CONN
*I *2455:A0 I *D sky130_fd_sc_hd__mux2_1
*I *3033:A I *D sky130_fd_sc_hd__buf_2
*I *2622:Q O *D sky130_fd_sc_hd__dfrtp_1
*CAP
1 *2455:A0 0.00026545
2 *3033:A 0
3 *2622:Q 0.000151586
4 *630:20 0.00142935
5 *630:10 0.00184639
6 *2455:A0 *2455:S 5.50106e-05
7 *630:10 *659:112 0
8 *630:10 *678:26 5.50106e-05
9 *630:20 *659:18 0.000404056
10 *630:20 *659:29 9.21422e-05
11 *630:20 *659:58 0
12 *630:20 *659:84 0
13 *630:20 *659:95 0
14 *630:20 *659:112 0
15 rd_data[5] *630:20 2.93845e-05
16 *2441:A2 *630:20 0
17 *2455:A1 *2455:A0 2.93747e-05
18 *2928:A *630:20 7.36813e-05
19 *129:8 *630:20 3.56537e-05
20 *137:8 *630:20 5.93381e-05
21 *169:8 *630:20 0
22 *329:134 *630:20 1.22803e-05
23 *567:10 *2455:A0 9.87414e-05
24 *573:12 *630:20 0.000301997
25 *573:18 *630:10 0
26 *573:18 *630:20 0
27 *601:10 *630:20 0.000140958
*RES
1 *2622:Q *630:10 40.5271 
2 *630:10 *630:20 45.0979 
3 *630:20 *3033:A 23 
4 *630:10 *2455:A0 43.3857 
*END

*D_NET *631 0.00200731
*CONN
*I *3034:A I *D sky130_fd_sc_hd__buf_2
*I *2461:A0 I *D sky130_fd_sc_hd__mux2_1
*I *2623:Q O *D sky130_fd_sc_hd__dfrtp_1
*CAP
1 *3034:A 0
2 *2461:A0 0
3 *2623:Q 5.07158e-05
4 *631:27 0.000447724
5 *631:14 0.000383901
6 *631:6 0.00088234
7 *631:6 *677:67 8.6188e-06
8 *631:14 *2617:CLK 0.000156058
9 *631:27 *677:67 7.79573e-05
*RES
1 *2623:Q *631:6 23.6214 
2 *631:6 *631:14 35.9657 
3 *631:14 *2461:A0 23 
4 *631:6 *631:27 37.7264 
5 *631:27 *3034:A 23 
*END

*D_NET *632 0.00890778
*CONN
*I *2467:A0 I *D sky130_fd_sc_hd__mux2_1
*I *3035:A I *D sky130_fd_sc_hd__buf_2
*I *2624:Q O *D sky130_fd_sc_hd__dfrtp_1
*CAP
1 *2467:A0 0
2 *3035:A 0
3 *2624:Q 0.000114827
4 *632:26 0.00275064
5 *632:14 0.00300619
6 *632:10 0.000370381
7 *632:10 *2624:RESET_B 2.93845e-05
8 *632:10 *678:40 0.00010404
9 *632:14 *634:115 5.50049e-05
10 *632:14 *659:124 9.41704e-05
11 *632:26 *651:29 2.43944e-05
12 *2590:A0 *632:26 6.82004e-05
13 *2590:S *632:26 0.000227476
14 *2664:CLK *632:26 0.000149834
15 *2664:D *632:26 2.85261e-05
16 *45:10 *632:26 2.30292e-05
17 *149:10 *632:26 0.00023506
18 *323:151 *632:26 0.000768415
19 *331:68 *632:10 0.000222113
20 *336:81 *632:26 0.000267173
21 *336:92 *632:26 0.000136738
22 *353:95 *632:26 2.64616e-05
23 *353:102 *632:26 0.00012561
24 *410:8 *632:10 1.01436e-05
25 *539:10 *632:14 6.99589e-05
*RES
1 *2624:Q *632:10 41.5836 
2 *632:10 *632:14 19.9093 
3 *632:14 *632:26 47.7671 
4 *632:26 *3035:A 23 
5 *632:14 *2467:A0 23 
*END

*D_NET *633 0.0479122
*CONN
*I *2414:B I *D sky130_fd_sc_hd__and2b_1
*I *2386:B I *D sky130_fd_sc_hd__xnor2_1
*I *2600:S I *D sky130_fd_sc_hd__mux2_1
*I *2602:S I *D sky130_fd_sc_hd__mux2_1
*I *2607:S I *D sky130_fd_sc_hd__mux2_1
*I *2415:B I *D sky130_fd_sc_hd__xnor2_1
*I *2601:S I *D sky130_fd_sc_hd__mux2_1
*I *2604:S I *D sky130_fd_sc_hd__mux2_1
*I *2603:S I *D sky130_fd_sc_hd__mux2_1
*I *2605:S I *D sky130_fd_sc_hd__mux2_1
*I *2827:X O *D sky130_fd_sc_hd__buf_4
*CAP
1 *2414:B 0
2 *2386:B 0.000117982
3 *2600:S 0
4 *2602:S 0
5 *2607:S 0
6 *2415:B 3.42813e-05
7 *2601:S 0.000652599
8 *2604:S 0
9 *2603:S 0
10 *2605:S 0
11 *2827:X 0
12 *633:139 0.00102418
13 *633:129 0.00194982
14 *633:127 0.00228971
15 *633:123 0.00365718
16 *633:115 0.00356854
17 *633:99 0.00170872
18 *633:93 0.000529464
19 *633:50 0.00169427
20 *633:44 0.00217152
21 *633:34 0.00303877
22 *633:22 0.00260708
23 *633:18 0.00176357
24 *633:16 0.00171801
25 *633:14 0.00161386
26 *633:8 0.00139408
27 *633:6 0.000612688
28 *2386:B *677:27 0.000136486
29 *2386:B *744:16 0
30 *2601:S *665:74 0.000656764
31 *2601:S *670:64 7.55599e-05
32 *633:8 *733:37 0
33 *633:14 *670:64 2.64616e-05
34 *633:14 *670:117 4.67488e-05
35 *633:14 *675:32 1.97329e-05
36 *633:14 *683:8 0.000126847
37 *633:14 *724:12 9.84851e-05
38 *633:14 *742:10 0
39 *633:18 *2760:CLK 6.70363e-05
40 *633:18 *639:20 0.000373889
41 *633:18 *642:33 2.51171e-05
42 *633:18 *650:20 0.000134677
43 *633:18 *670:58 0.000315538
44 *633:18 *687:10 0
45 *633:18 *716:10 0.000110922
46 *633:18 *740:10 0
47 *633:18 *744:16 2.60152e-05
48 *633:22 *639:49 6.17437e-06
49 *633:34 *657:112 3.94496e-05
50 *633:44 *634:94 0
51 *633:44 *634:98 0.000139346
52 *633:44 *659:112 0.000391318
53 *633:44 *659:116 0.000706656
54 *633:44 *661:60 0.000270613
55 *633:44 *678:40 0
56 *633:50 *634:98 0.000105759
57 *633:50 *645:28 0.000306344
58 *633:93 *2829:A 0.000168693
59 *633:93 *732:21 0.000141954
60 *633:93 *737:6 0.0002263
61 *633:99 *2829:A 0.000266271
62 *633:99 *677:27 0.000324751
63 *633:99 *744:16 0
64 *633:115 *2372:A 2.64616e-05
65 *633:115 *635:38 8.21456e-06
66 *633:115 *635:46 9.67842e-05
67 *633:115 *635:63 1.0402e-05
68 *633:123 *677:87 2.26406e-05
69 *633:127 *666:28 0
70 *633:127 *667:38 1.02387e-05
71 *633:127 *670:74 0.00105039
72 *633:127 *677:87 0.000556042
73 *633:129 *2602:A0 0.000290593
74 *633:139 *643:100 0
75 *633:139 *644:59 0
76 *633:139 *650:84 9.6849e-05
77 *633:139 *651:114 0.000141879
78 *633:139 *652:22 5.26733e-06
79 *2388:B *633:115 0.000139346
80 *2388:C *633:115 0.000109895
81 *2474:S *633:34 7.73389e-05
82 *2479:B *633:115 1.21972e-05
83 *2575:S *633:18 3.87221e-06
84 *2583:S *633:127 2.8314e-06
85 *2604:A1 *633:22 9.67842e-05
86 *2604:A1 *633:34 5.3304e-05
87 *2607:A1 *633:139 6.71408e-06
88 *2637:D *633:34 4.9054e-06
89 *2640:CLK *633:139 2.93845e-05
90 *2640:D *633:139 7.41637e-05
91 *2644:CLK *633:34 5.50106e-05
92 *2644:D *633:34 0.000270518
93 *2646:D *633:50 0.00025601
94 *2700:CLK *633:50 3.34247e-05
95 *2700:D *633:50 0.0004914
96 *2750:CLK *633:44 6.59298e-05
97 *2878:A *2601:S 6.82514e-05
98 *2879:A *633:139 6.28591e-05
99 *2922:A *633:129 0.000359326
100 *3001:A *633:50 0.000111041
101 *63:10 *633:18 8.26569e-05
102 *95:10 *633:18 7.98155e-05
103 *163:8 *633:50 0
104 *174:8 *2386:B 5.3304e-05
105 *249:37 *633:115 0.000349813
106 *251:10 *633:115 4.02798e-05
107 *260:35 *633:93 2.13733e-05
108 *260:35 *633:99 6.47578e-05
109 *287:10 *633:18 0.000251605
110 *297:12 *633:44 0.000185351
111 *310:28 *633:50 1.14452e-05
112 *325:65 *633:115 1.39848e-05
113 *325:93 *633:139 0.000357713
114 *325:97 *633:139 0.000141879
115 *329:8 *633:115 1.01436e-05
116 *329:16 *633:123 0.000104089
117 *331:100 *633:18 0
118 *331:102 *633:18 1.07192e-05
119 *333:72 *633:34 0.000132722
120 *333:98 *633:18 0.0012874
121 *333:108 *633:18 0.000462698
122 *338:109 *633:127 0
123 *339:44 *633:50 4.48731e-05
124 *340:73 *633:127 7.18722e-05
125 *345:72 *633:127 0.000218313
126 *345:174 *2415:B 1.94812e-05
127 *348:69 *633:34 0.000325635
128 *354:26 *633:50 0.000144437
129 *355:10 *633:44 2.91142e-05
130 *363:10 *633:8 0
131 *363:10 *633:14 0
132 *363:18 *2386:B 2.64616e-05
133 *364:8 *633:8 0.000206395
134 *364:8 *633:93 8.93663e-05
135 *394:10 *633:34 2.93747e-05
136 *403:8 *633:34 0.000137651
137 *455:12 *633:127 0.000271373
138 *463:10 *633:127 0.000193702
139 *545:10 *633:44 9.5877e-05
140 *553:10 *633:44 0.000141879
141 *585:20 *633:123 0
142 *590:8 *633:50 1.14452e-05
143 *604:10 *633:123 6.65598e-06
144 *604:10 *633:127 6.07611e-06
145 *626:43 *633:127 0
*RES
1 *2827:X *633:6 38 
2 *633:6 *633:8 8.59643 
3 *633:8 *633:14 32.9179 
4 *633:14 *633:16 15 
5 *633:16 *633:18 42.7543 
6 *633:18 *633:22 16.0979 
7 *633:22 *633:34 44.4321 
8 *633:34 *633:44 46.6543 
9 *633:44 *633:50 40.2714 
10 *633:50 *2605:S 38 
11 *633:34 *2603:S 23 
12 *633:22 *2604:S 23 
13 *633:14 *2601:S 35.5736 
14 *633:8 *2415:B 38.6214 
15 *633:6 *633:93 21.09 
16 *633:93 *633:99 22.3743 
17 *633:99 *633:115 48.7775 
18 *633:115 *633:123 22.216 
19 *633:123 *633:127 46.4857 
20 *633:127 *633:129 17.2964 
21 *633:129 *633:139 48.0629 
22 *633:139 *2607:S 23 
23 *633:129 *2602:S 23 
24 *633:123 *2600:S 38 
25 *633:99 *2386:B 40.5271 
26 *633:93 *2414:B 23 
*END

*D_NET *634 0.0433601
*CONN
*I *2431:S I *D sky130_fd_sc_hd__mux2_1
*I *2395:C I *D sky130_fd_sc_hd__and3_1
*I *2394:A2 I *D sky130_fd_sc_hd__a21oi_1
*I *2437:S I *D sky130_fd_sc_hd__mux2_1
*I *2392:B I *D sky130_fd_sc_hd__and2_1
*I *2391:B I *D sky130_fd_sc_hd__nor2_1
*I *2449:S I *D sky130_fd_sc_hd__mux2_1
*I *2443:S I *D sky130_fd_sc_hd__mux2_1
*I *2467:S I *D sky130_fd_sc_hd__mux2_1
*I *2455:S I *D sky130_fd_sc_hd__mux2_1
*I *2828:X O *D sky130_fd_sc_hd__clkbuf_4
*CAP
1 *2431:S 0.000187538
2 *2395:C 0.00013278
3 *2394:A2 0
4 *2437:S 0
5 *2392:B 0.000144483
6 *2391:B 0
7 *2449:S 7.41628e-05
8 *2443:S 0
9 *2467:S 0
10 *2455:S 0.000479639
11 *2828:X 0
12 *634:176 7.39505e-05
13 *634:170 0.00320139
14 *634:168 0.00458921
15 *634:146 0.000112759
16 *634:136 0.000460455
17 *634:115 0.00124858
18 *634:98 0.00200891
19 *634:94 0.00110218
20 *634:78 0.000912586
21 *634:74 0.00174379
22 *634:60 0.00196925
23 *634:52 0.00127206
24 *634:44 0.0023208
25 *634:40 6.50182e-05
26 *634:36 0.000856865
27 *634:26 0.000957204
28 *634:24 0.00168928
29 *634:6 0.00187682
30 *2392:B *2840:A 0.000307335
31 *2392:B *647:12 0.000342591
32 *2392:B *647:21 0.000191335
33 *2395:C *2395:B 0.000115013
34 *2395:C *2835:A 1.95448e-05
35 *2395:C *639:43 0
36 *2395:C *648:53 4.85126e-05
37 *2431:S *673:30 0.000100829
38 *2431:S *739:10 0.000103124
39 *2455:S *645:16 0
40 *634:24 *2401:A 0.000137651
41 *634:24 *2735:D 4.23568e-05
42 *634:24 *668:69 7.59794e-05
43 *634:24 *673:30 0.000164429
44 *634:24 *708:10 0.000148698
45 *634:24 *720:18 0.000581956
46 *634:24 *739:10 0.000164429
47 *634:24 *754:33 2.81138e-05
48 *634:36 *639:43 0
49 *634:36 *648:53 8.68903e-05
50 *634:36 *668:77 0.000528019
51 *634:36 *669:87 0.000135547
52 *634:36 *705:12 3.38187e-05
53 *634:52 *647:101 7.20154e-05
54 *634:52 *665:85 0
55 *634:52 *669:34 0.000134698
56 *634:52 *669:87 0.000277816
57 *634:52 *715:10 0.000114083
58 *634:60 *669:34 0.000377181
59 *634:74 *2444:S0 1.39317e-05
60 *634:74 *658:33 0.000118889
61 *634:94 *637:86 0.000268183
62 *634:94 *641:143 0.000141879
63 *634:94 *650:32 6.79006e-05
64 *634:115 *659:124 0
65 *634:115 *661:47 0
66 *634:115 *669:56 0
67 *634:115 *678:40 0
68 *634:136 *647:12 5.50106e-05
69 *634:146 *647:12 0.000192077
70 *634:146 *650:20 5.55557e-05
71 *634:146 *668:26 0.000194318
72 *634:146 *669:28 0
73 *634:168 *640:33 0
74 *634:168 *669:87 0.000638175
75 *634:168 *669:100 0.00044292
76 *634:168 *670:45 4.93809e-05
77 *634:168 *687:10 0
78 *634:168 *740:10 0.000104211
79 *634:170 *2501:A0 3.29068e-05
80 *634:176 *643:23 3.83778e-05
81 *634:176 *643:116 2.84912e-05
82 *2393:B *2392:B 4.5051e-05
83 *2403:C *2395:C 1.95448e-05
84 *2425:A1 *634:52 0
85 *2425:A1 *634:168 0
86 *2431:A0 *2431:S 5.12254e-05
87 *2444:A1 *634:74 9.67842e-05
88 *2444:A2 *634:74 9.89201e-05
89 *2449:A0 *2449:S 0
90 *2455:A0 *2455:S 5.50106e-05
91 *2586:S *634:74 8.80821e-05
92 *2626:CLK *634:170 0.0001042
93 *2700:D *634:98 0.000314157
94 *2750:D *634:94 0.000234885
95 *2814:A *634:60 0.000188916
96 *2814:A *634:74 0.000520201
97 *2907:A *634:74 0.000100522
98 *2964:A *634:74 9.16557e-05
99 *2967:A *634:98 0.00010018
100 *2969:A *634:168 0
101 *2969:A *634:170 0.000635932
102 *47:8 *634:170 0.000110385
103 *49:8 *634:115 0.000320661
104 *113:10 *634:115 0
105 *265:6 *634:146 5.50049e-05
106 *265:14 *2392:B 5.50106e-05
107 *267:10 *634:40 3.7122e-06
108 *271:10 *634:24 0.000284573
109 *296:10 *634:176 6.6869e-05
110 *297:20 *634:94 0.000162754
111 *302:10 *634:74 0.00010399
112 *311:10 *2455:S 0.000296947
113 *321:10 *634:115 2.5415e-05
114 *327:118 *634:52 0.000802971
115 *329:96 *634:170 0.000349813
116 *329:105 *634:170 2.02872e-05
117 *331:68 *634:115 0
118 *333:108 *634:52 0
119 *337:57 *634:78 0.000561664
120 *337:57 *634:94 0.000535813
121 *339:36 *634:115 0
122 *341:117 *634:78 0.000572401
123 *341:117 *634:94 0.000356724
124 *348:8 *634:60 2.64616e-05
125 *348:10 *634:60 0.000197479
126 *348:63 *634:52 0
127 *348:76 *634:52 0
128 *348:95 *634:52 0
129 *354:30 *2455:S 0
130 *354:30 *634:115 0
131 *354:32 *2455:S 0
132 *355:90 *634:115 0
133 *363:10 *634:36 0.000133316
134 *363:10 *634:168 0.000177348
135 *368:27 *634:52 0
136 *408:6 *634:170 0.00035411
137 *410:8 *634:115 0
138 *451:14 *634:74 3.94723e-05
139 *466:6 *634:98 4.21378e-05
140 *466:27 *634:94 8.7283e-06
141 *466:27 *634:98 7.1915e-05
142 *474:12 *634:115 0
143 *480:31 *634:170 1.94812e-05
144 *531:10 *634:170 8.97286e-06
145 *539:10 *634:115 2.79004e-05
146 *542:10 *2449:S 1.40958e-05
147 *542:10 *634:74 5.3304e-05
148 *545:10 *634:98 2.4754e-05
149 *551:18 *634:24 7.30555e-05
150 *551:26 *634:40 4.08664e-05
151 *551:26 *634:44 5.50049e-05
152 *551:38 *634:52 7.41956e-06
153 *573:18 *2455:S 0
154 *632:14 *634:115 5.50049e-05
155 *633:44 *634:94 0
156 *633:44 *634:98 0.000139346
157 *633:50 *634:98 0.000105759
*RES
1 *2828:X *634:6 38 
2 *634:6 *634:24 45.2636 
3 *634:24 *634:26 15 
4 *634:26 *634:36 43.7129 
5 *634:36 *634:40 15.6214 
6 *634:40 *634:44 15.6214 
7 *634:44 *634:52 35.6314 
8 *634:52 *634:60 36.6493 
9 *634:60 *634:74 43.565 
10 *634:74 *634:78 21.3386 
11 *634:78 *634:94 48.8086 
12 *634:94 *634:98 23.2443 
13 *634:98 *2455:S 47.2179 
14 *634:98 *634:115 38.6557 
15 *634:115 *2467:S 23 
16 *634:78 *2443:S 23 
17 *634:60 *2449:S 24.4707 
18 *634:52 *634:136 3.48 
19 *634:136 *634:146 33.7286 
20 *634:146 *2391:B 23 
21 *634:136 *2392:B 29.3593 
22 *634:44 *634:168 44.7457 
23 *634:168 *634:170 41.5943 
24 *634:170 *634:176 31.9057 
25 *634:176 *2437:S 23 
26 *634:40 *2394:A2 23 
27 *634:26 *2395:C 41.19 
28 *634:6 *2431:S 42.5571 
*END

*D_NET *635 0.00875936
*CONN
*I *2385:A I *D sky130_fd_sc_hd__nand2_1
*I *2374:A I *D sky130_fd_sc_hd__nor2_1
*I *2377:A I *D sky130_fd_sc_hd__xnor2_1
*I *2508:A I *D sky130_fd_sc_hd__or2_2
*I *2573:A I *D sky130_fd_sc_hd__or3b_4
*I *2498:B I *D sky130_fd_sc_hd__nand2b_2
*I *2499:C I *D sky130_fd_sc_hd__nand3b_4
*I *2384:A I *D sky130_fd_sc_hd__nand2_2
*I *2546:A_N I *D sky130_fd_sc_hd__nand2b_4
*I *2545:A_N I *D sky130_fd_sc_hd__nand2b_2
*I *2829:X O *D sky130_fd_sc_hd__clkbuf_4
*CAP
1 *2385:A 0.000110317
2 *2374:A 0.000172439
3 *2377:A 0
4 *2508:A 2.1727e-05
5 *2573:A 0
6 *2498:B 0
7 *2499:C 1.17411e-05
8 *2384:A 0
9 *2546:A_N 0
10 *2545:A_N 1.76887e-05
11 *2829:X 0
12 *635:101 0.000286624
13 *635:78 0.000124418
14 *635:63 0.000341038
15 *635:46 0.000284996
16 *635:38 0.000637451
17 *635:24 0.000335137
18 *635:18 0.000534789
19 *635:14 0.000218906
20 *635:8 0.000270693
21 *635:6 0.000234564
22 *635:4 0.000130872
23 *2374:A *636:8 8.71791e-05
24 *2374:A *746:6 0.000228001
25 *2385:A *2829:A 4.95081e-05
26 *2385:A *639:28 0.000212162
27 *2545:A_N *636:16 5.70419e-05
28 *635:6 *639:28 4.08664e-05
29 *635:8 *2508:B 5.3304e-05
30 *635:8 *639:28 0.000236104
31 *635:14 *2573:B 2.4754e-05
32 *635:14 *639:28 0.000362929
33 *635:18 *2573:B 5.50106e-05
34 *635:18 *639:28 6.24251e-05
35 *635:24 *636:16 0.000123934
36 *635:63 *636:82 0.00018443
37 *635:78 *636:82 9.84794e-05
38 *635:101 *736:10 1.02387e-05
39 *635:101 *745:14 0.000215791
40 *2373:B *2508:A 4.00259e-06
41 *2374:B *2374:A 0.000218389
42 *2377:B *635:101 0.000191148
43 *2385:B *2385:A 0.0002263
44 *2385:B *635:6 5.3304e-05
45 *2385:B *635:8 7.31454e-05
46 *2479:B *635:46 2.93747e-05
47 *249:29 *635:78 4.38375e-05
48 *252:36 *635:8 4.34973e-05
49 *252:36 *635:14 5.0644e-05
50 *259:8 *635:63 0.000137668
51 *259:8 *635:78 4.95081e-05
52 *259:23 *635:78 4.90891e-05
53 *260:8 *635:14 7.43025e-06
54 *260:8 *635:18 2.43944e-05
55 *322:31 *635:46 0.000189693
56 *322:48 *635:24 0
57 *324:10 *635:78 1.01436e-05
58 *324:18 *635:38 5.24393e-05
59 *324:18 *635:63 0.000185755
60 *324:20 *635:24 0.000401816
61 *324:20 *635:38 0.000219882
62 *325:18 *635:24 6.37326e-05
63 *325:18 *635:38 0
64 *325:65 *635:63 0
65 *329:8 *635:63 2.26489e-05
66 *329:16 *635:46 0.000223698
67 *330:10 *635:14 5.50049e-05
68 *336:6 *2545:A_N 5.70419e-05
69 *336:6 *635:24 6.9805e-05
70 *339:8 *635:14 5.50049e-05
71 *633:115 *635:38 8.21456e-06
72 *633:115 *635:46 9.67842e-05
73 *633:115 *635:63 1.0402e-05
*RES
1 *2829:X *635:4 23 
2 *635:4 *635:6 0.621429 
3 *635:6 *635:8 3.00357 
4 *635:8 *635:14 4.95071 
5 *635:14 *635:18 16.5743 
6 *635:18 *635:24 22.9543 
7 *635:24 *2545:A_N 24.0979 
8 *635:24 *2546:A_N 23 
9 *635:18 *635:38 3.66643 
10 *635:38 *635:46 36.5664 
11 *635:46 *2384:A 38 
12 *635:38 *635:63 20.3029 
13 *635:63 *2499:C 23.4971 
14 *635:63 *635:78 33.3557 
15 *635:78 *2498:B 23 
16 *635:14 *2573:A 23 
17 *635:8 *2508:A 23.4971 
18 *635:6 *635:101 32.9621 
19 *635:101 *2377:A 23 
20 *635:101 *2374:A 28.4271 
21 *635:4 *2385:A 26.9771 
*END

*D_NET *636 0.0136696
*CONN
*I *2372:A I *D sky130_fd_sc_hd__and2_1
*I *2303:A I *D sky130_fd_sc_hd__nand2_1
*I *2379:A I *D sky130_fd_sc_hd__xnor2_1
*I *2498:A_N I *D sky130_fd_sc_hd__nand2b_2
*I *2499:A_N I *D sky130_fd_sc_hd__nand3b_4
*I *2384:B I *D sky130_fd_sc_hd__nand2_2
*I *2371:A I *D sky130_fd_sc_hd__nor2_1
*I *2573:B I *D sky130_fd_sc_hd__or3b_4
*I *2508:B I *D sky130_fd_sc_hd__or2_2
*I *2545:B I *D sky130_fd_sc_hd__nand2b_2
*I *2830:X O *D sky130_fd_sc_hd__buf_2
*CAP
1 *2372:A 3.21736e-05
2 *2303:A 0.0013252
3 *2379:A 0
4 *2498:A_N 0
5 *2499:A_N 0
6 *2384:B 0.000151819
7 *2371:A 0
8 *2573:B 0.000195347
9 *2508:B 2.32701e-05
10 *2545:B 0
11 *2830:X 0.000407913
12 *636:117 0.0014653
13 *636:104 0.000202421
14 *636:82 0.000675776
15 *636:70 0.000634552
16 *636:46 0.000486576
17 *636:38 0.000462138
18 *636:34 0.000251927
19 *636:23 0.000225131
20 *636:16 0.000966105
21 *636:8 0.00147876
22 *2303:A *745:10 5.41288e-05
23 *636:8 *746:6 9.84794e-05
24 *636:16 *2744:D 0.000138444
25 *636:16 *736:10 5.97612e-05
26 *2303:B *2303:A 6.00453e-05
27 *2304:A *2303:A 9.84851e-05
28 *2304:B *2303:A 0.00010018
29 *2374:A *636:8 8.71791e-05
30 *2374:B *636:8 4.39152e-05
31 *2379:B *2303:A 5.3304e-05
32 *2479:A *636:46 3.63546e-05
33 *2545:A_N *636:16 5.70419e-05
34 *186:16 *2303:A 6.68822e-05
35 *193:10 *2303:A 0.00010018
36 *249:37 *636:46 3.21327e-05
37 *249:45 *2573:B 1.34542e-05
38 *249:45 *636:46 6.07611e-06
39 *251:10 *2372:A 2.64616e-05
40 *252:10 *2573:B 0.000101708
41 *252:12 *2573:B 3.70187e-05
42 *252:36 *2508:B 5.3304e-05
43 *259:8 *2384:B 9.84851e-05
44 *259:8 *636:82 0.000236369
45 *260:8 *2573:B 5.12254e-05
46 *323:10 *636:117 6.48142e-05
47 *323:16 *636:16 0.000218952
48 *323:16 *636:23 0.000150977
49 *323:16 *636:34 0.000177507
50 *323:16 *636:38 0.000145935
51 *323:16 *636:46 0
52 *323:16 *636:70 0.000132665
53 *323:16 *636:104 0.000128574
54 *323:16 *636:117 0.000179712
55 *326:29 *2573:B 8.90137e-05
56 *326:29 *636:46 0
57 *336:6 *636:16 3.12591e-05
58 *350:54 *636:8 1.59094e-05
59 *350:54 *636:16 9.03784e-05
60 *350:54 *636:23 0.00015795
61 *350:54 *636:34 0.00021356
62 *350:54 *636:38 5.72749e-05
63 *350:54 *636:70 1.58805e-05
64 *350:64 *2384:B 5.48688e-05
65 *350:64 *636:46 0.000221992
66 *350:64 *636:82 1.61361e-05
67 *350:71 *636:70 5.55278e-05
68 *350:71 *636:104 6.6869e-05
69 *350:71 *636:117 0.000122397
70 *633:115 *2372:A 2.64616e-05
71 *635:8 *2508:B 5.3304e-05
72 *635:14 *2573:B 2.4754e-05
73 *635:18 *2573:B 5.50106e-05
74 *635:24 *636:16 0.000123934
75 *635:63 *636:82 0.00018443
76 *635:78 *636:82 9.84794e-05
*RES
1 *2830:X *636:8 43.3857 
2 *636:8 *636:16 29.4379 
3 *636:16 *2545:B 23 
4 *636:8 *636:23 2.25786 
5 *636:23 *2508:B 38.6214 
6 *636:23 *636:34 2.96214 
7 *636:34 *636:38 2.52714 
8 *636:38 *636:46 34.785 
9 *636:46 *2573:B 42.9507 
10 *636:46 *2371:A 38 
11 *636:38 *636:70 1.90571 
12 *636:70 *636:82 24.0521 
13 *636:82 *2384:B 26.8114 
14 *636:82 *2499:A_N 23 
15 *636:70 *636:104 1.90571 
16 *636:104 *2498:A_N 38 
17 *636:104 *636:117 18.9357 
18 *636:117 *2379:A 23 
19 *636:117 *2303:A 47.6293 
20 *636:34 *2372:A 38.6214 
*END

*D_NET *637 0.0546509
*CONN
*I *2331:A I *D sky130_fd_sc_hd__or2_1
*I *2332:A I *D sky130_fd_sc_hd__nand2_1
*I *2408:B1 I *D sky130_fd_sc_hd__a21oi_1
*I *2448:S0 I *D sky130_fd_sc_hd__mux4_1
*I *2442:S0 I *D sky130_fd_sc_hd__mux4_1
*I *2454:S0 I *D sky130_fd_sc_hd__mux4_1
*I *2436:S0 I *D sky130_fd_sc_hd__mux4_1
*I *2466:S0 I *D sky130_fd_sc_hd__mux4_1
*I *2422:S0 I *D sky130_fd_sc_hd__mux4_1
*I *2460:S0 I *D sky130_fd_sc_hd__mux4_1
*I *2831:X O *D sky130_fd_sc_hd__buf_4
*CAP
1 *2331:A 7.50765e-05
2 *2332:A 0
3 *2408:B1 7.19703e-05
4 *2448:S0 3.66931e-05
5 *2442:S0 0
6 *2454:S0 1.29071e-05
7 *2436:S0 0.000216279
8 *2466:S0 7.40956e-05
9 *2422:S0 0.000156924
10 *2460:S0 0.000410611
11 *2831:X 0.000160529
12 *637:174 7.50765e-05
13 *637:172 0.00143286
14 *637:157 0.00177127
15 *637:121 0.00159407
16 *637:104 0.00235916
17 *637:98 0.0030173
18 *637:90 0.00227723
19 *637:86 0.00199581
20 *637:62 0.00185238
21 *637:60 0.00111003
22 *637:36 0.00192044
23 *637:30 0.00239466
24 *637:26 0.00267212
25 *637:16 0.00442074
26 *637:10 0.00179346
27 *2422:S0 *644:95 0.000296365
28 *2422:S0 *648:138 0.000286221
29 *2436:S0 *663:16 0.000197479
30 *2436:S0 *663:33 0.000186576
31 *2454:S0 *641:42 5.11935e-06
32 *2460:S0 *639:143 0.000142513
33 *637:10 *672:30 5.50049e-05
34 *637:10 *706:16 7.41959e-05
35 *637:10 *707:6 5.50049e-05
36 *637:10 *707:14 0
37 *637:10 *753:10 0
38 *637:10 *754:10 0.000232378
39 *637:16 *706:16 2.26497e-05
40 *637:16 *754:10 2.05503e-05
41 *637:26 *648:111 0.000827596
42 *637:30 *644:82 0.000800832
43 *637:30 *644:95 0.000802223
44 *637:30 *648:138 0.000610081
45 *637:36 *639:28 0.000349813
46 *637:36 *639:143 1.24376e-05
47 *637:60 *647:67 0
48 *637:60 *647:78 0
49 *637:60 *658:51 0.000117992
50 *637:60 *658:66 0.000672547
51 *637:60 *705:33 7.09173e-05
52 *637:86 *647:41 0.000570742
53 *637:86 *658:10 0.000425407
54 *637:86 *658:51 5.66042e-05
55 *637:104 *2581:A0 0.000108662
56 *637:104 *639:109 0
57 *637:104 *641:42 0.000102646
58 *637:104 *641:110 6.93449e-05
59 *637:104 *641:127 0.000329731
60 *637:104 *645:28 0.000108681
61 *637:104 *645:121 0
62 *637:104 *652:33 5.56306e-05
63 *637:121 *2466:S1 5.41288e-05
64 *637:121 *639:124 9.74722e-05
65 *637:121 *663:33 2.46922e-05
66 *637:121 *669:56 0.000127525
67 *637:157 *2408:A1 1.32939e-05
68 *637:172 *2345:B 0
69 *637:172 *668:55 0
70 *637:172 *668:112 0
71 *637:172 *708:10 0
72 *637:172 *712:10 2.2077e-05
73 *637:172 *756:20 0
74 *2331:B *2331:A 5.67058e-05
75 *2347:C *637:172 0
76 *2408:A2 *2408:B1 3.45967e-05
77 *2408:A2 *637:157 0.000267167
78 *2416:B *2408:B1 5.15762e-05
79 *2416:B *637:172 7.28721e-05
80 *2419:A1 *637:30 1.87147e-05
81 *2463:A1 *637:104 4.23714e-05
82 *2473:S *637:121 9.91798e-05
83 *2517:S *2466:S0 4.37586e-06
84 *2517:S *637:121 2.5182e-05
85 *2626:CLK *637:26 0
86 *2892:A *637:60 0.000244526
87 *2898:A *637:26 6.17437e-06
88 *2907:A *637:86 2.18409e-05
89 *2964:A *637:60 0
90 *2998:A *637:30 5.58399e-06
91 *2999:A *637:30 0
92 *45:10 *637:121 6.6869e-05
93 *101:10 *637:104 0
94 *153:8 *637:90 5.94125e-05
95 *228:10 *637:172 0
96 *260:8 *637:36 0.000252836
97 *260:16 *2460:S0 7.32953e-06
98 *260:16 *637:36 0.000505225
99 *264:18 *637:16 0.000876077
100 *264:18 *637:26 0.000624447
101 *264:20 *637:30 0
102 *287:10 *637:60 3.23193e-05
103 *289:8 *637:26 8.62876e-05
104 *291:20 *637:16 0.000676497
105 *299:16 *637:90 5.30303e-05
106 *303:14 *637:86 7.39261e-05
107 *305:12 *637:86 0.000223704
108 *309:10 *637:104 0
109 *312:14 *2460:S0 0.00010882
110 *317:14 *637:121 1.33826e-05
111 *319:14 *2466:S0 6.17437e-06
112 *319:14 *637:121 5.41385e-05
113 *325:97 *637:104 8.55576e-05
114 *327:65 *2436:S0 0.000291829
115 *327:65 *637:121 2.13808e-05
116 *327:69 *637:121 0
117 *327:103 *637:60 0.00122752
118 *329:16 *2422:S0 9.58714e-05
119 *331:100 *637:60 0.00119608
120 *331:102 *637:60 0.00030122
121 *334:29 *637:36 0.000204081
122 *337:22 *637:30 7.57281e-06
123 *337:30 *637:90 5.56203e-05
124 *337:42 *637:90 5.56696e-05
125 *337:42 *637:98 0.000619809
126 *339:32 *637:121 8.23953e-05
127 *339:36 *637:121 0.0017307
128 *340:16 *637:26 3.95159e-06
129 *341:103 *637:26 0
130 *341:117 *637:86 0.00116803
131 *342:77 *637:90 0
132 *345:12 *637:26 6.79681e-05
133 *349:16 *637:26 0
134 *354:19 *637:104 0.000134206
135 *358:34 *637:121 3.95949e-05
136 *361:10 *637:26 0.000284387
137 *374:25 *637:104 0.000141879
138 *403:18 *637:60 0.000401825
139 *431:23 *637:30 0.000397445
140 *441:10 *637:121 0.000296947
141 *450:10 *637:86 5.50106e-05
142 *474:33 *637:98 0
143 *488:35 *637:26 0.000194318
144 *516:8 *637:36 0.000269781
145 *523:8 *637:121 0
146 *541:6 *637:86 0.00017934
147 *565:8 *637:26 0.000141304
148 *584:25 *637:86 5.3304e-05
149 *634:94 *637:86 0.000268183
*RES
1 *2831:X *637:10 41.9357 
2 *637:10 *637:16 13.0139 
3 *637:16 *637:26 49.3843 
4 *637:26 *637:30 36.6257 
5 *637:30 *637:36 46.61 
6 *637:36 *2460:S0 29.3593 
7 *637:30 *2422:S0 43.1164 
8 *637:16 *637:60 43.1832 
9 *637:60 *637:62 15 
10 *637:62 *637:86 36.9543 
11 *637:86 *637:90 18.6664 
12 *637:90 *637:98 21.0139 
13 *637:98 *637:104 37.7754 
14 *637:104 *2466:S0 24.1186 
15 *637:104 *637:121 48.4846 
16 *637:121 *2436:S0 45.7161 
17 *637:98 *2454:S0 38.3211 
18 *637:90 *2442:S0 38 
19 *637:62 *2448:S0 23.6214 
20 *637:10 *637:157 18.9564 
21 *637:157 *2408:B1 24.8229 
22 *637:157 *637:172 38.5936 
23 *637:172 *637:174 15 
24 *637:174 *2332:A 23 
25 *637:174 *2331:A 24.5743 
*END

*D_NET *638 0.000422117
*CONN
*I *2298:A I *D sky130_fd_sc_hd__inv_2
*I *3018:X O *D sky130_fd_sc_hd__clkbuf_1
*CAP
1 *2298:A 0
2 *3018:X 0.000177624
3 *638:10 0.000177624
4 *638:10 *678:10 6.6869e-05
5 *8:13 *638:10 0
*RES
1 *3018:X *638:10 41.0036 
2 *638:10 *2298:A 38 
*END

*D_NET *639 0.0474584
*CONN
*I *2408:A1 I *D sky130_fd_sc_hd__a21oi_1
*I *2397:A I *D sky130_fd_sc_hd__nor2_1
*I *2398:A I *D sky130_fd_sc_hd__and2_1
*I *2448:S1 I *D sky130_fd_sc_hd__mux4_1
*I *2442:S1 I *D sky130_fd_sc_hd__mux4_1
*I *2454:S1 I *D sky130_fd_sc_hd__mux4_1
*I *2460:S1 I *D sky130_fd_sc_hd__mux4_1
*I *2436:S1 I *D sky130_fd_sc_hd__mux4_1
*I *2466:S1 I *D sky130_fd_sc_hd__mux4_1
*I *2422:S1 I *D sky130_fd_sc_hd__mux4_1
*I *2832:X O *D sky130_fd_sc_hd__buf_4
*CAP
1 *2408:A1 0.000159661
2 *2397:A 2.34823e-05
3 *2398:A 0
4 *2448:S1 6.80978e-05
5 *2442:S1 0
6 *2454:S1 0
7 *2460:S1 0
8 *2436:S1 0.000654665
9 *2466:S1 3.13975e-05
10 *2422:S1 0
11 *2832:X 0
12 *639:143 0.00128021
13 *639:124 0.00315521
14 *639:111 0.00125173
15 *639:109 0.00118067
16 *639:105 0.00173164
17 *639:101 0.000970644
18 *639:73 0.00180565
19 *639:67 0.00227283
20 *639:59 0.00149541
21 *639:49 0.00149686
22 *639:43 0.0021101
23 *639:34 0.000152777
24 *639:28 0.00209468
25 *639:20 0.00385292
26 *639:18 0.00282299
27 *639:10 0.00216452
28 *639:8 0.000244828
29 *639:6 0.000436067
30 *639:4 0.000426257
31 *639:6 *706:16 5.3304e-05
32 *639:18 *2737:RESET_B 2.86109e-05
33 *639:18 *716:10 8.20126e-06
34 *639:18 *720:48 0.000423567
35 *639:20 *731:10 6.93553e-05
36 *639:20 *744:16 0
37 *639:43 *2395:B 0
38 *639:43 *2774:RESET_B 0.00024655
39 *639:43 *642:99 0
40 *639:43 *648:53 0
41 *639:43 *673:58 5.91383e-05
42 *639:43 *673:74 6.43005e-05
43 *639:43 *679:10 0
44 *639:43 *720:18 0
45 *639:43 *720:48 0
46 *639:43 *723:10 0.000117249
47 *639:49 *668:26 0.000220047
48 *639:49 *715:10 3.89101e-05
49 *639:59 *650:20 9.63918e-05
50 *639:59 *669:34 0
51 *639:67 *647:29 4.5051e-05
52 *639:67 *647:35 0.000387304
53 *639:67 *647:133 3.0647e-05
54 *639:67 *669:34 0
55 *639:73 *661:31 5.37348e-06
56 *639:101 *641:143 8.28923e-05
57 *639:101 *645:16 0.000204457
58 *639:101 *645:145 5.95278e-05
59 *639:101 *650:42 0.000261468
60 *639:101 *659:112 0
61 *639:101 *661:31 0.000499462
62 *639:105 *645:16 0.000178681
63 *639:105 *645:18 0.000386085
64 *639:105 *661:10 5.50049e-05
65 *639:105 *661:16 0.000310647
66 *639:109 *641:34 4.08641e-05
67 *639:109 *645:121 3.31127e-05
68 *639:109 *669:56 0
69 *639:109 *694:10 4.334e-05
70 *639:124 *643:39 6.1139e-05
71 *639:124 *652:87 0.00035793
72 *639:143 *643:39 4.16764e-05
73 *639:143 *654:64 1.52362e-05
74 *639:143 *654:74 0.000307922
75 *639:143 *663:10 0
76 *639:143 *666:45 0
77 *639:143 *700:10 0.000167443
78 *2385:A *639:28 0.000212162
79 *2395:C *639:43 0
80 *2398:B *639:43 2.16507e-05
81 *2408:A2 *2408:A1 6.87362e-05
82 *2408:A2 *639:6 0.000547836
83 *2408:A2 *639:8 5.50106e-05
84 *2422:A2 *639:34 0.000271382
85 *2436:A0 *639:124 0.000393021
86 *2436:A2 *2436:S1 1.69977e-05
87 *2436:A3 *2436:S1 0.000141835
88 *2442:A0 *639:101 5.50106e-05
89 *2442:A2 *639:101 2.50451e-05
90 *2457:A1 *639:143 0
91 *2460:S0 *639:143 0.000142513
92 *2463:A1 *639:109 0
93 *2463:A1 *639:124 0
94 *2464:A1 *639:124 0
95 *2517:S *2466:S1 3.71251e-05
96 *2517:S *639:124 7.13507e-05
97 *2556:A0 *639:143 0
98 *2604:A1 *639:49 1.21972e-05
99 *2701:D *639:73 8.51101e-05
100 *2751:D *639:73 3.09254e-05
101 *2814:A *639:59 0.000181125
102 *2854:A *639:143 0
103 *2921:A *639:124 0
104 *2982:A *639:67 0.000160051
105 *63:10 *639:20 0.000169674
106 *67:8 *639:109 0.000191166
107 *101:10 *639:109 3.98859e-05
108 *121:10 *639:105 1.57571e-05
109 *260:8 *639:28 0.000111575
110 *260:16 *639:143 0.000112207
111 *268:21 *639:43 0.000133748
112 *268:27 *639:8 1.72202e-05
113 *268:35 *639:8 5.50049e-05
114 *269:6 *639:8 0.000209554
115 *269:6 *639:10 5.50106e-05
116 *269:14 *639:10 0.000125213
117 *269:14 *639:18 0.000268074
118 *270:10 *639:43 0
119 *287:10 *639:20 0.000243034
120 *295:14 *639:124 0.000189194
121 *300:14 *639:101 5.53692e-05
122 *301:10 *639:73 1.47955e-05
123 *302:10 *639:59 6.17437e-06
124 *304:8 *639:59 0.000376261
125 *309:10 *639:109 2.41047e-05
126 *311:10 *639:105 0.000220037
127 *317:14 *639:124 0
128 *325:81 *639:143 0
129 *327:65 *639:124 0.000251277
130 *327:69 *639:109 0
131 *327:69 *639:124 0.00128658
132 *327:99 *639:20 0
133 *327:103 *639:20 0.000209152
134 *331:102 *639:59 7.38587e-05
135 *333:108 *639:59 0.000855633
136 *333:108 *639:67 5.3365e-05
137 *334:29 *639:28 1.61361e-05
138 *337:42 *639:101 1.28019e-05
139 *339:32 *639:143 9.60606e-05
140 *339:110 *639:143 0.000170502
141 *342:67 *639:34 0
142 *347:47 *639:67 0.000146207
143 *347:47 *639:73 0.000102
144 *348:69 *639:49 3.22118e-05
145 *354:19 *639:109 0
146 *374:25 *639:109 0
147 *417:25 *639:143 0
148 *419:29 *639:49 7.44354e-05
149 *467:10 *639:67 6.82514e-05
150 *467:10 *639:73 1.02949e-05
151 *579:10 *639:109 2.72055e-05
152 *626:16 *2436:S1 9.67842e-05
153 *626:16 *639:124 1.58805e-05
154 *626:16 *639:143 0.00020394
155 *633:18 *639:20 0.000373889
156 *633:22 *639:49 6.17437e-06
157 *634:36 *639:43 0
158 *635:6 *639:28 4.08664e-05
159 *635:8 *639:28 0.000236104
160 *635:14 *639:28 0.000362929
161 *635:18 *639:28 6.24251e-05
162 *637:36 *639:28 0.000349813
163 *637:36 *639:143 1.24376e-05
164 *637:104 *639:109 0
165 *637:121 *2466:S1 5.41288e-05
166 *637:121 *639:124 9.74722e-05
167 *637:157 *2408:A1 1.32939e-05
*RES
1 *2832:X *639:4 23 
2 *639:4 *639:6 6.33857 
3 *639:6 *639:8 3.48 
4 *639:8 *639:10 2.05071 
5 *639:10 *639:18 30.4321 
6 *639:18 *639:20 39.9371 
7 *639:20 *639:28 42.9436 
8 *639:28 *639:34 33.6664 
9 *639:34 *2422:S1 23 
10 *639:10 *639:43 38.3864 
11 *639:43 *639:49 43.0086 
12 *639:49 *639:59 45.37 
13 *639:59 *639:67 34.6009 
14 *639:67 *639:73 19.6734 
15 *639:73 *639:101 45.0386 
16 *639:101 *639:105 15.8879 
17 *639:105 *639:109 37.33 
18 *639:109 *639:111 15 
19 *639:111 *2466:S1 24.0979 
20 *639:111 *639:124 49.2407 
21 *639:124 *2436:S1 48.1914 
22 *639:124 *639:143 42.4464 
23 *639:143 *2460:S1 23 
24 *639:105 *2454:S1 23 
25 *639:73 *2442:S1 23 
26 *639:59 *2448:S1 39.0979 
27 *639:8 *2398:A 23 
28 *639:6 *2397:A 23.4971 
29 *639:4 *2408:A1 26.3764 
*END

*D_NET *640 0.0106407
*CONN
*I *2403:B I *D sky130_fd_sc_hd__and3_1
*I *2341:A I *D sky130_fd_sc_hd__and2_1
*I *2335:A I *D sky130_fd_sc_hd__nor2_1
*I *2400:A I *D sky130_fd_sc_hd__xnor2_1
*I *2429:S I *D sky130_fd_sc_hd__mux2_1
*I *2426:S I *D sky130_fd_sc_hd__mux2_1
*I *2833:X O *D sky130_fd_sc_hd__clkbuf_2
*CAP
1 *2403:B 1.87999e-05
2 *2341:A 0
3 *2335:A 0.000125954
4 *2400:A 0
5 *2429:S 0.000271849
6 *2426:S 3.39756e-05
7 *2833:X 3.83322e-05
8 *640:55 0.00131909
9 *640:49 0.00134967
10 *640:33 0.000893721
11 *640:20 0.00100844
12 *640:14 0.00148611
13 *640:6 0.00130957
14 *2429:S *644:23 0.000301021
15 *2429:S *648:74 0.000144067
16 *640:6 *706:8 1.94812e-05
17 *640:14 *2733:CLK 0.000165412
18 *640:14 *2733:D 0.000227208
19 *640:14 *642:12 0
20 *640:14 *706:8 4.93341e-05
21 *640:20 *710:10 0.000183733
22 *640:33 *2737:RESET_B 0.000107508
23 *640:49 *707:14 5.21024e-05
24 *640:49 *720:28 3.3123e-05
25 *640:49 *753:10 0
26 *640:49 *754:10 0
27 *640:49 *754:18 0
28 *640:55 *720:28 7.56417e-05
29 *640:55 *753:10 0
30 *640:55 *753:16 0
31 *640:55 *754:33 0
32 *2341:B *2335:A 9.76121e-05
33 *2396:B *640:20 1.76557e-05
34 *2400:B *640:20 0.000223692
35 *2403:C *2403:B 1.17801e-06
36 *2425:A1 *640:33 4.7869e-05
37 *2910:A *640:33 6.49723e-05
38 *219:8 *640:55 0.000206416
39 *224:10 *2335:A 3.22879e-05
40 *274:10 *640:55 0.000161736
41 *275:12 *640:55 0
42 *285:24 *640:20 1.37232e-05
43 *333:98 *2429:S 0.000559372
44 *333:98 *640:33 0
45 *363:10 *640:14 0
46 *634:168 *640:33 0
*RES
1 *2833:X *640:6 23.6214 
2 *640:6 *640:14 44.9143 
3 *640:14 *640:20 7.20857 
4 *640:20 *2426:S 23.6214 
5 *640:20 *640:33 41.4136 
6 *640:33 *2429:S 32.1971 
7 *640:14 *2400:A 23 
8 *640:6 *640:49 17.9621 
9 *640:49 *640:55 39.1529 
10 *640:55 *2335:A 26.5214 
11 *640:55 *2341:A 23 
12 *640:49 *2403:B 38.1916 
*END

*D_NET *641 0.0262295
*CONN
*I *2440:S1 I *D sky130_fd_sc_hd__mux4_1
*I *2439:S1 I *D sky130_fd_sc_hd__mux4_1
*I *2441:S1 I *D sky130_fd_sc_hd__mux4_1
*I *2438:S1 I *D sky130_fd_sc_hd__mux4_1
*I *2463:S1 I *D sky130_fd_sc_hd__mux4_1
*I *2452:S1 I *D sky130_fd_sc_hd__mux4_1
*I *2451:S1 I *D sky130_fd_sc_hd__mux4_1
*I *2465:S1 I *D sky130_fd_sc_hd__mux4_1
*I *2450:S1 I *D sky130_fd_sc_hd__mux4_1
*I *2453:S1 I *D sky130_fd_sc_hd__mux4_1
*I *2834:X O *D sky130_fd_sc_hd__clkbuf_4
*CAP
1 *2440:S1 3.80647e-06
2 *2439:S1 0.000240699
3 *2441:S1 0.000520151
4 *2438:S1 0
5 *2463:S1 0
6 *2452:S1 0
7 *2451:S1 0
8 *2465:S1 0
9 *2450:S1 0
10 *2453:S1 0.000284975
11 *2834:X 0.000356266
12 *641:143 0.00153607
13 *641:127 0.000706188
14 *641:110 0.000774503
15 *641:96 0.00108331
16 *641:77 0.00114996
17 *641:73 0.00117356
18 *641:50 0.00233324
19 *641:42 0.00153694
20 *641:40 0.00106442
21 *641:34 0.00151489
22 *641:18 0.00116184
23 *641:12 0.00134512
24 *641:10 0.000882499
25 *2441:S1 *659:29 0
26 *2441:S1 *659:58 0
27 *2441:S1 *659:84 0
28 *2453:S1 *655:20 0
29 *641:10 *650:32 1.65421e-06
30 *641:10 *650:66 0.000275679
31 *641:12 *650:32 0
32 *641:34 *656:75 4.96717e-05
33 *641:42 *645:28 0.000110913
34 *641:42 *645:121 0
35 *641:42 *656:56 0.000256878
36 *641:42 *656:75 0.000104123
37 *641:50 *645:127 0
38 *641:73 *645:48 0.000283731
39 *641:110 *656:75 3.47776e-05
40 *641:127 *645:68 0
41 *641:143 *650:32 9.51831e-05
42 *641:143 *650:42 6.69637e-06
43 *641:143 *659:112 0
44 *2438:A3 *641:34 6.17437e-06
45 *2450:A2 *641:73 4.04459e-05
46 *2450:A3 *641:73 6.13245e-05
47 *2452:A3 *641:110 1.7992e-05
48 *2452:A3 *641:127 9.21347e-06
49 *2453:A2 *2453:S1 0.000110152
50 *2454:S0 *641:42 5.11935e-06
51 *2581:S *641:127 5.01986e-05
52 *2692:D *641:34 7.10068e-06
53 *2718:CLK *641:50 0.000308595
54 *2718:D *641:50 1.74843e-05
55 *2750:CLK *641:12 4.96264e-06
56 *2750:CLK *641:18 7.95103e-05
57 *2750:CLK *641:143 1.94418e-05
58 *2883:A *641:127 5.50106e-05
59 *2890:A *641:96 0
60 *2924:A *641:42 0.000169683
61 *2975:A *641:10 2.5343e-05
62 *2975:A *641:12 0.000123845
63 *2989:A *641:143 4.83778e-05
64 *3001:A *641:40 6.51763e-05
65 *109:14 *641:96 0.000107241
66 *147:10 *641:96 8.76088e-05
67 *155:8 *641:73 0.000166522
68 *169:8 *2441:S1 4.48568e-05
69 *173:8 *641:96 0
70 *297:12 *641:18 0
71 *297:12 *641:34 0.000159993
72 *297:12 *641:143 0
73 *300:14 *2441:S1 0.000405016
74 *300:14 *641:143 0.000417865
75 *307:16 *641:73 1.34594e-05
76 *310:28 *641:50 0
77 *320:20 *641:127 4.05745e-05
78 *320:26 *641:127 0.000103019
79 *323:130 *641:127 0
80 *325:97 *641:127 0.000222104
81 *334:76 *641:73 0
82 *336:92 *641:96 0
83 *337:122 *641:96 0
84 *338:44 *2439:S1 0.000201317
85 *339:44 *641:42 0
86 *339:44 *641:127 0.000166532
87 *340:131 *641:96 0
88 *345:22 *641:10 0
89 *345:52 *641:127 0.000351508
90 *346:63 *641:77 0
91 *346:63 *641:96 6.25829e-05
92 *354:26 *641:40 0.000139764
93 *355:8 *641:12 0.000111148
94 *355:10 *641:12 6.79006e-05
95 *355:29 *641:34 0.000230713
96 *355:45 *641:12 0.000114645
97 *355:56 *641:12 0.00011218
98 *355:67 *2440:S1 7.37814e-06
99 *355:67 *641:10 0
100 *355:67 *641:12 9.67547e-05
101 *380:10 *2453:S1 0.00013866
102 *380:10 *641:73 8.72173e-05
103 *410:31 *641:10 0.000180814
104 *418:10 *641:10 8.11552e-05
105 *434:16 *641:143 3.91747e-05
106 *436:22 *641:42 0.000253721
107 *444:8 *641:50 0.000187129
108 *444:14 *641:42 4.21594e-06
109 *444:14 *641:50 7.55729e-05
110 *452:19 *641:73 5.11807e-05
111 *466:27 *641:18 3.70187e-05
112 *466:27 *641:143 0.000164282
113 *474:12 *641:34 5.67058e-05
114 *474:33 *641:34 0.000160286
115 *494:14 *641:96 0
116 *570:8 *2453:S1 8.50457e-05
117 *574:10 *641:50 0.000105183
118 *579:10 *641:34 8.4047e-05
119 *591:10 *641:143 4.08537e-05
120 *592:8 *641:127 0
121 *600:8 *641:96 8.62876e-05
122 *634:94 *641:143 0.000141879
123 *637:104 *641:42 0.000102646
124 *637:104 *641:110 6.93449e-05
125 *637:104 *641:127 0.000329731
126 *639:101 *641:143 8.28923e-05
127 *639:109 *641:34 4.08641e-05
*RES
1 *2834:X *641:10 47.8704 
2 *641:10 *641:12 13.1536 
3 *641:12 *641:18 16.6675 
4 *641:18 *641:34 48.3529 
5 *641:34 *641:40 20.5307 
6 *641:40 *641:42 15.2871 
7 *641:42 *641:50 48.705 
8 *641:50 *2453:S1 43.8414 
9 *641:50 *641:73 36.2114 
10 *641:73 *641:77 16.2014 
11 *641:77 *2450:S1 38 
12 *641:77 *641:96 34.1814 
13 *641:96 *2465:S1 23 
14 *641:42 *2451:S1 38 
15 *641:40 *641:110 1.90571 
16 *641:110 *2452:S1 38 
17 *641:110 *641:127 48.3321 
18 *641:127 *2463:S1 38 
19 *641:18 *2438:S1 23 
20 *641:12 *641:143 18.5704 
21 *641:143 *2441:S1 49.0614 
22 *641:143 *2439:S1 42.9093 
23 *641:10 *2440:S1 38.3211 
*END

*D_NET *642 0.0336225
*CONN
*I *2404:A I *D sky130_fd_sc_hd__xnor2_1
*I *2337:A_N I *D sky130_fd_sc_hd__and2b_1
*I *2339:A I *D sky130_fd_sc_hd__xor2_1
*I *2445:S1 I *D sky130_fd_sc_hd__mux4_1
*I *2447:S1 I *D sky130_fd_sc_hd__mux4_1
*I *2424:S1 I *D sky130_fd_sc_hd__mux4_1
*I *2834:A I *D sky130_fd_sc_hd__clkbuf_4
*I *2462:S1 I *D sky130_fd_sc_hd__mux4_1
*I *2444:S1 I *D sky130_fd_sc_hd__mux4_1
*I *2394:B1 I *D sky130_fd_sc_hd__a21oi_1
*I *2835:X O *D sky130_fd_sc_hd__clkbuf_4
*CAP
1 *2404:A 0
2 *2337:A_N 0.00010161
3 *2339:A 0
4 *2445:S1 0.000105858
5 *2447:S1 0
6 *2424:S1 0
7 *2834:A 0
8 *2462:S1 0.000503173
9 *2444:S1 0
10 *2394:B1 6.10195e-05
11 *2835:X 0.000131862
12 *642:137 0.000768792
13 *642:119 0.000862265
14 *642:113 0.000968123
15 *642:111 0.00134496
16 *642:101 0.00255352
17 *642:99 0.00151193
18 *642:74 0.00289949
19 *642:64 0.00322997
20 *642:54 0.00181052
21 *642:41 0.00133981
22 *642:37 0.00239694
23 *642:33 0.00147656
24 *642:12 0.00182434
25 *642:6 0.00146944
26 *2394:B1 *2733:CLK 0
27 *2394:B1 *710:10 0
28 *2462:S1 *651:103 3.17634e-05
29 *642:12 *2733:CLK 0
30 *642:12 *710:10 0
31 *642:33 *647:101 3.75236e-05
32 *642:41 *657:104 0
33 *642:54 *664:28 7.20415e-05
34 *642:64 *664:10 2.24973e-05
35 *642:74 *2624:CLK 9.67842e-05
36 *642:74 *2624:RESET_B 0.00017621
37 *642:99 *2733:CLK 0.000331064
38 *642:99 *668:26 5.40866e-05
39 *642:99 *668:79 0.000133316
40 *642:99 *669:87 0
41 *642:99 *673:58 0
42 *642:99 *720:18 0.00014411
43 *642:99 *720:48 0.000133585
44 *642:99 *723:10 0.000119735
45 *642:101 *2621:CLK 7.66085e-05
46 *642:101 *2621:RESET_B 0
47 *642:101 *647:27 0
48 *642:101 *668:26 6.43253e-05
49 *642:101 *673:58 0
50 *642:101 *709:10 0.000141869
51 *642:111 *647:27 0
52 *2337:B *2337:A_N 9.45591e-05
53 *2337:B *642:137 2.4754e-05
54 *2396:B *642:6 0.000170388
55 *2396:B *642:12 0.000265466
56 *2424:A3 *642:54 0
57 *2477:A0 *2462:S1 5.50049e-05
58 *2575:S *642:33 2.81221e-05
59 *2658:CLK *642:33 0.000394999
60 *2658:CLK *642:54 3.45353e-05
61 *2658:D *642:33 0.000145274
62 *2677:D *642:111 0.000139352
63 *2698:CLK *642:64 0.000168829
64 *2698:D *642:64 8.79002e-05
65 *2714:D *642:54 7.41637e-05
66 *2723:D *642:64 0.000361629
67 *2797:A *642:41 0
68 *2889:A *642:111 5.50106e-05
69 *2935:A *642:74 3.71251e-05
70 *50:8 *642:41 0
71 *82:8 *2445:S1 0
72 *82:8 *642:119 0
73 *146:10 *642:41 4.58924e-05
74 *219:14 *642:137 0.00010018
75 *222:10 *2337:A_N 5.67058e-05
76 *264:18 *642:33 0
77 *265:14 *642:99 1.22803e-05
78 *265:14 *642:101 9.64022e-05
79 *285:24 *642:33 0.000227691
80 *287:10 *642:33 0.000117244
81 *317:6 *2462:S1 0.000303974
82 *323:28 *642:37 6.79006e-05
83 *323:28 *642:41 0.000603976
84 *323:126 *2462:S1 9.67842e-05
85 *323:126 *642:74 7.81176e-05
86 *329:107 *642:54 0
87 *329:107 *642:64 0
88 *331:100 *642:33 0.000207565
89 *331:102 *2445:S1 0.000191148
90 *331:102 *642:119 0.000209739
91 *331:108 *642:119 5.94125e-05
92 *333:122 *642:111 6.343e-05
93 *338:117 *642:74 5.29058e-05
94 *338:123 *642:74 0.000319945
95 *341:103 *642:37 0
96 *341:103 *642:41 0
97 *341:105 *642:41 0
98 *345:128 *642:41 0
99 *347:158 *642:41 0
100 *361:97 *642:54 7.45491e-05
101 *361:101 *642:54 0.000100415
102 *363:10 *2394:B1 0.000102391
103 *363:10 *642:12 0.000194843
104 *363:10 *642:99 0
105 *371:10 *642:111 0.000187129
106 *443:10 *642:111 7.06771e-05
107 *464:6 *642:64 0.000136738
108 *464:27 *642:54 1.14452e-05
109 *464:27 *642:64 0.000150846
110 *475:23 *642:41 5.26101e-05
111 *483:16 *642:119 0.000210922
112 *509:10 *642:41 0
113 *538:10 *642:41 0
114 *551:38 *642:33 0.000260688
115 *633:18 *642:33 2.51171e-05
116 *639:43 *642:99 0
117 *640:14 *642:12 0
*RES
1 *2835:X *642:6 25.0507 
2 *642:6 *642:12 20.7896 
3 *642:12 *2394:B1 39.3775 
4 *642:12 *642:33 46.4905 
5 *642:33 *642:37 16.9057 
6 *642:37 *642:41 42.26 
7 *642:41 *2444:S1 23 
8 *642:37 *642:54 44.3136 
9 *642:54 *642:64 32.2136 
10 *642:64 *642:74 49.0129 
11 *642:74 *2462:S1 48.15 
12 *642:64 *2834:A 23 
13 *642:54 *2424:S1 38 
14 *642:6 *642:99 35.9214 
15 *642:99 *642:101 11.4136 
16 *642:101 *642:111 41.2243 
17 *642:111 *642:113 15 
18 *642:113 *642:119 32.8661 
19 *642:119 *2447:S1 23 
20 *642:113 *2445:S1 40.61 
21 *642:101 *642:137 27.5321 
22 *642:137 *2339:A 23 
23 *642:137 *2337:A_N 25.5271 
24 *642:99 *2404:A 38 
*END

*D_NET *643 0.0323265
*CONN
*I *2418:S1 I *D sky130_fd_sc_hd__mux4_1
*I *2459:S1 I *D sky130_fd_sc_hd__mux4_1
*I *2458:S1 I *D sky130_fd_sc_hd__mux4_1
*I *2420:S1 I *D sky130_fd_sc_hd__mux4_1
*I *2434:S1 I *D sky130_fd_sc_hd__mux4_1
*I *2464:S1 I *D sky130_fd_sc_hd__mux4_1
*I *2456:S1 I *D sky130_fd_sc_hd__mux4_1
*I *2432:S1 I *D sky130_fd_sc_hd__mux4_1
*I *2435:S1 I *D sky130_fd_sc_hd__mux4_1
*I *2433:S1 I *D sky130_fd_sc_hd__mux4_1
*I *2836:X O *D sky130_fd_sc_hd__clkbuf_4
*CAP
1 *2418:S1 3.1955e-05
2 *2459:S1 0
3 *2458:S1 0
4 *2420:S1 0
5 *2434:S1 0
6 *2464:S1 0
7 *2456:S1 0
8 *2432:S1 3.90717e-05
9 *2435:S1 0
10 *2433:S1 0
11 *2836:X 0
12 *643:178 0.000846262
13 *643:157 0.000950517
14 *643:155 0.00112671
15 *643:145 0.00153309
16 *643:126 0.00140357
17 *643:116 0.00177656
18 *643:100 0.000411476
19 *643:89 0.00101346
20 *643:66 0.000372679
21 *643:58 0.00178631
22 *643:49 0.000205608
23 *643:41 0.00175073
24 *643:39 0.00248233
25 *643:31 0.00223629
26 *643:23 0.00254014
27 *643:12 0.00067684
28 *643:4 0.001094
29 *643:12 *644:49 3.98818e-05
30 *643:12 *644:53 0.000119969
31 *643:23 *644:49 7.43025e-06
32 *643:39 *644:53 0.000391762
33 *643:41 *2435:S0 3.33463e-05
34 *643:41 *646:16 0.000101974
35 *643:89 *646:27 3.13404e-05
36 *643:89 *646:42 3.595e-05
37 *643:100 *651:114 0
38 *643:116 *677:87 0
39 *643:126 *670:78 0
40 *643:145 *2470:A1 1.32314e-05
41 *643:145 *2519:A1 4.04206e-05
42 *643:145 *666:28 0.000299187
43 *643:145 *667:38 8.62876e-05
44 *643:145 *667:51 5.50106e-05
45 *2418:A3 *643:126 0.000137442
46 *2433:A2 *643:12 1.83564e-05
47 *2435:A3 *643:49 3.70028e-05
48 *2456:A3 *643:89 0.000487443
49 *2458:A2 *643:157 8.16356e-05
50 *2458:A2 *643:178 6.07611e-06
51 *2496:A0 *643:155 0.000266271
52 *2496:S *643:155 1.38758e-05
53 *2606:S *643:178 9.28078e-06
54 *2643:CLK *643:31 3.85813e-05
55 *2643:D *643:31 0.000132007
56 *2823:A *643:116 0
57 *2854:A *643:39 0
58 *2874:A *643:41 0.000164518
59 *2875:A *643:126 0.000219882
60 *2905:A *643:89 0.000109374
61 *2942:A *643:89 0
62 *2950:A *643:89 0.000118526
63 *2997:A *643:155 0.000705535
64 *40:10 *643:31 3.70071e-06
65 *40:10 *643:116 0
66 *61:8 *643:100 0.000166522
67 *62:10 *643:126 0
68 *62:10 *643:145 0.000347205
69 *68:8 *643:178 0
70 *87:8 *643:23 0
71 *144:18 *2432:S1 3.42479e-05
72 *144:18 *643:66 2.53827e-05
73 *150:12 *643:116 3.72861e-05
74 *292:12 *2432:S1 5.11621e-05
75 *295:8 *643:41 6.6626e-06
76 *295:8 *643:49 2.92911e-06
77 *295:14 *643:39 0.000386158
78 *295:14 *643:41 0.00013059
79 *315:8 *643:178 0.000268868
80 *323:74 *643:145 5.76142e-05
81 *323:86 *643:145 6.37845e-05
82 *323:96 *643:145 2.18409e-05
83 *323:112 *643:157 0
84 *323:112 *643:178 0
85 *323:120 *643:100 0
86 *325:93 *643:39 0
87 *327:26 *643:145 5.3304e-05
88 *327:34 *643:126 0.000274553
89 *327:34 *643:145 0.000182854
90 *332:28 *643:145 6.46429e-05
91 *338:109 *643:12 0
92 *340:83 *643:89 0.00016401
93 *341:24 *643:126 5.3813e-05
94 *342:26 *643:178 0.000194
95 *342:30 *643:178 0
96 *342:36 *643:58 0.000505755
97 *342:36 *643:89 7.39034e-05
98 *342:42 *643:58 0.000274553
99 *345:72 *643:12 0
100 *345:72 *643:23 0
101 *345:72 *643:116 0
102 *356:107 *643:66 0.000270659
103 *358:10 *643:116 0.000369077
104 *359:55 *643:116 0
105 *359:55 *643:126 0
106 *359:66 *643:126 0
107 *359:82 *643:155 0.000180224
108 *359:84 *643:155 0.000356718
109 *359:94 *643:155 0.00014196
110 *361:32 *643:12 0.000110116
111 *361:50 *643:23 3.7122e-06
112 *377:27 *643:49 4.21533e-05
113 *391:10 *643:145 3.71611e-05
114 *393:10 *643:31 1.99696e-05
115 *399:14 *643:145 0.000138727
116 *414:14 *643:100 4.77164e-06
117 *415:18 *643:126 1.75192e-05
118 *447:8 *643:116 0
119 *455:25 *643:126 0.00012304
120 *463:25 *643:116 6.11099e-05
121 *465:18 *643:66 2.13226e-05
122 *473:20 *643:89 0.000194465
123 *485:14 *643:178 3.7122e-06
124 *527:8 *643:66 0
125 *607:18 *643:178 0.000305555
126 *611:16 *643:126 0.000165583
127 *626:43 *643:31 6.47135e-05
128 *633:139 *643:100 0
129 *634:176 *643:23 3.83778e-05
130 *634:176 *643:116 2.84912e-05
131 *639:124 *643:39 6.1139e-05
132 *639:143 *643:39 4.16764e-05
*RES
1 *2836:X *643:4 23 
2 *643:4 *643:12 41.745 
3 *643:12 *2433:S1 23 
4 *643:4 *643:23 22.4571 
5 *643:23 *643:31 32.3379 
6 *643:31 *643:39 47.545 
7 *643:39 *643:41 14.9143 
8 *643:41 *643:49 32.9 
9 *643:49 *2435:S1 23 
10 *643:41 *643:58 25.3571 
11 *643:58 *643:66 35.2614 
12 *643:66 *2432:S1 39.0979 
13 *643:58 *643:89 37.3921 
14 *643:89 *2456:S1 23 
15 *643:39 *643:100 37.8921 
16 *643:100 *2464:S1 23 
17 *643:31 *2434:S1 23 
18 *643:23 *643:116 15.7014 
19 *643:116 *643:126 18.5807 
20 *643:126 *2420:S1 38 
21 *643:126 *643:145 43.4643 
22 *643:145 *643:155 48.8914 
23 *643:155 *643:157 2.25786 
24 *643:157 *2458:S1 38 
25 *643:157 *643:178 39.6769 
26 *643:178 *2459:S1 23 
27 *643:116 *2418:S1 38.6214 
*END

*D_NET *644 0.0291817
*CONN
*I *2427:S1 I *D sky130_fd_sc_hd__mux4_1
*I *2421:S1 I *D sky130_fd_sc_hd__mux4_1
*I *2419:S1 I *D sky130_fd_sc_hd__mux4_1
*I *2428:S1 I *D sky130_fd_sc_hd__mux4_1
*I *2836:A I *D sky130_fd_sc_hd__clkbuf_4
*I *2457:S1 I *D sky130_fd_sc_hd__mux4_1
*I *2395:B I *D sky130_fd_sc_hd__and3_1
*I *2837:X O *D sky130_fd_sc_hd__buf_2
*CAP
1 *2427:S1 0.000320125
2 *2421:S1 0
3 *2419:S1 0
4 *2428:S1 0
5 *2836:A 0
6 *2457:S1 0
7 *2395:B 0.000357872
8 *2837:X 0
9 *644:101 7.42511e-05
10 *644:95 0.00086945
11 *644:82 0.00148578
12 *644:59 0.00129635
13 *644:53 0.00231674
14 *644:49 0.00207844
15 *644:37 0.00114582
16 *644:35 0.00190146
17 *644:27 0.00148563
18 *644:23 0.00189102
19 *644:6 0.0022065
20 *2395:B *2835:A 1.59094e-05
21 *2395:B *648:53 0.000117254
22 *2395:B *648:70 0.000434012
23 *644:23 *2764:RESET_B 0
24 *644:23 *2765:CLK 4.66047e-05
25 *644:23 *2765:D 0.000228909
26 *644:23 *648:70 0.00030246
27 *644:23 *648:74 5.27859e-05
28 *644:23 *669:100 0.000136851
29 *644:23 *672:40 0
30 *644:23 *721:8 0
31 *644:59 *646:54 0
32 *644:59 *646:61 0
33 *644:59 *654:20 0
34 *644:82 *664:54 6.08032e-05
35 *644:95 *648:138 0.000114432
36 *2395:C *2395:B 0.000115013
37 *2398:B *2395:B 0
38 *2422:S0 *644:95 0.000296365
39 *2429:S *644:23 0.000301021
40 *2634:D *644:35 1.74843e-05
41 *2666:D *644:49 0.000191382
42 *2681:D *644:95 3.47095e-05
43 *2879:A *644:53 0.00010018
44 *2879:A *644:59 0.000563587
45 *2898:A *644:82 0.000561356
46 *84:8 *644:59 0.000160582
47 *160:10 *644:59 0
48 *264:20 *644:82 0
49 *264:20 *644:101 6.6869e-05
50 *268:21 *2395:B 0
51 *269:25 *2395:B 3.66742e-05
52 *269:25 *644:23 4.66699e-05
53 *284:12 *644:101 4.48568e-05
54 *288:10 *2427:S1 0.000391621
55 *288:10 *644:27 8.62783e-05
56 *295:14 *644:53 0.000355026
57 *313:10 *644:59 3.71369e-05
58 *323:112 *644:59 0
59 *323:114 *644:59 0
60 *323:120 *644:59 0
61 *325:34 *2427:S1 3.81486e-05
62 *333:98 *644:23 9.87385e-06
63 *334:12 *644:95 0.000442883
64 *334:16 *644:82 0.00127812
65 *334:16 *644:95 0.000897064
66 *338:18 *2427:S1 0.000275473
67 *338:18 *644:27 8.4047e-05
68 *339:110 *644:59 5.41385e-05
69 *350:64 *644:95 2.96549e-05
70 *359:29 *644:59 0
71 *361:50 *644:49 9.84851e-05
72 *361:90 *644:35 2.64616e-05
73 *376:6 *644:49 0.000264559
74 *376:27 *644:49 0.000286287
75 *400:8 *644:35 8.16643e-05
76 *408:14 *2427:S1 2.50451e-05
77 *409:8 *644:59 0.000216051
78 *417:12 *644:59 0
79 *480:16 *644:49 8.50067e-05
80 *488:20 *644:49 6.30416e-05
81 *488:35 *644:35 0.000313255
82 *603:8 *644:59 0.00010404
83 *633:139 *644:59 0
84 *637:30 *644:82 0.000800832
85 *637:30 *644:95 0.000802223
86 *639:43 *2395:B 0
87 *643:12 *644:49 3.98818e-05
88 *643:12 *644:53 0.000119969
89 *643:23 *644:49 7.43025e-06
90 *643:39 *644:53 0.000391762
*RES
1 *2837:X *644:6 38 
2 *644:6 *2395:B 46.1614 
3 *644:6 *644:23 42.84 
4 *644:23 *644:27 16.2014 
5 *644:27 *644:35 31.7371 
6 *644:35 *644:37 2.05071 
7 *644:37 *644:49 21.46 
8 *644:49 *644:53 37.0607 
9 *644:53 *644:59 41.5971 
10 *644:59 *2457:S1 23 
11 *644:49 *2836:A 23 
12 *644:37 *2428:S1 23 
13 *644:35 *644:82 37.6614 
14 *644:82 *2419:S1 38 
15 *644:82 *644:95 37.0607 
16 *644:95 *644:101 31.9057 
17 *644:101 *2421:S1 23 
18 *644:27 *2427:S1 46.0993 
*END

*D_NET *645 0.0305293
*CONN
*I *2440:S0 I *D sky130_fd_sc_hd__mux4_1
*I *2438:S0 I *D sky130_fd_sc_hd__mux4_1
*I *2441:S0 I *D sky130_fd_sc_hd__mux4_1
*I *2451:S0 I *D sky130_fd_sc_hd__mux4_1
*I *2453:S0 I *D sky130_fd_sc_hd__mux4_1
*I *2463:S0 I *D sky130_fd_sc_hd__mux4_1
*I *2462:S0 I *D sky130_fd_sc_hd__mux4_1
*I *2465:S0 I *D sky130_fd_sc_hd__mux4_1
*I *2452:S0 I *D sky130_fd_sc_hd__mux4_1
*I *2450:S0 I *D sky130_fd_sc_hd__mux4_1
*I *2838:X O *D sky130_fd_sc_hd__buf_4
*CAP
1 *2440:S0 0
2 *2438:S0 4.09304e-05
3 *2441:S0 0
4 *2451:S0 2.99334e-05
5 *2453:S0 0
6 *2463:S0 0.000166287
7 *2462:S0 0
8 *2465:S0 0.000364938
9 *2452:S0 0
10 *2450:S0 0
11 *2838:X 2.16038e-05
12 *645:175 0.000582796
13 *645:162 0.00104156
14 *645:151 0.00118196
15 *645:145 0.00170509
16 *645:127 0.00109475
17 *645:121 0.00176826
18 *645:101 0.000150302
19 *645:95 0.00051979
20 *645:87 0.000741325
21 *645:72 0.0014095
22 *645:68 0.00141977
23 *645:55 0.000669703
24 *645:48 0.000864281
25 *645:30 0.000953222
26 *645:28 0.00037267
27 *645:18 0.00183253
28 *645:16 0.00138648
29 *645:6 0.00069711
30 *645:16 *661:10 8.35925e-05
31 *645:16 *661:47 2.24048e-05
32 *645:16 *678:40 6.72178e-06
33 *645:48 *2597:A1 5.90326e-05
34 *645:48 *655:75 0.000122226
35 *645:72 *2581:A0 8.22986e-05
36 *645:87 *651:59 0.000144494
37 *645:95 *651:44 4.90799e-05
38 *645:121 *656:44 0
39 *645:121 *669:56 0
40 *645:145 *650:42 0.000181131
41 *645:151 *650:42 0
42 *645:162 *650:32 0
43 *645:175 *650:32 0.000566282
44 *2442:A0 *645:145 5.50106e-05
45 *2452:A3 *645:55 3.28876e-05
46 *2452:A3 *645:68 2.11827e-05
47 *2453:A3 *645:127 5.3304e-05
48 *2454:A2 *645:18 3.31446e-06
49 *2454:A2 *645:28 9.68428e-05
50 *2455:S *645:16 0
51 *2463:A3 *2463:S0 3.3123e-05
52 *2465:A1 *2465:S0 5.56356e-05
53 *2513:S *645:151 0
54 *2581:A1 *645:72 0.00014196
55 *2581:S *645:72 5.3304e-05
56 *2616:A0 *645:87 1.34914e-05
57 *2720:CLK *645:87 3.7122e-06
58 *2729:D *645:95 0.000100061
59 *2813:A *645:72 0.00042603
60 *2880:A *645:48 9.8139e-05
61 *2880:A *645:55 5.6652e-05
62 *2883:A *2463:S0 8.57661e-05
63 *2883:A *645:68 7.91493e-05
64 *2891:A *645:151 0
65 *2968:A *645:127 2.93845e-05
66 *2984:A *645:151 0
67 *3001:A *645:28 0.000306344
68 *65:8 *645:175 1.12487e-05
69 *83:8 *645:127 0
70 *99:10 *645:121 5.36457e-05
71 *99:10 *645:127 7.62842e-05
72 *121:10 *645:16 1.01436e-05
73 *141:10 *645:72 3.87132e-05
74 *298:12 *645:151 0.000299816
75 *298:12 *645:162 8.30566e-06
76 *300:14 *645:145 9.5877e-05
77 *300:14 *645:151 0
78 *307:16 *645:48 0.000405486
79 *309:10 *645:121 6.48049e-05
80 *310:28 *645:48 0.000137651
81 *320:26 *2463:S0 1.02387e-05
82 *325:97 *2463:S0 0.000134677
83 *325:97 *645:68 9.95299e-05
84 *331:131 *645:151 0
85 *332:92 *645:127 0.00117281
86 *333:64 *645:175 0.000166513
87 *334:121 *2465:S0 7.40972e-05
88 *337:30 *645:162 0.000112813
89 *337:30 *645:175 0
90 *337:42 *645:162 5.74556e-05
91 *339:40 *645:72 0.000178517
92 *339:44 *645:48 0.00021263
93 *339:44 *645:55 0.000209739
94 *339:44 *645:68 0.000645624
95 *339:69 *2451:S0 3.5638e-05
96 *340:131 *645:87 0.000327903
97 *342:42 *645:87 2.31687e-05
98 *342:42 *645:95 0.000620108
99 *342:42 *645:101 4.77263e-05
100 *342:101 *645:151 5.0135e-05
101 *353:6 *2465:S0 9.64943e-05
102 *353:6 *645:72 5.3304e-05
103 *353:22 *645:87 3.47781e-05
104 *353:80 *645:87 0.000209739
105 *353:95 *645:87 8.02348e-05
106 *354:32 *645:121 0
107 *354:40 *645:127 0
108 *354:42 *645:127 0
109 *386:14 *645:151 0
110 *428:10 *645:127 0
111 *434:16 *645:151 0
112 *436:22 *645:121 0
113 *442:12 *645:151 0.000348465
114 *442:25 *645:151 0
115 *444:14 *645:127 0
116 *462:12 *645:95 0.000182081
117 *462:12 *645:101 0
118 *510:8 *645:95 3.95187e-05
119 *548:16 *645:127 0.000267173
120 *573:18 *645:16 8.7327e-05
121 *633:50 *645:28 0.000306344
122 *637:104 *645:28 0.000108681
123 *637:104 *645:121 0
124 *639:101 *645:16 0.000204457
125 *639:101 *645:145 5.95278e-05
126 *639:105 *645:16 0.000178681
127 *639:105 *645:18 0.000386085
128 *639:109 *645:121 3.31127e-05
129 *641:42 *645:28 0.000110913
130 *641:42 *645:121 0
131 *641:50 *645:127 0
132 *641:73 *645:48 0.000283731
133 *641:127 *645:68 0
*RES
1 *2838:X *645:6 23.4971 
2 *645:6 *645:16 39.6943 
3 *645:16 *645:18 12.0557 
4 *645:18 *645:28 38.0371 
5 *645:28 *645:30 15 
6 *645:30 *645:48 35.7557 
7 *645:48 *2450:S0 23 
8 *645:30 *645:55 2.96214 
9 *645:55 *2452:S0 38 
10 *645:55 *645:68 13.1329 
11 *645:68 *645:72 28.485 
12 *645:72 *2465:S0 28.8621 
13 *645:72 *645:87 37.8507 
14 *645:87 *645:95 40.295 
15 *645:95 *645:101 32.61 
16 *645:101 *2462:S0 23 
17 *645:68 *2463:S0 42.2879 
18 *645:18 *645:121 27.47 
19 *645:121 *645:127 39.2357 
20 *645:127 *2453:S0 23 
21 *645:121 *2451:S0 38.6214 
22 *645:6 *645:145 18.0036 
23 *645:145 *645:151 37.9514 
24 *645:151 *2441:S0 23 
25 *645:145 *645:162 21.8771 
26 *645:162 *2438:S0 23.6214 
27 *645:162 *645:175 44.935 
28 *645:175 *2440:S0 23 
*END

*D_NET *646 0.030155
*CONN
*I *2464:S0 I *D sky130_fd_sc_hd__mux4_1
*I *2458:S0 I *D sky130_fd_sc_hd__mux4_1
*I *2459:S0 I *D sky130_fd_sc_hd__mux4_1
*I *2456:S0 I *D sky130_fd_sc_hd__mux4_1
*I *2420:S0 I *D sky130_fd_sc_hd__mux4_1
*I *2418:S0 I *D sky130_fd_sc_hd__mux4_1
*I *2457:S0 I *D sky130_fd_sc_hd__mux4_1
*I *2434:S0 I *D sky130_fd_sc_hd__mux4_1
*I *2432:S0 I *D sky130_fd_sc_hd__mux4_1
*I *2435:S0 I *D sky130_fd_sc_hd__mux4_1
*I *2839:X O *D sky130_fd_sc_hd__buf_4
*CAP
1 *2464:S0 3.14462e-05
2 *2458:S0 0
3 *2459:S0 0.000166808
4 *2456:S0 0
5 *2420:S0 0
6 *2418:S0 0.000279397
7 *2457:S0 3.64199e-05
8 *2434:S0 0
9 *2432:S0 5.29481e-05
10 *2435:S0 3.8751e-05
11 *2839:X 0
12 *646:189 0.000805948
13 *646:172 0.000101835
14 *646:166 0.00132959
15 *646:141 0.0019505
16 *646:132 0.000265164
17 *646:120 0.00130518
18 *646:103 0.000396611
19 *646:82 0.00186158
20 *646:61 0.0014156
21 *646:54 0.000655333
22 *646:48 0.00205544
23 *646:42 0.00217497
24 *646:27 0.00108279
25 *646:16 0.00116711
26 *646:6 0.0013574
27 *2418:S0 *670:78 3.47781e-05
28 *2418:S0 *677:87 0.000234604
29 *646:16 *650:84 1.02387e-05
30 *646:16 *652:22 0.000110913
31 *646:42 *653:81 8.4047e-05
32 *646:48 *654:32 7.8132e-05
33 *646:61 *654:20 0.000164291
34 *646:82 *654:20 8.24662e-05
35 *646:82 *670:74 9.41704e-05
36 *646:82 *700:10 2.92911e-06
37 *646:103 *670:78 0.00101822
38 *646:103 *677:87 0.000173264
39 *646:103 *689:8 0.000160884
40 *646:120 *653:71 0.00021289
41 *646:120 *653:81 0.000342657
42 *646:166 *653:105 1.98161e-05
43 *646:166 *653:112 0.000332286
44 *646:166 *653:127 1.22822e-05
45 *646:172 *654:105 0
46 *646:189 *652:22 0.000124498
47 *2434:A1 *646:54 1.01436e-05
48 *2434:A2 *646:54 5.50049e-05
49 *2456:A2 *646:120 1.42239e-05
50 *2459:A3 *646:141 0.000268231
51 *2476:A0 *646:166 2.68539e-05
52 *2615:S *646:166 5.3304e-05
53 *2640:CLK *646:16 0.000125894
54 *2647:D *646:166 5.6508e-05
55 *2648:CLK *646:189 0.000100415
56 *2648:D *646:189 0.000126536
57 *2689:D *646:82 0.000100782
58 *2711:D *646:48 0.000228603
59 *2854:A *646:54 0.000484291
60 *2874:A *646:16 0.000308039
61 *2893:A *646:141 0.000139647
62 *2915:A *646:82 7.73389e-05
63 *2942:A *646:42 0.000135884
64 *2942:A *646:120 0.000107367
65 *28:17 *2464:S0 1.05235e-05
66 *68:8 *646:172 0.000133316
67 *84:8 *646:54 0
68 *100:8 *646:48 0.000447926
69 *108:18 *2459:S0 6.86315e-06
70 *150:12 *2418:S0 4.29736e-05
71 *152:8 *646:27 0.000240873
72 *152:8 *646:42 0.000109352
73 *165:12 *646:16 4.85126e-05
74 *165:12 *646:189 0.000193099
75 *292:12 *2432:S0 0.000142173
76 *295:8 *2435:S0 0.000144494
77 *295:8 *646:16 0.000162129
78 *295:14 *646:16 0.000481931
79 *316:14 *646:103 0.000578476
80 *319:8 *2464:S0 5.3304e-05
81 *319:14 *646:189 3.83778e-05
82 *323:96 *646:166 3.7122e-06
83 *323:102 *646:166 9.74722e-05
84 *323:112 *646:166 5.50049e-05
85 *323:120 *646:16 0
86 *325:81 *646:54 0
87 *325:81 *646:61 0
88 *325:81 *646:82 0
89 *325:97 *646:189 0.000108681
90 *332:42 *646:166 2.97422e-05
91 *334:66 *646:16 0
92 *337:95 *646:54 8.61094e-06
93 *339:110 *2457:S0 3.27248e-05
94 *339:110 *646:82 9.00587e-05
95 *340:100 *646:27 9.1467e-05
96 *340:100 *646:42 0.000300018
97 *340:110 *646:27 0.000282567
98 *341:59 *646:16 0
99 *342:30 *646:42 0
100 *342:36 *2432:S0 3.04284e-05
101 *356:24 *646:16 8.92841e-05
102 *357:12 *646:48 6.17902e-05
103 *357:24 *646:48 1.69296e-05
104 *373:8 *646:61 6.33511e-05
105 *373:8 *646:82 1.83667e-05
106 *373:12 *646:82 5.41385e-05
107 *417:12 *646:54 0.000345295
108 *417:25 *646:54 1.05235e-05
109 *453:12 *646:132 3.36312e-06
110 *455:12 *646:82 9.5877e-05
111 *455:25 *646:82 8.264e-05
112 *461:25 *646:120 0.000233139
113 *471:8 *646:82 1.61361e-05
114 *485:14 *646:141 4.75804e-05
115 *485:14 *646:166 3.30257e-05
116 *485:29 *646:166 0.000225613
117 *500:10 *646:54 4.73987e-05
118 *504:10 *646:120 0.000225265
119 *504:10 *646:132 0
120 *524:8 *646:54 7.461e-05
121 *643:41 *2435:S0 3.33463e-05
122 *643:41 *646:16 0.000101974
123 *643:89 *646:27 3.13404e-05
124 *643:89 *646:42 3.595e-05
125 *644:59 *646:54 0
126 *644:59 *646:61 0
*RES
1 *2839:X *646:6 38 
2 *646:6 *646:16 31.1779 
3 *646:16 *2435:S0 24.5743 
4 *646:16 *646:27 26.4136 
5 *646:27 *2432:S0 39.5743 
6 *646:27 *646:42 10.7714 
7 *646:42 *646:48 46.82 
8 *646:48 *646:54 29.5 
9 *646:54 *2434:S0 23 
10 *646:48 *646:61 3.66643 
11 *646:61 *2457:S0 38.6214 
12 *646:61 *646:82 48.1871 
13 *646:82 *2418:S0 43.3236 
14 *646:82 *646:103 28.8786 
15 *646:103 *2420:S0 23 
16 *646:42 *646:120 41.7864 
17 *646:120 *646:132 32.3938 
18 *646:132 *2456:S0 23 
19 *646:120 *646:141 11.5068 
20 *646:141 *2459:S0 39.8954 
21 *646:141 *646:166 35.7868 
22 *646:166 *646:172 31.9057 
23 *646:172 *2458:S0 23 
24 *646:6 *646:189 43.0293 
25 *646:189 *2464:S0 38.6214 
*END

*D_NET *647 0.0250173
*CONN
*I *2392:A I *D sky130_fd_sc_hd__and2_1
*I *2340:A1 I *D sky130_fd_sc_hd__a21oi_1
*I *2445:S0 I *D sky130_fd_sc_hd__mux4_1
*I *2424:S0 I *D sky130_fd_sc_hd__mux4_1
*I *2394:A1 I *D sky130_fd_sc_hd__a21oi_1
*I *2425:S0 I *D sky130_fd_sc_hd__mux4_1
*I *2446:S0 I *D sky130_fd_sc_hd__mux4_1
*I *2444:S0 I *D sky130_fd_sc_hd__mux4_1
*I *2447:S0 I *D sky130_fd_sc_hd__mux4_1
*I *2391:A I *D sky130_fd_sc_hd__nor2_1
*I *2840:X O *D sky130_fd_sc_hd__clkbuf_4
*CAP
1 *2392:A 0
2 *2340:A1 0.000681361
3 *2445:S0 0
4 *2424:S0 0
5 *2394:A1 0
6 *2425:S0 2.09288e-05
7 *2446:S0 0
8 *2444:S0 0.000346886
9 *2447:S0 0
10 *2391:A 0
11 *2840:X 0
12 *647:133 0.000380545
13 *647:122 0.00077742
14 *647:101 0.000817437
15 *647:89 0.00166702
16 *647:78 0.000965183
17 *647:67 0.00135336
18 *647:45 0.00123748
19 *647:41 0.00209195
20 *647:35 0.001556
21 *647:29 0.00201697
22 *647:27 0.00227893
23 *647:21 0.000711839
24 *647:12 0.000351197
25 *647:4 0.000534757
26 *2425:S0 *705:20 5.50106e-05
27 *2444:S0 *658:10 0
28 *647:12 *668:26 2.49836e-05
29 *647:12 *709:10 9.58714e-05
30 *647:21 *2840:A 1.21972e-05
31 *647:27 *2621:RESET_B 1.02387e-05
32 *647:27 *648:16 0.000354778
33 *647:27 *704:8 0
34 *647:27 *753:16 0
35 *647:45 *2596:A1 0
36 *647:67 *658:51 0
37 *647:78 *691:10 0
38 *647:78 *705:33 0
39 *647:101 *669:87 6.97747e-05
40 *647:122 *2566:A1 5.58473e-05
41 *647:122 *685:10 0.000261951
42 *647:133 *669:34 0
43 *2392:B *647:12 0.000342591
44 *2392:B *647:21 0.000191335
45 *2446:A0 *647:67 0
46 *2446:A2 *647:78 4.51974e-05
47 *2484:S *647:78 0.0002459
48 *2886:A *647:133 0.000398673
49 *2952:A *647:45 0
50 *2956:A *647:133 0
51 *2958:A *647:122 4.21281e-05
52 *2961:A *647:78 0.000104976
53 *2964:A *647:67 0
54 *2985:A *647:45 0.000192087
55 *127:8 *647:122 0.000574845
56 *130:8 *647:45 0
57 *138:12 *647:45 0.000165583
58 *221:18 *2340:A1 2.30292e-05
59 *285:6 *647:122 0.000604791
60 *286:6 *2425:S0 1.39431e-05
61 *303:14 *647:35 3.83778e-05
62 *303:14 *647:67 4.08641e-05
63 *305:12 *647:35 4.08537e-05
64 *305:12 *647:67 2.24973e-05
65 *325:34 *647:78 7.98259e-05
66 *325:34 *647:89 4.98718e-06
67 *327:103 *647:89 0
68 *327:103 *647:122 0
69 *327:118 *647:12 0
70 *333:108 *647:133 0.000275692
71 *338:22 *647:122 4.2573e-05
72 *338:26 *647:122 0.000262864
73 *338:38 *647:45 0.000122304
74 *339:140 *647:67 0
75 *339:140 *647:78 0
76 *341:105 *2444:S0 0
77 *347:47 *647:45 0
78 *347:49 *647:45 0
79 *347:55 *647:45 0
80 *368:14 *647:78 0
81 *368:14 *647:89 0
82 *371:10 *647:133 0
83 *403:18 *647:78 0
84 *419:16 *647:78 8.12337e-05
85 *432:6 *647:122 4.5051e-05
86 *440:27 *647:89 5.10276e-05
87 *440:27 *647:122 1.40281e-05
88 *443:10 *647:133 1.01436e-05
89 *451:14 *2444:S0 5.50049e-05
90 *491:10 *647:45 1.01436e-05
91 *541:6 *647:41 5.50106e-05
92 *551:26 *647:101 9.41704e-05
93 *551:38 *647:101 0.0004981
94 *617:10 *647:67 9.32613e-05
95 *634:52 *647:101 7.20154e-05
96 *634:74 *2444:S0 1.39317e-05
97 *634:136 *647:12 5.50106e-05
98 *634:146 *647:12 0.000192077
99 *637:60 *647:67 0
100 *637:60 *647:78 0
101 *637:86 *647:41 0.000570742
102 *639:67 *647:29 4.5051e-05
103 *639:67 *647:35 0.000387304
104 *639:67 *647:133 3.0647e-05
105 *642:33 *647:101 3.75236e-05
106 *642:101 *647:27 0
107 *642:111 *647:27 0
*RES
1 *2840:X *647:4 23 
2 *647:4 *647:12 37.7471 
3 *647:12 *2391:A 23 
4 *647:4 *647:21 3.50071 
5 *647:21 *647:27 40.3571 
6 *647:27 *647:29 13.9614 
7 *647:29 *647:35 23.9693 
8 *647:35 *647:41 37.2914 
9 *647:41 *647:45 36.6257 
10 *647:45 *2447:S0 23 
11 *647:41 *2444:S0 43.1786 
12 *647:35 *647:67 8.94857 
13 *647:67 *2446:S0 38 
14 *647:67 *647:78 18.1457 
15 *647:78 *2425:S0 38.6214 
16 *647:78 *647:89 1.72964 
17 *647:89 *647:101 35.1541 
18 *647:101 *2394:A1 23 
19 *647:89 *647:122 34.9789 
20 *647:122 *2424:S0 23 
21 *647:29 *647:133 39.3007 
22 *647:133 *2445:S0 23 
23 *647:27 *2340:A1 32.1971 
24 *647:21 *2392:A 23 
*END

*D_NET *648 0.0301637
*CONN
*I *2427:S0 I *D sky130_fd_sc_hd__mux4_1
*I *2421:S0 I *D sky130_fd_sc_hd__mux4_1
*I *2419:S0 I *D sky130_fd_sc_hd__mux4_1
*I *2428:S0 I *D sky130_fd_sc_hd__mux4_1
*I *2395:A I *D sky130_fd_sc_hd__and3_1
*I *2840:A I *D sky130_fd_sc_hd__clkbuf_4
*I *2356:A I *D sky130_fd_sc_hd__and3_1
*I *2359:A I *D sky130_fd_sc_hd__xor2_1
*I *2841:X O *D sky130_fd_sc_hd__clkbuf_4
*CAP
1 *2427:S0 0.000158537
2 *2421:S0 0
3 *2419:S0 0
4 *2428:S0 0
5 *2395:A 0
6 *2840:A 0.00013244
7 *2356:A 6.8088e-05
8 *2359:A 0
9 *2841:X 0
10 *648:138 0.00071214
11 *648:127 0.00026487
12 *648:117 0.0012723
13 *648:111 0.00137013
14 *648:98 0.000515496
15 *648:86 0.0018996
16 *648:78 0.000524265
17 *648:74 0.00168472
18 *648:70 0.00210039
19 *648:53 0.00149506
20 *648:20 0.000431965
21 *648:16 0.00132505
22 *648:8 0.00123752
23 *648:6 0.00116682
24 *648:8 *673:58 0.000233462
25 *648:8 *704:8 0
26 *648:8 *719:10 0
27 *648:16 *2621:RESET_B 5.20202e-05
28 *648:16 *673:58 0.000302339
29 *648:16 *704:8 0
30 *648:16 *753:16 5.41385e-05
31 *648:53 *2405:B 0
32 *648:53 *2774:RESET_B 0.000124493
33 *648:53 *2837:A 2.68751e-05
34 *648:53 *673:58 0.000182873
35 *648:53 *673:74 0.000139657
36 *648:53 *679:10 0.000114074
37 *648:53 *705:12 0.000219882
38 *648:53 *705:40 0.000283642
39 *648:53 *719:10 0
40 *648:53 *753:10 0
41 *648:53 *753:16 0
42 *648:70 *2837:A 0.00039141
43 *648:70 *672:40 0
44 *648:70 *707:23 9.58714e-05
45 *648:70 *721:8 0
46 *648:74 *2765:CLK 7.06229e-05
47 *648:74 *2765:D 3.98818e-05
48 *648:74 *669:100 9.13962e-05
49 *648:111 *666:106 3.14055e-05
50 *2340:B1 *2356:A 0
51 *2356:C *2356:A 0.000128401
52 *2392:B *2840:A 0.000307335
53 *2393:B *2840:A 0.000230604
54 *2395:B *648:53 0.000117254
55 *2395:B *648:70 0.000434012
56 *2395:C *648:53 4.85126e-05
57 *2419:A1 *648:127 1.59094e-05
58 *2422:S0 *648:138 0.000286221
59 *2429:S *648:74 0.000144067
60 *2449:A0 *648:16 2.86712e-05
61 *2657:CLK *648:117 1.24376e-05
62 *2657:D *648:117 5.53001e-05
63 *2998:A *648:138 0.000105165
64 *78:10 *648:111 0.000156945
65 *94:10 *648:111 0.000364866
66 *102:8 *648:138 9.53499e-05
67 *221:12 *648:20 0
68 *222:10 *648:20 8.26569e-05
69 *223:10 *2356:A 9.90162e-05
70 *223:10 *648:20 0
71 *225:10 *648:20 0
72 *242:12 *2356:A 5.67058e-05
73 *264:20 *648:98 0.000110479
74 *264:20 *648:127 0.000205014
75 *264:20 *648:138 0
76 *269:25 *648:70 6.07611e-06
77 *281:14 *648:111 8.63907e-05
78 *289:12 *648:86 0.00112625
79 *290:10 *648:78 4.6318e-06
80 *325:34 *2427:S0 0.000345286
81 *325:34 *648:78 0.000115013
82 *331:27 *648:127 2.93747e-05
83 *333:12 *648:111 0
84 *333:24 *648:117 9.30422e-06
85 *333:24 *648:127 8.07209e-05
86 *333:46 *2427:S0 0.000159262
87 *333:46 *648:78 3.31127e-05
88 *333:54 *648:78 0
89 *333:54 *648:86 1.76557e-05
90 *333:98 *648:74 0.000729974
91 *333:98 *648:86 3.71251e-05
92 *334:12 *648:138 4.9844e-05
93 *336:10 *648:127 9.44151e-05
94 *337:22 *648:127 0.000175903
95 *340:10 *648:111 7.30696e-05
96 *340:16 *648:111 0.000692019
97 *345:152 *648:78 0
98 *349:16 *648:111 0
99 *361:12 *648:98 0.000347205
100 *361:75 *648:86 1.14154e-05
101 *361:75 *648:98 5.50106e-05
102 *361:90 *648:86 0.00105848
103 *384:10 *648:98 4.77461e-05
104 *480:31 *648:98 0.0002013
105 *488:20 *648:98 0
106 *517:10 *648:111 0.000100179
107 *629:21 *648:16 0.000217374
108 *634:36 *648:53 8.68903e-05
109 *637:26 *648:111 0.000827596
110 *637:30 *648:138 0.000610081
111 *639:43 *648:53 0
112 *644:23 *648:70 0.00030246
113 *644:23 *648:74 5.27859e-05
114 *644:95 *648:138 0.000114432
115 *647:21 *2840:A 1.21972e-05
116 *647:27 *648:16 0.000354778
*RES
1 *2841:X *648:6 38 
2 *648:6 *648:8 3.31429 
3 *648:8 *648:16 47.4829 
4 *648:16 *648:20 21.4836 
5 *648:20 *2359:A 23 
6 *648:20 *2356:A 26.0243 
7 *648:8 *2840:A 42.5986 
8 *648:6 *648:53 21.7086 
9 *648:53 *2395:A 38 
10 *648:53 *648:70 41.2479 
11 *648:70 *648:74 38.0136 
12 *648:74 *648:78 16.5536 
13 *648:78 *648:86 29.1271 
14 *648:86 *648:98 39.3421 
15 *648:98 *2428:S0 23 
16 *648:86 *648:111 42.7157 
17 *648:111 *648:117 18.8529 
18 *648:117 *648:127 36.1107 
19 *648:127 *2419:S0 23 
20 *648:117 *648:138 47.4 
21 *648:138 *2421:S0 23 
22 *648:78 *2427:S0 42.7229 
*END

*D_NET *649 0.00145708
*CONN
*I *2349:A_N I *D sky130_fd_sc_hd__and3b_1
*I *2350:B1_N I *D sky130_fd_sc_hd__a21bo_1
*I *3019:X O *D sky130_fd_sc_hd__clkbuf_1
*CAP
1 *2349:A_N 0
2 *2350:B1_N 0.000147979
3 *3019:X 0.00021336
4 *649:14 0.000193275
5 *649:10 0.000258656
6 *649:10 *678:10 0
7 rd_data[4] *649:10 0
8 *2349:B *2350:B1_N 3.17516e-05
9 *2349:C *2350:B1_N 0.000141954
10 *3:8 *649:10 0.000141879
11 *8:13 *649:10 7.40553e-05
12 *232:12 *2350:B1_N 5.67058e-05
13 *620:10 *649:10 0.00019747
*RES
1 *3019:X *649:10 43.3443 
2 *649:10 *649:14 15.6214 
3 *649:14 *2350:B1_N 26.48 
4 *649:14 *2349:A_N 23 
*END

*D_NET *650 0.0237369
*CONN
*I *2841:A I *D sky130_fd_sc_hd__clkbuf_4
*I *2433:S0 I *D sky130_fd_sc_hd__mux4_1
*I *2839:A I *D sky130_fd_sc_hd__buf_4
*I *2838:A I *D sky130_fd_sc_hd__buf_4
*I *2439:S0 I *D sky130_fd_sc_hd__mux4_1
*I *2842:X O *D sky130_fd_sc_hd__clkbuf_2
*CAP
1 *2841:A 0
2 *2433:S0 0
3 *2839:A 0
4 *2838:A 0
5 *2439:S0 0
6 *2842:X 0.000119957
7 *650:84 0.000927906
8 *650:76 0.00164589
9 *650:66 0.00183655
10 *650:42 0.000962918
11 *650:32 0.00182802
12 *650:30 0.002026
13 *650:24 0.00229434
14 *650:22 0.00225201
15 *650:20 0.000920604
16 *650:6 0.00104056
17 *650:6 *669:28 0.000225393
18 *650:20 *669:28 0.000292459
19 *650:20 *669:34 9.68547e-05
20 *650:66 *2530:A1 0.000221992
21 *650:66 *692:8 5.45887e-05
22 *650:76 *663:69 0
23 *2404:B *650:20 2.32101e-05
24 *2433:A2 *650:76 6.27899e-05
25 *2440:A0 *650:24 0.000103637
26 *2640:CLK *650:84 6.17437e-06
27 *2640:D *650:84 0.000191382
28 *2715:D *650:76 1.74843e-05
29 *2892:A *650:24 2.64616e-05
30 *2961:A *650:24 0.00026064
31 *2975:A *650:32 0.000400886
32 *2992:A *650:42 2.95125e-05
33 *3000:A *650:66 8.9035e-05
34 *80:10 *650:76 9.03784e-05
35 *96:8 *650:66 5.21127e-05
36 *165:12 *650:84 0.000140949
37 *265:6 *650:20 2.02872e-05
38 *293:8 *650:76 3.70071e-06
39 *293:8 *650:84 1.14762e-05
40 *298:12 *650:42 2.2119e-05
41 *299:8 *650:24 5.88828e-05
42 *300:14 *650:42 5.80693e-05
43 *323:120 *650:84 8.16253e-05
44 *331:102 *650:20 0.000512078
45 *333:64 *650:30 2.05368e-05
46 *333:64 *650:32 6.02277e-06
47 *333:64 *650:66 0.000498051
48 *333:108 *650:20 1.52259e-05
49 *342:77 *650:42 0.000119751
50 *348:36 *650:20 0.000349818
51 *358:34 *650:76 8.90608e-05
52 *358:34 *650:84 0.00022109
53 *369:14 *650:66 5.50049e-05
54 *369:14 *650:76 0
55 *394:27 *650:24 0.000195293
56 *406:8 *650:84 9.36953e-05
57 *418:10 *650:32 9.26005e-05
58 *419:16 *650:20 0.000267167
59 *434:16 *650:42 0
60 *441:10 *650:84 0.000351513
61 *441:31 *650:66 0
62 *441:31 *650:76 5.35499e-05
63 *442:25 *650:42 1.44546e-05
64 *538:10 *650:24 5.38249e-05
65 *569:8 *650:42 0.000381644
66 *633:18 *650:20 0.000134677
67 *633:139 *650:84 9.6849e-05
68 *634:94 *650:32 6.79006e-05
69 *634:146 *650:20 5.55557e-05
70 *639:59 *650:20 9.63918e-05
71 *639:101 *650:42 0.000261468
72 *641:10 *650:32 1.65421e-06
73 *641:10 *650:66 0.000275679
74 *641:12 *650:32 0
75 *641:143 *650:32 9.51831e-05
76 *641:143 *650:42 6.69637e-06
77 *645:145 *650:42 0.000181131
78 *645:151 *650:42 0
79 *645:162 *650:32 0
80 *645:175 *650:32 0.000566282
81 *646:16 *650:84 1.02387e-05
*RES
1 *2842:X *650:6 25.5271 
2 *650:6 *650:20 37.0814 
3 *650:20 *650:22 15 
4 *650:22 *650:24 37.3064 
5 *650:24 *650:30 16.1704 
6 *650:30 *650:32 20.6211 
7 *650:32 *650:42 48.2493 
8 *650:42 *2439:S0 38 
9 *650:32 *2838:A 38 
10 *650:30 *650:66 42.1254 
11 *650:66 *650:76 40.4193 
12 *650:76 *650:84 49.5543 
13 *650:84 *2839:A 23 
14 *650:66 *2433:S0 23 
15 *650:6 *2841:A 23 
*END

*D_NET *651 0.0149285
*CONN
*I *2599:A1 I *D sky130_fd_sc_hd__mux2_1
*I *2487:A1 I *D sky130_fd_sc_hd__mux2_1
*I *2477:A1 I *D sky130_fd_sc_hd__mux2_1
*I *2544:A1 I *D sky130_fd_sc_hd__mux2_1
*I *2526:A1 I *D sky130_fd_sc_hd__mux2_1
*I *2554:A0 I *D sky130_fd_sc_hd__mux2_1
*I *2507:A0 I *D sky130_fd_sc_hd__mux2_1
*I *2616:A1 I *D sky130_fd_sc_hd__mux2_1
*I *2590:A1 I *D sky130_fd_sc_hd__mux2_1
*I *2563:A1 I *D sky130_fd_sc_hd__mux2_1
*I *2843:X O *D sky130_fd_sc_hd__clkbuf_2
*CAP
1 *2599:A1 3.37122e-05
2 *2487:A1 0
3 *2477:A1 0
4 *2544:A1 0
5 *2526:A1 0
6 *2554:A0 0.000187989
7 *2507:A0 0
8 *2616:A1 6.3569e-05
9 *2590:A1 0.000201817
10 *2563:A1 0
11 *2843:X 0
12 *651:114 0.000909496
13 *651:103 0.00141465
14 *651:71 0.000448563
15 *651:65 0.000655511
16 *651:59 0.000624773
17 *651:44 0.00054504
18 *651:29 0.000707626
19 *651:23 0.000865894
20 *651:21 0.000961664
21 *651:12 0.000305134
22 *651:4 0.00112652
23 *651:65 *2526:A0 0.000442766
24 *651:71 *2526:A0 5.50106e-05
25 *2462:S1 *651:103 3.17634e-05
26 *2464:A3 *651:114 2.33476e-05
27 *2544:A0 *651:59 5.44264e-05
28 *2544:A0 *651:65 5.56279e-05
29 *2563:S *651:12 4.93223e-05
30 *2590:A0 *2590:A1 0.000227935
31 *2590:S *2590:A1 4.65096e-05
32 *2590:S *651:29 6.17437e-06
33 *2754:CLK *651:21 0.000273273
34 *2906:A *651:71 8.80821e-05
35 *77:8 *651:71 0
36 *109:14 *651:65 7.85467e-05
37 *317:6 *651:103 0.000609764
38 *317:6 *651:114 0.000531529
39 *323:120 *651:114 0
40 *325:97 *651:114 0.000476591
41 *329:54 *651:12 0
42 *332:70 *2554:A0 4.08537e-05
43 *332:70 *651:71 6.66736e-05
44 *332:72 *651:71 1.37349e-05
45 *334:74 *2599:A1 1.86973e-05
46 *334:74 *651:23 7.06124e-05
47 *334:74 *651:29 5.86328e-05
48 *336:81 *2554:A0 4.57742e-05
49 *337:122 *651:12 9.03784e-05
50 *338:123 *651:29 9.27917e-05
51 *340:110 *2599:A1 2.3007e-05
52 *340:110 *651:23 9.67134e-05
53 *340:110 *651:29 0.000156232
54 *340:131 *2616:A1 7.34394e-06
55 *340:131 *651:29 6.48142e-05
56 *340:131 *651:44 0.000178632
57 *342:42 *651:44 0
58 *342:42 *651:59 0.000186606
59 *353:39 *2554:A0 0
60 *353:39 *651:71 0
61 *353:95 *651:29 3.70187e-05
62 *422:10 *651:114 0.000325588
63 *470:8 *651:21 9.67842e-05
64 *470:18 *651:12 5.97612e-05
65 *478:35 *651:12 0.000142818
66 *494:37 *2616:A1 9.5876e-06
67 *494:37 *651:59 2.18506e-05
68 *566:8 *651:114 8.51432e-05
69 *598:8 *2616:A1 2.50756e-05
70 *598:8 *651:44 4.80826e-05
71 *616:10 *651:71 0.000141879
72 *618:31 *651:21 0.000260892
73 *632:26 *651:29 2.43944e-05
74 *633:139 *651:114 0.000141879
75 *643:100 *651:114 0
76 *645:87 *651:59 0.000144494
77 *645:95 *651:44 4.90799e-05
*RES
1 *2843:X *651:4 23 
2 *651:4 *651:12 35.4893 
3 *651:12 *2563:A1 23 
4 *651:4 *651:21 27.0557 
5 *651:21 *651:23 2.96214 
6 *651:23 *651:29 21.525 
7 *651:29 *2590:A1 26.48 
8 *651:29 *651:44 20.9657 
9 *651:44 *2616:A1 39.2014 
10 *651:44 *651:59 20.2821 
11 *651:59 *651:65 8.88643 
12 *651:65 *651:71 20.945 
13 *651:71 *2507:A0 38 
14 *651:71 *2554:A0 40.7757 
15 *651:65 *2526:A1 23 
16 *651:59 *2544:A1 23 
17 *651:23 *651:103 22.7679 
18 *651:103 *2477:A1 23 
19 *651:103 *651:114 35.7971 
20 *651:114 *2487:A1 38 
21 *651:21 *2599:A1 38.8493 
*END

*D_NET *652 0.0117538
*CONN
*I *2497:A1 I *D sky130_fd_sc_hd__mux2_1
*I *2517:A1 I *D sky130_fd_sc_hd__mux2_1
*I *2572:A1 I *D sky130_fd_sc_hd__mux2_1
*I *2535:A1 I *D sky130_fd_sc_hd__mux2_1
*I *2581:A0 I *D sky130_fd_sc_hd__mux2_1
*I *2607:A0 I *D sky130_fd_sc_hd__mux2_1
*I *2844:X O *D sky130_fd_sc_hd__buf_1
*CAP
1 *2497:A1 0
2 *2517:A1 0
3 *2572:A1 0.000547148
4 *2535:A1 0.000422309
5 *2581:A0 0.000325075
6 *2607:A0 0
7 *2844:X 0
8 *652:87 0.000427405
9 *652:63 0.000788732
10 *652:33 0.000830083
11 *652:31 0.000709156
12 *652:22 0.000596453
13 *652:12 0.00115748
14 *652:4 0.000603555
15 *2463:A1 *652:33 0
16 *2466:A0 *652:63 5.50106e-05
17 *2517:S *2572:A1 5.67943e-05
18 *2517:S *652:63 0.00042973
19 *2535:S *2535:A1 0
20 *2581:A1 *2581:A0 3.22879e-05
21 *2581:S *2581:A0 2.64616e-05
22 *2648:CLK *652:22 0.000354127
23 *2648:D *652:12 0.000224605
24 *2648:D *652:22 0.000353153
25 *53:8 *652:22 1.01436e-05
26 *69:8 *652:87 0
27 *101:10 *2535:A1 1.39431e-05
28 *165:12 *652:22 3.49587e-05
29 *319:14 *652:12 3.56537e-05
30 *319:14 *652:31 0.000446706
31 *319:14 *652:33 4.6318e-06
32 *325:97 *2581:A0 0.000222104
33 *325:97 *652:31 0.00102089
34 *325:97 *652:33 0.000158229
35 *339:40 *2581:A0 3.28609e-05
36 *341:59 *652:22 0
37 *353:128 *652:22 1.12487e-05
38 *374:6 *2581:A0 0.000262864
39 *398:19 *652:87 0
40 *414:6 *652:22 0.000315852
41 *414:27 *652:12 4.08664e-05
42 *414:27 *652:22 0.000219383
43 *414:27 *652:31 0.000138718
44 *612:8 *652:22 0
45 *633:139 *652:22 5.26733e-06
46 *637:104 *2581:A0 0.000108662
47 *637:104 *652:33 5.56306e-05
48 *639:124 *652:87 0.00035793
49 *645:72 *2581:A0 8.22986e-05
50 *646:16 *652:22 0.000110913
51 *646:189 *652:22 0.000124498
*RES
1 *2844:X *652:4 23 
2 *652:4 *652:12 34.0807 
3 *652:12 *652:22 45.2457 
4 *652:22 *2607:A0 23 
5 *652:12 *652:31 28.8786 
6 *652:31 *652:33 2.25786 
7 *652:33 *2581:A0 46.3479 
8 *652:33 *2535:A1 44.3593 
9 *652:31 *652:63 21.5043 
10 *652:63 *2572:A1 32.1143 
11 *652:63 *2517:A1 23 
12 *652:4 *652:87 38.2029 
13 *652:87 *2497:A1 23 
*END

*D_NET *653 0.0131409
*CONN
*I *2486:A1 I *D sky130_fd_sc_hd__mux2_1
*I *2476:A1 I *D sky130_fd_sc_hd__mux2_1
*I *2615:A1 I *D sky130_fd_sc_hd__mux2_1
*I *2598:A1 I *D sky130_fd_sc_hd__mux2_1
*I *2589:A1 I *D sky130_fd_sc_hd__mux2_1
*I *2543:A1 I *D sky130_fd_sc_hd__mux2_1
*I *2506:A0 I *D sky130_fd_sc_hd__mux2_1
*I *2562:A1 I *D sky130_fd_sc_hd__mux2_1
*I *2553:A0 I *D sky130_fd_sc_hd__mux2_1
*I *2525:A1 I *D sky130_fd_sc_hd__mux2_1
*I *2845:X O *D sky130_fd_sc_hd__clkbuf_2
*CAP
1 *2486:A1 0
2 *2476:A1 0
3 *2615:A1 0
4 *2598:A1 5.17257e-05
5 *2589:A1 0
6 *2543:A1 0
7 *2506:A0 0
8 *2562:A1 0
9 *2553:A0 0.000309503
10 *2525:A1 1.80505e-05
11 *2845:X 0.000130424
12 *653:127 0.000496677
13 *653:112 0.000651677
14 *653:105 0.000452661
15 *653:81 0.000660142
16 *653:71 0.00114134
17 *653:65 0.000841436
18 *653:56 0.00046652
19 *653:43 0.000510689
20 *653:25 0.000705431
21 *653:19 0.000811736
22 *653:6 0.000405805
23 *2476:A0 *653:112 5.67058e-05
24 *2476:A0 *653:127 9.84794e-05
25 *2486:A0 *653:127 3.22879e-05
26 *2525:A0 *2525:A1 5.50049e-05
27 *2525:A0 *653:6 5.50106e-05
28 *2543:A0 *653:56 7.31354e-05
29 *2543:A0 *653:65 0.000274234
30 *2589:A0 *653:81 2.4754e-05
31 *2615:S *653:112 5.3304e-05
32 *2753:CLK *2598:A1 1.39431e-05
33 *2905:A *653:81 0.000146195
34 *76:10 *653:25 4.21012e-05
35 *76:10 *653:43 5.29672e-05
36 *108:18 *653:56 5.79559e-05
37 *323:102 *653:127 5.67058e-05
38 *329:44 *2553:A0 0
39 *329:44 *653:25 0
40 *332:42 *653:6 0.000126847
41 *332:42 *653:105 9.5877e-05
42 *332:42 *653:112 0.000368084
43 *332:46 *2525:A1 2.93747e-05
44 *332:46 *653:6 2.32101e-05
45 *332:48 *2553:A0 0.000306202
46 *332:48 *653:19 0.000126793
47 *332:48 *653:25 0.000344395
48 *334:51 *653:65 0.000276834
49 *334:51 *653:71 0.000141879
50 *336:65 *653:81 2.29846e-05
51 *340:83 *653:81 2.62931e-05
52 *342:26 *653:112 0.000113661
53 *342:30 *653:81 0
54 *357:16 *653:81 3.24466e-05
55 *357:71 *653:81 3.04021e-05
56 *357:84 *653:71 7.03766e-05
57 *357:84 *653:81 5.5128e-05
58 *357:95 *653:71 0.000171119
59 *357:106 *653:71 2.65002e-05
60 *357:119 *653:71 6.7177e-06
61 *357:119 *653:105 9.11002e-05
62 *357:166 *653:127 0.000172416
63 *381:12 *653:19 0
64 *389:8 *653:43 5.31757e-05
65 *389:8 *653:56 0.000181954
66 *485:29 *653:105 8.90445e-05
67 *504:10 *653:71 4.59507e-05
68 *537:8 *653:105 0.00027032
69 *544:8 *2553:A0 1.83667e-05
70 *544:8 *653:25 7.28526e-05
71 *602:10 *653:25 0
72 *607:10 *653:19 0
73 *607:18 *653:19 0
74 *646:42 *653:81 8.4047e-05
75 *646:120 *653:71 0.00021289
76 *646:120 *653:81 0.000342657
77 *646:166 *653:105 1.98161e-05
78 *646:166 *653:112 0.000332286
79 *646:166 *653:127 1.22822e-05
*RES
1 *2845:X *653:6 26.0036 
2 *653:6 *2525:A1 23.6214 
3 *653:6 *653:19 35.7793 
4 *653:19 *653:25 24.57 
5 *653:25 *2553:A0 45.8921 
6 *653:25 *2562:A1 38 
7 *653:19 *653:43 3.48 
8 *653:43 *2506:A0 23 
9 *653:43 *653:56 8.30643 
10 *653:56 *2543:A1 23 
11 *653:56 *653:65 18.9564 
12 *653:65 *653:71 11.4757 
13 *653:71 *653:81 27.4079 
14 *653:81 *2589:A1 23 
15 *653:71 *2598:A1 38.6214 
16 *653:65 *653:105 22.6436 
17 *653:105 *2615:A1 23 
18 *653:105 *653:112 7.76786 
19 *653:112 *2476:A1 23 
20 *653:112 *653:127 37.9129 
21 *653:127 *2486:A1 23 
*END

*D_NET *654 0.0106629
*CONN
*I *2606:A0 I *D sky130_fd_sc_hd__mux2_1
*I *2496:A1 I *D sky130_fd_sc_hd__mux2_1
*I *2534:A1 I *D sky130_fd_sc_hd__mux2_1
*I *2516:A1 I *D sky130_fd_sc_hd__mux2_1
*I *2580:A0 I *D sky130_fd_sc_hd__mux2_1
*I *2571:A1 I *D sky130_fd_sc_hd__mux2_1
*I *2846:X O *D sky130_fd_sc_hd__buf_1
*CAP
1 *2606:A0 0
2 *2496:A1 0
3 *2534:A1 0
4 *2516:A1 0
5 *2580:A0 0.000142429
6 *2571:A1 0.000180383
7 *2846:X 0.000296534
8 *654:105 0.000433897
9 *654:74 0.000382749
10 *654:64 0.000739414
11 *654:32 0.000974313
12 *654:20 0.0016849
13 *654:16 0.000785587
14 *654:14 0.000839286
15 *654:64 *2534:A0 2.93747e-05
16 *654:64 *700:10 3.31127e-05
17 *2457:A1 *654:64 0.000120396
18 *2457:A1 *654:74 2.1199e-05
19 *2458:A2 *654:105 2.35426e-05
20 *2458:A3 *654:16 0
21 *2458:A3 *654:20 0
22 *2460:A3 *654:14 2.24608e-05
23 *2460:A3 *654:16 6.43436e-05
24 *2460:A3 *654:20 0.000202908
25 *2516:A0 *654:74 4.95081e-05
26 *2606:A1 *654:105 2.02872e-05
27 *2606:S *654:105 4.46114e-05
28 *2946:A *654:74 1.62015e-05
29 *2995:A *654:20 0
30 *52:8 *654:105 8.48085e-05
31 *68:8 *654:16 0
32 *68:8 *654:105 0
33 *100:8 *654:32 0.000129828
34 *100:8 *654:64 8.2832e-05
35 *132:8 *2571:A1 3.21223e-05
36 *312:14 *654:20 0
37 *314:8 *654:14 5.3304e-05
38 *314:8 *654:105 0.000221196
39 *315:8 *654:105 0.0002246
40 *323:114 *2571:A1 0
41 *325:81 *654:20 0
42 *325:81 *654:74 0
43 *331:35 *654:74 0.000180218
44 *334:62 *2571:A1 0
45 *334:62 *2580:A0 0
46 *334:66 *2571:A1 0
47 *336:65 *2571:A1 1.32939e-05
48 *338:100 *2571:A1 2.93845e-05
49 *340:73 *654:74 0.000522809
50 *341:42 *2580:A0 5.3304e-05
51 *345:76 *654:74 0.000100488
52 *357:8 *2571:A1 0
53 *397:12 *654:105 3.70094e-05
54 *445:12 *654:20 7.62842e-05
55 *511:10 *2571:A1 0.000194309
56 *511:10 *2580:A0 0.000192087
57 *575:8 *654:14 6.7177e-06
58 *575:8 *654:105 0
59 *607:18 *654:14 4.51908e-05
60 *607:18 *654:105 0.00062758
61 *639:143 *654:64 1.52362e-05
62 *639:143 *654:74 0.000307922
63 *644:59 *654:20 0
64 *646:48 *654:32 7.8132e-05
65 *646:61 *654:20 0.000164291
66 *646:82 *654:20 8.24662e-05
67 *646:172 *654:105 0
*RES
1 *2846:X *654:14 42.7954 
2 *654:14 *654:16 2.08179 
3 *654:16 *654:20 28.5264 
4 *654:20 *654:32 25.4814 
5 *654:32 *2571:A1 42.06 
6 *654:32 *2580:A0 41.2314 
7 *654:20 *654:64 36.6079 
8 *654:64 *654:74 40.73 
9 *654:74 *2516:A1 23 
10 *654:64 *2534:A1 23 
11 *654:16 *2496:A1 38 
12 *654:14 *654:105 44.1996 
13 *654:105 *2606:A0 38 
*END

*D_NET *655 0.0147605
*CONN
*I *2485:A1 I *D sky130_fd_sc_hd__mux2_1
*I *2475:A1 I *D sky130_fd_sc_hd__mux2_1
*I *2552:A0 I *D sky130_fd_sc_hd__mux2_1
*I *2561:A1 I *D sky130_fd_sc_hd__mux2_1
*I *2588:A1 I *D sky130_fd_sc_hd__mux2_1
*I *2597:A1 I *D sky130_fd_sc_hd__mux2_1
*I *2614:A1 I *D sky130_fd_sc_hd__mux2_1
*I *2542:A1 I *D sky130_fd_sc_hd__mux2_1
*I *2505:A0 I *D sky130_fd_sc_hd__mux2_1
*I *2524:A1 I *D sky130_fd_sc_hd__mux2_1
*I *2847:X O *D sky130_fd_sc_hd__clkbuf_2
*CAP
1 *2485:A1 0.000580537
2 *2475:A1 0
3 *2552:A0 0
4 *2561:A1 0
5 *2588:A1 0
6 *2597:A1 3.58377e-05
7 *2614:A1 0.000162776
8 *2542:A1 0.000244881
9 *2505:A0 2.7862e-05
10 *2524:A1 0
11 *2847:X 0
12 *655:112 0.000769713
13 *655:100 0.000321374
14 *655:92 0.000617598
15 *655:83 0.00109859
16 *655:75 0.0013444
17 *655:62 0.00123075
18 *655:38 0.000715195
19 *655:36 0.00122369
20 *655:20 0.000567404
21 *655:10 0.000835377
22 *655:4 0.000314203
23 *2452:A1 *655:112 0
24 *2453:A3 *655:38 6.08751e-05
25 *2453:S1 *655:20 0
26 *2485:A0 *2485:A1 0.000225393
27 *2505:A1 *655:10 5.3304e-05
28 *2505:A1 *655:20 1.24376e-05
29 *2542:A0 *2542:A1 9.84794e-05
30 *2630:D *655:83 0.000174722
31 *2971:A *655:10 0.000137651
32 *2971:A *655:36 8.43466e-05
33 *2993:A *655:38 6.08751e-05
34 *2993:A *655:62 6.22475e-05
35 *51:8 *655:112 0
36 *75:10 *655:20 0.000100069
37 *91:10 *655:20 0
38 *115:8 *655:100 6.7177e-06
39 *139:8 *655:62 0
40 *147:10 *655:92 1.94693e-05
41 *163:8 *655:75 3.31683e-05
42 *171:8 *2614:A1 0.000139357
43 *307:16 *2597:A1 5.12254e-05
44 *307:16 *655:75 0.000131751
45 *310:8 *655:20 0.000141879
46 *310:22 *2505:A0 5.13705e-06
47 *310:22 *655:10 9.17445e-05
48 *310:22 *655:20 0.000149925
49 *323:130 *2485:A1 0.000129402
50 *323:130 *655:112 6.07611e-06
51 *332:72 *655:100 0
52 *332:92 *655:20 0.000232401
53 *334:76 *655:62 0
54 *334:80 *2542:A1 5.70419e-05
55 *334:93 *2542:A1 7.53384e-06
56 *337:122 *655:100 0.000333239
57 *340:131 *655:83 2.93845e-05
58 *341:67 *2485:A1 0
59 *341:67 *655:62 1.58805e-05
60 *341:67 *655:75 0
61 *341:67 *655:112 0
62 *346:29 *655:83 2.81311e-05
63 *346:33 *655:83 4.29549e-05
64 *346:33 *655:92 0.000661994
65 *346:33 *655:100 5.50106e-05
66 *346:37 *655:100 0.000129412
67 *346:71 *655:20 0
68 *396:14 *655:75 0
69 *396:14 *655:112 0
70 *412:6 *655:83 0.000185428
71 *484:19 *2542:A1 9.63815e-05
72 *484:19 *655:38 7.81176e-05
73 *492:10 *2614:A1 0.000182832
74 *525:10 *655:62 4.06408e-05
75 *547:8 *2542:A1 2.5415e-05
76 *548:8 *655:38 2.5415e-05
77 *555:10 *655:112 8.62876e-05
78 *595:12 *2542:A1 0.00014694
79 *595:12 *655:38 5.23457e-05
80 *595:31 *655:62 0
81 *645:48 *2597:A1 5.90326e-05
82 *645:48 *655:75 0.000122226
*RES
1 *2847:X *655:4 23 
2 *655:4 *655:10 4.12214 
3 *655:10 *655:20 39.9014 
4 *655:20 *2524:A1 23 
5 *655:10 *2505:A0 23.4971 
6 *655:4 *655:36 16.0979 
7 *655:36 *655:38 6.13143 
8 *655:38 *2542:A1 44.8771 
9 *655:38 *2614:A1 41.9564 
10 *655:36 *655:62 31.3436 
11 *655:62 *2597:A1 24.0979 
12 *655:62 *655:75 22.25 
13 *655:75 *655:83 27.0971 
14 *655:83 *2588:A1 23 
15 *655:83 *655:92 7.78857 
16 *655:92 *655:100 39.2179 
17 *655:100 *2561:A1 23 
18 *655:92 *2552:A0 23 
19 *655:75 *655:112 4.01857 
20 *655:112 *2475:A1 38 
21 *655:112 *2485:A1 49.0821 
*END

*D_NET *656 0.00826032
*CONN
*I *2495:A1 I *D sky130_fd_sc_hd__mux2_1
*I *2605:A0 I *D sky130_fd_sc_hd__mux2_1
*I *2533:A1 I *D sky130_fd_sc_hd__mux2_1
*I *2515:A1 I *D sky130_fd_sc_hd__mux2_1
*I *2570:A1 I *D sky130_fd_sc_hd__mux2_1
*I *2579:A0 I *D sky130_fd_sc_hd__mux2_1
*I *2848:X O *D sky130_fd_sc_hd__buf_1
*CAP
1 *2495:A1 0
2 *2605:A0 0.000351384
3 *2533:A1 0
4 *2515:A1 0
5 *2570:A1 7.36977e-05
6 *2579:A0 0
7 *2848:X 0
8 *656:75 0.000711853
9 *656:56 0.00123757
10 *656:44 0.000224787
11 *656:32 0.000465471
12 *656:23 0.000394573
13 *656:19 0.000604753
14 *656:10 0.000151069
15 *656:4 0.000501298
16 *2451:A0 *656:44 0.000189513
17 *2452:A2 *656:75 1.16872e-05
18 *2452:A3 *656:75 8.62876e-05
19 *2454:A0 *656:23 0.000188926
20 *2454:A0 *656:56 0.000456747
21 *2515:A0 *656:44 5.67058e-05
22 *2515:S *656:44 0
23 *2533:A0 *656:32 5.50049e-05
24 *2880:A *656:56 3.72639e-05
25 *2880:A *656:75 9.2383e-05
26 *2924:A *656:23 0.000129513
27 *2924:A *656:56 3.70187e-05
28 *99:10 *656:32 7.59794e-05
29 *99:10 *656:44 7.03663e-05
30 *307:16 *2605:A0 0.000258741
31 *309:10 *656:75 2.93845e-05
32 *310:28 *656:10 0.000107021
33 *338:65 *2570:A1 5.3304e-05
34 *338:65 *656:32 0.000610659
35 *338:65 *656:44 0.000138718
36 *339:69 *656:44 0.000196316
37 *354:38 *656:44 0
38 *436:8 *2570:A1 4.79544e-05
39 *436:22 *656:23 5.94125e-05
40 *595:31 *656:10 0.000109506
41 *641:34 *656:75 4.96717e-05
42 *641:42 *656:56 0.000256878
43 *641:42 *656:75 0.000104123
44 *641:110 *656:75 3.47776e-05
45 *645:121 *656:44 0
*RES
1 *2848:X *656:4 23 
2 *656:4 *656:10 34.3707 
3 *656:10 *2579:A0 23 
4 *656:4 *656:19 19.9093 
5 *656:19 *656:23 17.61 
6 *656:23 *2570:A1 24.5743 
7 *656:23 *656:32 6.815 
8 *656:32 *656:44 36.7321 
9 *656:44 *2515:A1 23 
10 *656:32 *2533:A1 23 
11 *656:19 *656:56 7.18786 
12 *656:56 *2605:A0 42.9093 
13 *656:56 *656:75 27.3043 
14 *656:75 *2495:A1 23 
*END

*D_NET *657 0.0174245
*CONN
*I *2484:A1 I *D sky130_fd_sc_hd__mux2_1
*I *2474:A1 I *D sky130_fd_sc_hd__mux2_1
*I *2532:A1 I *D sky130_fd_sc_hd__mux2_1
*I *2569:A1 I *D sky130_fd_sc_hd__mux2_1
*I *2578:A0 I *D sky130_fd_sc_hd__mux2_1
*I *2514:A1 I *D sky130_fd_sc_hd__mux2_1
*I *2613:A1 I *D sky130_fd_sc_hd__mux2_1
*I *2523:A1 I *D sky130_fd_sc_hd__mux2_1
*I *2541:A1 I *D sky130_fd_sc_hd__mux2_1
*I *2504:A0 I *D sky130_fd_sc_hd__mux2_1
*I *2849:X O *D sky130_fd_sc_hd__clkbuf_2
*CAP
1 *2484:A1 0
2 *2474:A1 0
3 *2532:A1 0.000731489
4 *2569:A1 0.000156333
5 *2578:A0 3.2539e-05
6 *2514:A1 0.000304607
7 *2613:A1 0
8 *2523:A1 0
9 *2541:A1 5.145e-05
10 *2504:A0 0.000379604
11 *2849:X 0.000253072
12 *657:112 0.000579988
13 *657:104 0.00131048
14 *657:84 0.000887822
15 *657:82 0.000905037
16 *657:71 0.000463536
17 *657:60 0.000787292
18 *657:44 0.000499919
19 *657:34 0.000802846
20 *657:32 0.000893545
21 *657:19 0.000543276
22 *657:8 0.000760115
23 *657:112 *691:10 0.000269151
24 *2444:A2 *657:104 0.000218943
25 *2474:S *657:112 5.2894e-05
26 *2484:S *657:112 0.000269151
27 *2504:A1 *2504:A0 0.000126847
28 *2514:A0 *2514:A1 5.67058e-05
29 *2523:A0 *657:44 7.53384e-06
30 *2532:A0 *2532:A1 5.67058e-05
31 *2532:S *2532:A1 6.24251e-05
32 *2569:A0 *2569:A1 0.000183733
33 *2613:A0 *657:34 9.6103e-05
34 *2613:A0 *657:44 2.93845e-05
35 *2661:CLK *2532:A1 0.000163466
36 *2661:CLK *2569:A1 0.000183733
37 *2661:D *2532:A1 0.000143599
38 *2797:A *657:104 0.000299178
39 *2849:A *657:8 5.50049e-05
40 *2952:A *657:44 0
41 *2985:A *657:34 7.73735e-05
42 *2985:A *657:60 1.5769e-05
43 *106:10 *657:32 0
44 *170:10 *657:44 0.000223034
45 *329:145 *657:19 0
46 *329:145 *657:32 0
47 *331:108 *2514:A1 0.000334739
48 *332:105 *657:44 1.76557e-05
49 *338:28 *657:82 5.94125e-05
50 *338:28 *657:104 0.00144419
51 *338:32 *2569:A1 4.5051e-05
52 *342:117 *657:44 6.51763e-05
53 *345:128 *657:104 0.000166522
54 *347:47 *657:104 0
55 *347:49 *657:82 0
56 *347:51 *657:71 0
57 *347:55 *657:32 0.000485221
58 *347:55 *657:60 0
59 *347:55 *657:71 0
60 *348:38 *657:104 0.00022109
61 *348:69 *657:112 0.00034721
62 *379:10 *657:44 0
63 *387:12 *657:32 4.07715e-05
64 *387:25 *657:19 0.000167443
65 *387:25 *657:32 0.000139647
66 *411:12 *657:104 0.000158292
67 *427:10 *2532:A1 3.34129e-05
68 *435:6 *2578:A0 2.93845e-05
69 *435:16 *2532:A1 1.61361e-05
70 *451:14 *657:104 3.39335e-05
71 *467:10 *657:104 0.000135557
72 *491:10 *657:32 0
73 *530:8 *657:44 4.41619e-05
74 *559:8 *657:104 8.16459e-05
75 *584:25 *657:32 0
76 *584:25 *657:60 7.91596e-05
77 *584:25 *657:71 0.000201464
78 *584:25 *657:82 0.000104051
79 *633:34 *657:112 3.94496e-05
80 *642:41 *657:104 0
*RES
1 *2849:X *657:8 26.5007 
2 *657:8 *2504:A0 28.3857 
3 *657:8 *657:19 17.2579 
4 *657:19 *2541:A1 38.6214 
5 *657:19 *657:32 24.3007 
6 *657:32 *657:34 4.43286 
7 *657:34 *657:44 38.8243 
8 *657:44 *2523:A1 23 
9 *657:34 *2613:A1 23 
10 *657:32 *657:60 18.8321 
11 *657:60 *2514:A1 45.2914 
12 *657:60 *657:71 5.42714 
13 *657:71 *2578:A0 38.6214 
14 *657:71 *657:82 3.66643 
15 *657:82 *657:84 15 
16 *657:84 *2569:A1 26.9564 
17 *657:84 *2532:A1 35.0557 
18 *657:82 *657:104 37.04 
19 *657:104 *657:112 40.4814 
20 *657:112 *2474:A1 23 
21 *657:104 *2484:A1 23 
*END

*D_NET *658 0.0103657
*CONN
*I *2494:A1 I *D sky130_fd_sc_hd__mux2_1
*I *2604:A0 I *D sky130_fd_sc_hd__mux2_1
*I *2587:A1 I *D sky130_fd_sc_hd__mux2_1
*I *2560:A1 I *D sky130_fd_sc_hd__mux2_1
*I *2551:A0 I *D sky130_fd_sc_hd__mux2_1
*I *2596:A1 I *D sky130_fd_sc_hd__mux2_1
*I *2850:X O *D sky130_fd_sc_hd__buf_1
*CAP
1 *2494:A1 0.000404516
2 *2604:A0 0
3 *2587:A1 0.000230608
4 *2560:A1 0
5 *2551:A0 0
6 *2596:A1 0.000364571
7 *2850:X 0
8 *658:66 0.000199589
9 *658:60 0.000735743
10 *658:51 0.000805203
11 *658:33 0.000663523
12 *658:25 0.000909674
13 *658:10 0.000976998
14 *658:4 0.000809234
15 *2596:A1 *678:12 5.50106e-05
16 *2444:S0 *658:10 0
17 *2586:S *658:33 7.13673e-05
18 *2596:S *2596:A1 0.000161408
19 *2596:S *658:10 4.36207e-05
20 *2645:CLK *2494:A1 9.84794e-05
21 *2645:D *2494:A1 0.000171664
22 *2964:A *658:51 0.000108682
23 *114:8 *658:33 0
24 *122:8 *658:33 6.07611e-06
25 *303:14 *658:51 0.00014196
26 *305:12 *658:51 9.0102e-05
27 *331:102 *658:66 0.000672547
28 *337:57 *658:33 1.56762e-05
29 *340:24 *658:33 0.000115519
30 *340:45 *2587:A1 3.22879e-05
31 *341:105 *658:10 1.27424e-05
32 *395:8 *2587:A1 1.94693e-05
33 *541:6 *658:25 0.000354122
34 *541:6 *658:33 5.67058e-05
35 *584:25 *658:10 2.64616e-05
36 *617:10 *658:10 0.000477634
37 *617:10 *658:51 5.50106e-05
38 *628:23 *2596:A1 0
39 *628:23 *658:33 8.80821e-05
40 *634:74 *658:33 0.000118889
41 *637:60 *658:51 0.000117992
42 *637:60 *658:66 0.000672547
43 *637:86 *658:10 0.000425407
44 *637:86 *658:51 5.66042e-05
45 *647:45 *2596:A1 0
46 *647:67 *658:51 0
*RES
1 *2850:X *658:4 23 
2 *658:4 *658:10 24.3214 
3 *658:10 *2596:A1 44.4007 
4 *658:10 *658:25 18.9564 
5 *658:25 *658:33 43.34 
6 *658:33 *2551:A0 23 
7 *658:25 *2560:A1 23 
8 *658:4 *658:51 39.9843 
9 *658:51 *2587:A1 26.9564 
10 *658:51 *658:60 2.05071 
11 *658:60 *658:66 38.9486 
12 *658:66 *2604:A0 23 
13 *658:60 *2494:A1 29.815 
*END

*D_NET *659 0.0189149
*CONN
*I *2483:A1 I *D sky130_fd_sc_hd__mux2_1
*I *2473:A1 I *D sky130_fd_sc_hd__mux2_1
*I *2577:A0 I *D sky130_fd_sc_hd__mux2_1
*I *2568:A1 I *D sky130_fd_sc_hd__mux2_1
*I *2531:A1 I *D sky130_fd_sc_hd__mux2_1
*I *2513:A1 I *D sky130_fd_sc_hd__mux2_1
*I *2612:A1 I *D sky130_fd_sc_hd__mux2_1
*I *2503:A0 I *D sky130_fd_sc_hd__mux2_1
*I *2522:A1 I *D sky130_fd_sc_hd__mux2_1
*I *2540:A1 I *D sky130_fd_sc_hd__mux2_1
*I *2851:X O *D sky130_fd_sc_hd__clkbuf_2
*CAP
1 *2483:A1 0.000155989
2 *2473:A1 0
3 *2577:A0 9.63036e-05
4 *2568:A1 9.71793e-05
5 *2531:A1 0
6 *2513:A1 0
7 *2612:A1 0.000181508
8 *2503:A0 0
9 *2522:A1 0.000185259
10 *2540:A1 0
11 *2851:X 4.54044e-05
12 *659:124 0.000365346
13 *659:116 0.00105397
14 *659:112 0.00164662
15 *659:95 0.00126304
16 *659:84 0.000426685
17 *659:77 0.00040022
18 *659:62 0.000934921
19 *659:58 0.000995396
20 *659:33 0.000293215
21 *659:31 0.000289464
22 *659:29 0.000328457
23 *659:18 0.000703229
24 *659:8 0.000893157
25 *2483:A1 *2483:A0 2.93845e-05
26 *659:18 *2540:A0 5.50049e-05
27 *659:77 *2531:A0 5.50049e-05
28 *659:112 *678:40 0
29 *659:116 *661:60 2.04774e-05
30 *659:116 *661:79 9.64476e-05
31 *2439:A1 *659:77 5.50106e-05
32 *2441:S1 *659:29 0
33 *2441:S1 *659:58 0
34 *2441:S1 *659:84 0
35 *2612:A0 *2612:A1 2.93747e-05
36 *2636:CLK *659:116 0.000234373
37 *2790:D *659:18 0.000146207
38 *2891:A *659:62 7.15126e-05
39 *2918:A *659:77 0.000311554
40 *2989:A *659:112 4.41619e-05
41 *57:10 *659:116 6.4393e-05
42 *81:10 *659:77 5.50049e-05
43 *97:8 *659:77 8.16356e-05
44 *137:8 *659:84 0.000191157
45 *169:8 *659:18 0
46 *169:8 *659:29 2.20561e-05
47 *329:107 *659:77 5.83085e-05
48 *329:111 *659:62 0.000322679
49 *329:111 *659:77 6.33508e-05
50 *329:134 *659:58 7.81176e-05
51 *331:68 *659:124 0.000163352
52 *332:92 *2522:A1 5.67058e-05
53 *332:105 *2522:A1 0.000161451
54 *332:105 *2612:A1 0.000269579
55 *332:105 *659:33 9.62764e-05
56 *334:93 *659:18 0.000650366
57 *336:22 *659:112 6.74969e-06
58 *337:42 *659:112 2.01788e-05
59 *338:44 *2568:A1 0.000528019
60 *338:44 *2577:A0 0.00014196
61 *338:44 *659:77 7.74585e-05
62 *339:69 *2568:A1 0.000528019
63 *342:77 *659:77 0.000116331
64 *342:101 *659:8 2.64616e-05
65 *342:117 *659:77 5.41385e-05
66 *345:22 *659:116 0
67 *355:8 *659:116 0.00021289
68 *355:10 *659:116 6.48142e-05
69 *355:45 *659:116 0.00021382
70 *355:56 *659:116 0.000215131
71 *355:67 *659:116 0.000232142
72 *370:10 *659:77 0.000138727
73 *410:12 *659:124 0.000223698
74 *410:31 *2483:A1 8.43466e-05
75 *410:31 *659:116 7.45278e-05
76 *410:31 *659:124 0.000185428
77 *434:16 *659:112 4.16601e-05
78 *474:33 *659:112 2.92235e-05
79 *539:10 *659:124 8.62783e-05
80 *545:10 *659:112 8.62783e-05
81 *573:18 *659:112 0
82 *591:10 *659:112 0
83 *630:10 *659:112 0
84 *630:20 *659:18 0.000404056
85 *630:20 *659:29 9.21422e-05
86 *630:20 *659:58 0
87 *630:20 *659:84 0
88 *630:20 *659:95 0
89 *630:20 *659:112 0
90 *632:14 *659:124 9.41704e-05
91 *633:44 *659:112 0.000391318
92 *633:44 *659:116 0.000706656
93 *634:115 *659:124 0
94 *639:101 *659:112 0
95 *641:143 *659:112 0
*RES
1 *2851:X *659:8 38.6214 
2 *659:8 *659:18 30.2664 
3 *659:18 *2540:A1 23 
4 *659:8 *659:29 3.02429 
5 *659:29 *659:31 15 
6 *659:31 *659:33 2.05071 
7 *659:33 *2522:A1 26.9564 
8 *659:33 *2503:A0 23 
9 *659:31 *2612:A1 27.5986 
10 *659:29 *659:58 3.66643 
11 *659:58 *659:62 25.6264 
12 *659:62 *2513:A1 23 
13 *659:62 *659:77 41.5586 
14 *659:77 *2531:A1 23 
15 *659:58 *659:84 5.42714 
16 *659:84 *2568:A1 43.8621 
17 *659:84 *659:95 0.849286 
18 *659:95 *2577:A0 39.5743 
19 *659:95 *659:112 49.2021 
20 *659:112 *659:116 33.1043 
21 *659:116 *659:124 38.12 
22 *659:124 *2473:A1 23 
23 *659:116 *2483:A1 26.0036 
*END

*D_NET *660 0.000844263
*CONN
*I *2297:A I *D sky130_fd_sc_hd__inv_2
*I *3020:X O *D sky130_fd_sc_hd__clkbuf_1
*CAP
1 *2297:A 0
2 *3020:X 0.00035716
3 *660:10 0.00035716
4 *660:10 *671:10 0.000129944
5 *660:10 *682:10 0
*RES
1 *3020:X *660:10 44.6493 
2 *660:10 *2297:A 38 
*END

*D_NET *661 0.0103126
*CONN
*I *2493:A1 I *D sky130_fd_sc_hd__mux2_1
*I *2603:A0 I *D sky130_fd_sc_hd__mux2_1
*I *2550:A0 I *D sky130_fd_sc_hd__mux2_1
*I *2586:A1 I *D sky130_fd_sc_hd__mux2_1
*I *2595:A1 I *D sky130_fd_sc_hd__mux2_1
*I *2559:A1 I *D sky130_fd_sc_hd__mux2_1
*I *2852:X O *D sky130_fd_sc_hd__buf_1
*CAP
1 *2493:A1 0
2 *2603:A0 0
3 *2550:A0 5.97262e-05
4 *2586:A1 0.000190526
5 *2595:A1 0
6 *2559:A1 3.90038e-05
7 *2852:X 5.01715e-05
8 *661:79 0.000898365
9 *661:60 0.00130594
10 *661:47 0.000767545
11 *661:31 0.00118146
12 *661:16 0.00119658
13 *661:10 0.000517054
14 *2586:A1 *699:6 0.000397602
15 *661:10 *678:40 5.58534e-05
16 *661:47 *678:40 0.000577455
17 *661:79 *2493:A0 2.93747e-05
18 *2442:A2 *661:31 1.16872e-05
19 *2586:A0 *2586:A1 5.50106e-05
20 *2636:CLK *661:79 3.98443e-05
21 *2636:D *661:79 7.10068e-06
22 *2804:A *2550:A0 9.67842e-05
23 *2804:A *661:60 0.000277536
24 *121:10 *661:16 2.64616e-05
25 *121:10 *661:47 0.000108681
26 *297:20 *661:31 4.96264e-05
27 *299:16 *661:31 9.04952e-05
28 *327:107 *661:79 2.02517e-05
29 *336:22 *661:60 2.31797e-05
30 *342:77 *661:31 0.000190931
31 *345:22 *661:60 0.000170184
32 *345:22 *661:79 0.000152553
33 *345:24 *661:60 5.31444e-05
34 *402:8 *661:79 5.78583e-05
35 *474:12 *661:47 0.000108672
36 *553:10 *661:60 0.000141879
37 *633:44 *661:60 0.000270613
38 *634:115 *661:47 0
39 *639:73 *661:31 5.37348e-06
40 *639:101 *661:31 0.000499462
41 *639:105 *661:10 5.50049e-05
42 *639:105 *661:16 0.000310647
43 *645:16 *661:10 8.35925e-05
44 *645:16 *661:47 2.24048e-05
45 *659:116 *661:60 2.04774e-05
46 *659:116 *661:79 9.64476e-05
*RES
1 *2852:X *661:10 39.4707 
2 *661:10 *661:16 19.3293 
3 *661:16 *2559:A1 23.6214 
4 *661:16 *661:31 46.0536 
5 *661:31 *2595:A1 23 
6 *661:31 *2586:A1 27.4329 
7 *661:10 *661:47 22.8921 
8 *661:47 *2550:A0 24.0979 
9 *661:47 *661:60 27.18 
10 *661:60 *2603:A0 38 
11 *661:60 *661:79 29.7071 
12 *661:79 *2493:A1 23 
*END

*D_NET *662 0.0144662
*CONN
*I *2549:A0 I *D sky130_fd_sc_hd__mux2_1
*I *2558:A1 I *D sky130_fd_sc_hd__mux2_1
*I *2611:A1 I *D sky130_fd_sc_hd__mux2_1
*I *2472:A1 I *D sky130_fd_sc_hd__mux2_1
*I *2594:A1 I *D sky130_fd_sc_hd__mux2_1
*I *2482:A1 I *D sky130_fd_sc_hd__mux2_1
*I *2539:A1 I *D sky130_fd_sc_hd__mux2_1
*I *2585:A1 I *D sky130_fd_sc_hd__mux2_1
*I *2521:A1 I *D sky130_fd_sc_hd__mux2_1
*I *2502:A0 I *D sky130_fd_sc_hd__mux2_1
*I *2853:X O *D sky130_fd_sc_hd__clkbuf_2
*CAP
1 *2549:A0 0.000466095
2 *2558:A1 0.000369563
3 *2611:A1 0
4 *2472:A1 5.21111e-05
5 *2594:A1 0.000484021
6 *2482:A1 0.000417135
7 *2539:A1 0
8 *2585:A1 0
9 *2521:A1 2.0995e-05
10 *2502:A0 0.000250493
11 *2853:X 0.000159424
12 *662:120 0.00105585
13 *662:76 0.00105415
14 *662:74 0.000594225
15 *662:61 0.000231987
16 *662:55 0.000928975
17 *662:48 0.000528791
18 *662:40 0.000906895
19 *662:25 0.000752375
20 *662:21 0.000337254
21 *662:8 0.000481579
22 *2502:A1 *2502:A0 3.7122e-06
23 *2521:A0 *662:40 3.98818e-05
24 *2521:S *2521:A1 1.14154e-05
25 *2521:S *662:40 2.32101e-05
26 *2549:A1 *2549:A0 7.53384e-06
27 *2549:S *2549:A0 5.41385e-05
28 *2611:A0 *662:40 5.79559e-05
29 *2635:CLK *2472:A1 5.67058e-05
30 *2724:CLK *2594:A1 9.14693e-05
31 *48:10 *662:76 0.000327903
32 *112:8 *2549:A0 8.51432e-05
33 *120:8 *2558:A1 9.01041e-05
34 *292:18 *2482:A1 0.000260705
35 *323:114 *2472:A1 5.62433e-06
36 *323:114 *2594:A1 6.95768e-05
37 *323:114 *662:76 0.000117863
38 *323:120 *2472:A1 4.6318e-06
39 *323:120 *662:74 0
40 *325:93 *2482:A1 9.67842e-05
41 *329:44 *2549:A0 0
42 *329:44 *662:120 0
43 *332:48 *2549:A0 0.000156352
44 *332:48 *662:120 0.000351626
45 *332:52 *662:25 2.64616e-05
46 *332:52 *662:40 6.17437e-06
47 *332:64 *2502:A0 0.000417785
48 *332:64 *662:21 0.000223043
49 *332:64 *662:120 8.9458e-05
50 *332:70 *2502:A0 2.11157e-05
51 *334:66 *662:74 0
52 *336:77 *2502:A0 0.000143518
53 *336:77 *662:21 7.4878e-05
54 *336:77 *662:120 1.62615e-05
55 *337:107 *662:48 0
56 *340:110 *662:61 0
57 *341:59 *662:61 0.000505746
58 *342:36 *662:48 3.76761e-05
59 *356:12 *2594:A1 6.03737e-05
60 *356:14 *2594:A1 7.75329e-06
61 *356:20 *662:74 2.50227e-05
62 *356:20 *662:76 7.31043e-06
63 *356:24 *662:74 5.94125e-05
64 *356:117 *2558:A1 5.5588e-05
65 *356:157 *2594:A1 5.41288e-05
66 *385:8 *662:8 3.22879e-05
67 *393:20 *2482:A1 0.000137651
68 *465:10 *2549:A0 9.01062e-05
69 *489:10 *662:61 6.4393e-05
70 *501:8 *662:61 1.84226e-05
71 *562:16 *662:120 0
72 *562:25 *662:48 0.000180519
73 *562:25 *662:55 0.000442856
74 *562:25 *662:74 0.000439364
75 *583:8 *662:61 0.000169674
76 *626:24 *2472:A1 5.50106e-05
*RES
1 *2853:X *662:8 40.5271 
2 *662:8 *2502:A0 44.4007 
3 *662:8 *662:21 2.96214 
4 *662:21 *662:25 15.6214 
5 *662:25 *2521:A1 23.4971 
6 *662:25 *662:40 11.5171 
7 *662:40 *662:48 33.2521 
8 *662:48 *2585:A1 23 
9 *662:48 *662:55 4.90929 
10 *662:55 *662:61 36.8357 
11 *662:61 *2539:A1 23 
12 *662:55 *662:74 21.9082 
13 *662:74 *662:76 4.89893 
14 *662:76 *2482:A1 47.2179 
15 *662:76 *2594:A1 46.845 
16 *662:74 *2472:A1 39.5639 
17 *662:40 *2611:A1 23 
18 *662:21 *662:120 5.42714 
19 *662:120 *2558:A1 43.7586 
20 *662:120 *2549:A0 47.1764 
*END

*D_NET *663 0.0114712
*CONN
*I *2492:A1 I *D sky130_fd_sc_hd__mux2_1
*I *2576:A0 I *D sky130_fd_sc_hd__mux2_1
*I *2530:A1 I *D sky130_fd_sc_hd__mux2_1
*I *2567:A1 I *D sky130_fd_sc_hd__mux2_1
*I *2512:A1 I *D sky130_fd_sc_hd__mux2_1
*I *2602:A0 I *D sky130_fd_sc_hd__mux2_1
*I *2854:X O *D sky130_fd_sc_hd__buf_1
*CAP
1 *2492:A1 0
2 *2576:A0 0.00012309
3 *2530:A1 0.000248539
4 *2567:A1 0
5 *2512:A1 0.000168299
6 *2602:A0 0.000588073
7 *2854:X 0.000536785
8 *663:69 0.000728878
9 *663:43 0.000327837
10 *663:37 0.000870892
11 *663:33 0.00073889
12 *663:16 0.00136751
13 *663:10 0.000931441
14 *2512:A1 *2567:A0 0.000308039
15 *663:43 *2567:A0 2.4754e-05
16 *2436:S0 *663:16 0.000197479
17 *2436:S0 *663:33 0.000186576
18 *2576:A1 *2576:A0 2.79662e-05
19 *2675:D *663:69 0.00027468
20 *2922:A *2602:A0 0.000357631
21 *28:17 *663:69 0.000492376
22 *128:8 *663:43 0
23 *294:8 *663:16 5.21127e-05
24 *327:65 *663:10 2.55642e-05
25 *327:65 *663:16 0.000252256
26 *331:56 *2512:A1 8.6949e-05
27 *331:68 *2512:A1 5.50106e-05
28 *333:64 *2530:A1 6.17437e-06
29 *338:109 *663:37 0.000141294
30 *338:109 *663:43 0.000122304
31 *338:117 *663:43 4.6318e-06
32 *339:32 *663:16 0.000176814
33 *339:32 *663:33 0.000407218
34 *339:36 *663:37 0
35 *339:36 *663:43 0
36 *358:26 *663:37 0.000290624
37 *369:14 *663:69 0.000161121
38 *441:31 *2576:A0 2.02872e-05
39 *441:31 *663:33 0.000145775
40 *441:31 *663:37 0.000161121
41 *500:10 *2602:A0 0.000141052
42 *508:8 *663:10 0.000160182
43 *508:8 *663:16 1.14452e-05
44 *626:16 *663:10 1.22803e-05
45 *633:129 *2602:A0 0.000290593
46 *637:121 *663:33 2.46922e-05
47 *639:143 *663:10 0
48 *650:66 *2530:A1 0.000221992
49 *650:76 *663:69 0
*RES
1 *2854:X *663:10 45.6436 
2 *663:10 *663:16 9.135 
3 *663:16 *2602:A0 49.5793 
4 *663:16 *663:33 24.0521 
5 *663:33 *663:37 21.1314 
6 *663:37 *663:43 18.9357 
7 *663:43 *2512:A1 27.4536 
8 *663:43 *2567:A1 23 
9 *663:37 *663:69 41.6207 
10 *663:69 *2530:A1 41.9564 
11 *663:33 *2576:A0 24.5743 
12 *663:10 *2492:A1 38 
*END

*D_NET *664 0.0147358
*CONN
*I *2593:A1 I *D sky130_fd_sc_hd__mux2_1
*I *2501:A0 I *D sky130_fd_sc_hd__mux2_1
*I *2481:A1 I *D sky130_fd_sc_hd__mux2_1
*I *2471:A1 I *D sky130_fd_sc_hd__mux2_1
*I *2538:A1 I *D sky130_fd_sc_hd__mux2_1
*I *2520:A1 I *D sky130_fd_sc_hd__mux2_1
*I *2610:A1 I *D sky130_fd_sc_hd__mux2_1
*I *2584:A1 I *D sky130_fd_sc_hd__mux2_1
*I *2548:A0 I *D sky130_fd_sc_hd__mux2_1
*I *2557:A1 I *D sky130_fd_sc_hd__mux2_1
*I *2855:X O *D sky130_fd_sc_hd__clkbuf_2
*CAP
1 *2593:A1 0.000304224
2 *2501:A0 0.000616821
3 *2481:A1 0
4 *2471:A1 0
5 *2538:A1 0
6 *2520:A1 0.000713175
7 *2610:A1 0.000145544
8 *2584:A1 0.000261967
9 *2548:A0 0
10 *2557:A1 0.000296129
11 *2855:X 0
12 *664:95 0.00020636
13 *664:82 0.00126642
14 *664:56 0.00177323
15 *664:54 0.000999104
16 *664:43 0.000808802
17 *664:28 0.000794721
18 *664:14 0.000803928
19 *664:10 0.000929265
20 *664:4 0.000473912
21 *664:82 *686:6 5.50049e-05
22 *664:95 *686:6 0.000249513
23 *2424:A3 *664:14 0.000139987
24 *2424:A3 *664:28 0
25 *2520:A0 *2520:A1 9.75779e-05
26 *2548:A1 *2557:A1 3.52383e-05
27 *2548:A1 *664:14 1.94693e-05
28 *2557:A0 *2557:A1 0.000228903
29 *2584:A0 *2584:A1 5.67058e-05
30 *2593:S *2593:A1 9.5877e-05
31 *2610:A0 *2610:A1 0.000315852
32 *2723:D *2593:A1 7.53384e-06
33 *2723:D *664:10 7.88926e-05
34 *2788:D *2520:A1 0.000184471
35 *2898:A *664:54 2.29895e-05
36 *103:10 *664:54 0.000169878
37 *143:8 *664:10 3.31683e-05
38 *143:8 *664:28 0.000140944
39 *264:20 *664:43 0
40 *264:20 *664:54 0
41 *288:10 *664:82 2.21565e-05
42 *323:16 *664:95 0.000187996
43 *323:20 *664:95 0.000206946
44 *323:24 *664:82 9.67842e-05
45 *323:24 *664:95 5.3304e-05
46 *323:28 *664:82 0.000139647
47 *325:34 *664:95 1.12487e-05
48 *329:96 *2501:A0 3.46673e-05
49 *329:105 *2501:A0 1.59094e-05
50 *329:107 *664:10 0
51 *333:46 *664:95 0.000100625
52 *334:16 *2501:A0 0.000101708
53 *334:16 *664:54 6.48049e-05
54 *340:16 *2501:A0 7.76364e-06
55 *340:16 *664:43 0.000125013
56 *340:16 *664:54 0.000120807
57 *340:24 *664:10 0
58 *345:12 *2584:A1 0.00024446
59 *345:117 *664:28 0
60 *361:10 *664:28 0
61 *361:10 *664:43 0
62 *376:27 *664:54 3.0647e-05
63 *384:10 *664:54 6.43149e-05
64 *408:6 *664:82 2.02872e-05
65 *456:10 *2593:A1 0.000130353
66 *464:27 *664:10 8.4047e-05
67 *464:27 *664:14 1.6318e-05
68 *464:27 *664:28 5.24393e-05
69 *480:31 *2501:A0 2.93845e-05
70 *488:20 *2520:A1 3.16784e-05
71 *488:35 *2520:A1 6.15314e-05
72 *488:35 *664:82 8.08199e-05
73 *531:10 *2501:A0 8.62783e-05
74 *634:170 *2501:A0 3.29068e-05
75 *642:54 *664:28 7.20415e-05
76 *642:64 *664:10 2.24973e-05
77 *644:82 *664:54 6.08032e-05
*RES
1 *2855:X *664:4 23 
2 *664:4 *664:10 18.8321 
3 *664:10 *664:14 21.815 
4 *664:14 *2557:A1 27.4329 
5 *664:14 *2548:A0 23 
6 *664:10 *664:28 6.13143 
7 *664:28 *2584:A1 42.5986 
8 *664:28 *664:43 5.77929 
9 *664:43 *2610:A1 41.48 
10 *664:43 *664:54 9.65286 
11 *664:54 *664:56 15 
12 *664:56 *2520:A1 34.1029 
13 *664:56 *2538:A1 23 
14 *664:56 *664:82 45.7014 
15 *664:82 *2471:A1 23 
16 *664:82 *664:95 35.9657 
17 *664:95 *2481:A1 23 
18 *664:54 *2501:A0 46.3686 
19 *664:4 *2593:A1 28.8621 
*END

*D_NET *665 0.0111448
*CONN
*I *2529:A1 I *D sky130_fd_sc_hd__mux2_1
*I *2601:A0 I *D sky130_fd_sc_hd__mux2_1
*I *2491:A1 I *D sky130_fd_sc_hd__mux2_1
*I *2511:A1 I *D sky130_fd_sc_hd__mux2_1
*I *2575:A0 I *D sky130_fd_sc_hd__mux2_1
*I *2566:A1 I *D sky130_fd_sc_hd__mux2_1
*I *2856:X O *D sky130_fd_sc_hd__buf_1
*CAP
1 *2529:A1 0
2 *2601:A0 0
3 *2491:A1 0
4 *2511:A1 4.23557e-05
5 *2575:A0 8.04583e-05
6 *2566:A1 0.000307477
7 *2856:X 0.000161691
8 *665:85 0.0001459
9 *665:74 0.000603748
10 *665:57 0.000998716
11 *665:46 0.00070342
12 *665:12 0.000427243
13 *665:10 0.000719464
14 *665:6 0.00072165
15 *2511:A1 *2511:A0 2.64616e-05
16 *2566:A1 *685:10 0.000178517
17 *2575:A0 *685:10 0.000110042
18 *665:74 *670:64 0.000366327
19 *2425:A1 *665:85 6.00136e-06
20 *2529:S *665:85 1.14452e-05
21 *2575:A1 *2575:A0 3.03065e-05
22 *2601:S *665:74 0.000656764
23 *2871:A *665:74 0.000226306
24 *2878:A *665:74 9.41704e-05
25 *2958:A *2575:A0 6.93242e-05
26 *2958:A *665:6 8.34394e-05
27 *2958:A *665:10 0.000515886
28 *79:8 *665:46 0.000110922
29 *286:14 *665:85 0.000210473
30 *327:99 *665:57 3.70187e-05
31 *327:99 *665:74 0.000854462
32 *327:103 *665:46 0
33 *327:103 *665:57 0.000388243
34 *331:48 *665:57 0.000123985
35 *331:94 *2511:A1 9.67842e-05
36 *333:98 *665:85 0.000286001
37 *338:18 *2566:A1 2.82089e-05
38 *338:18 *665:12 8.13209e-06
39 *338:18 *665:46 0.000118877
40 *338:18 *665:57 0
41 *339:134 *665:74 0.000104531
42 *349:58 *665:74 0.000218943
43 *349:64 *665:57 0.000422369
44 *349:64 *665:74 0.000635519
45 *440:27 *2566:A1 2.70047e-05
46 *608:12 *2511:A1 7.53384e-06
47 *608:12 *2575:A0 5.58152e-06
48 *608:12 *665:12 1.03654e-05
49 *608:12 *665:46 0.000106929
50 *634:52 *665:85 0
51 *647:122 *2566:A1 5.58473e-05
*RES
1 *2856:X *665:6 25.0507 
2 *665:6 *665:10 20.8621 
3 *665:10 *665:12 0.673214 
4 *665:12 *2566:A1 42.5261 
5 *665:12 *2575:A0 41.0346 
6 *665:10 *665:46 6.17286 
7 *665:46 *2511:A1 39.0979 
8 *665:46 *665:57 11.4136 
9 *665:57 *2491:A1 38 
10 *665:57 *665:74 36.2529 
11 *665:74 *2601:A0 23 
12 *665:6 *665:85 34.0186 
13 *665:85 *2529:A1 23 
*END

*D_NET *666 0.0165385
*CONN
*I *2480:A1 I *D sky130_fd_sc_hd__mux2_1
*I *2470:A1 I *D sky130_fd_sc_hd__mux2_1
*I *2510:A1 I *D sky130_fd_sc_hd__mux2_1
*I *2528:A1 I *D sky130_fd_sc_hd__mux2_1
*I *2574:A0 I *D sky130_fd_sc_hd__mux2_1
*I *2565:A1 I *D sky130_fd_sc_hd__mux2_1
*I *2592:A1 I *D sky130_fd_sc_hd__mux2_1
*I *2583:A1 I *D sky130_fd_sc_hd__mux2_1
*I *2556:A1 I *D sky130_fd_sc_hd__mux2_1
*I *2547:A0 I *D sky130_fd_sc_hd__mux2_1
*I *2857:X O *D sky130_fd_sc_hd__clkbuf_2
*CAP
1 *2480:A1 0
2 *2470:A1 2.84996e-05
3 *2510:A1 0
4 *2528:A1 0
5 *2574:A0 0
6 *2565:A1 0
7 *2592:A1 0
8 *2583:A1 0
9 *2556:A1 0
10 *2547:A0 0
11 *2857:X 0.000129767
12 *666:119 0.000318822
13 *666:106 0.000881809
14 *666:93 0.000859872
15 *666:86 0.00100186
16 *666:69 0.000918604
17 *666:60 0.000437505
18 *666:45 0.000493237
19 *666:30 0.000604966
20 *666:28 0.00103456
21 *666:20 0.00117653
22 *666:14 0.000631216
23 *666:8 0.000311907
24 *666:28 *667:38 0.000274467
25 *2480:A0 *666:14 5.70419e-05
26 *2480:A0 *666:20 1.76557e-05
27 *2480:S *666:14 1.14154e-05
28 *2509:A *666:119 0
29 *2556:A0 *666:45 0.00015605
30 *2574:A1 *666:93 3.22879e-05
31 *2574:A1 *666:106 2.93747e-05
32 *2583:S *666:28 8.51049e-05
33 *2583:S *666:60 3.95363e-05
34 *2657:CLK *666:119 0.000306338
35 *2673:CLK *666:106 5.50049e-05
36 *2673:D *666:106 1.74843e-05
37 *2875:A *666:86 2.02872e-05
38 *2940:A *666:106 0.000691496
39 *126:10 *666:86 2.02872e-05
40 *158:8 *666:28 0.000126738
41 *323:96 *2470:A1 5.50106e-05
42 *325:67 *666:14 0.00023032
43 *325:77 *666:14 2.4754e-05
44 *325:77 *666:20 0.000264794
45 *327:49 *666:28 0
46 *332:153 *666:86 0
47 *333:12 *666:106 0.000389931
48 *336:51 *666:69 2.4754e-05
49 *336:51 *666:86 1.22822e-05
50 *336:57 *666:28 8.51049e-05
51 *337:26 *666:86 0
52 *337:79 *666:86 0.000185428
53 *338:145 *666:86 5.67058e-05
54 *338:145 *666:93 2.18409e-05
55 *339:110 *666:45 0.000323803
56 *341:8 *666:86 0.000126114
57 *341:24 *666:60 7.75141e-05
58 *341:24 *666:69 0.000433252
59 *341:24 *666:86 5.67058e-05
60 *341:34 *666:30 6.68822e-05
61 *341:34 *666:45 0.000441076
62 *341:34 *666:60 6.17437e-06
63 *341:101 *666:119 2.29192e-05
64 *358:74 *666:45 0.000218952
65 *359:55 *666:86 0.000131444
66 *359:66 *666:86 0.000187986
67 *359:112 *666:20 0.000134269
68 *359:112 *666:28 8.40914e-05
69 *367:14 *666:106 0.000181125
70 *399:14 *666:20 0.000162463
71 *399:14 *666:28 2.70366e-05
72 *439:16 *666:93 2.13733e-05
73 *439:16 *666:106 5.42229e-05
74 *447:8 *666:86 0.000449714
75 *463:10 *666:28 8.57765e-05
76 *517:10 *666:106 0.000288512
77 *536:8 *666:20 8.62876e-05
78 *558:8 *666:8 0
79 *585:10 *666:69 0.000156994
80 *585:10 *666:86 0.000185428
81 *611:8 *666:86 6.38844e-05
82 *633:127 *666:28 0
83 *639:143 *666:45 0
84 *643:145 *2470:A1 1.32314e-05
85 *643:145 *666:28 0.000299187
86 *648:111 *666:106 3.14055e-05
*RES
1 *2857:X *666:8 40.2579 
2 *666:8 *666:14 20.4064 
3 *666:14 *666:20 26.165 
4 *666:20 *666:28 30.7014 
5 *666:28 *666:30 1.57429 
6 *666:30 *2547:A0 23 
7 *666:30 *666:45 42.5943 
8 *666:45 *2556:A1 23 
9 *666:28 *666:60 4.16357 
10 *666:60 *2583:A1 23 
11 *666:60 *666:69 5.88286 
12 *666:69 *2592:A1 23 
13 *666:69 *666:86 47.9179 
14 *666:86 *2565:A1 23 
15 *666:86 *666:93 4.90929 
16 *666:93 *2574:A0 23 
17 *666:93 *666:106 45.5771 
18 *666:106 *2528:A1 23 
19 *666:106 *666:119 34.6814 
20 *666:119 *2510:A1 23 
21 *666:20 *2470:A1 38.6214 
22 *666:14 *2480:A1 23 
*END

*D_NET *667 0.0100415
*CONN
*I *2609:A1 I *D sky130_fd_sc_hd__mux2_1
*I *2537:A1 I *D sky130_fd_sc_hd__mux2_1
*I *2500:A0 I *D sky130_fd_sc_hd__mux2_1
*I *2519:A1 I *D sky130_fd_sc_hd__mux2_1
*I *2490:A1 I *D sky130_fd_sc_hd__mux2_1
*I *2600:A0 I *D sky130_fd_sc_hd__mux2_1
*I *2858:X O *D sky130_fd_sc_hd__buf_1
*CAP
1 *2609:A1 6.06047e-05
2 *2537:A1 7.90141e-05
3 *2500:A0 0
4 *2519:A1 0.000176304
5 *2490:A1 0
6 *2600:A0 0
7 *2858:X 0.000301583
8 *667:51 0.00032443
9 *667:38 0.000509967
10 *667:30 0.00118358
11 *667:24 0.00103494
12 *667:14 0.000723978
13 *667:10 0.000497706
14 *667:38 *677:87 0
15 *667:51 *670:78 0.00026506
16 *2420:A2 *667:30 1.01712e-05
17 *2421:A2 *667:24 0.000183733
18 *2500:A1 *667:24 9.0102e-05
19 *2500:A1 *667:30 2.93747e-05
20 *2537:A0 *2537:A1 5.67058e-05
21 *2609:S *2609:A1 0.000140958
22 *2609:S *667:14 0.000245294
23 *264:20 *2609:A1 4.06512e-05
24 *264:20 *667:14 7.03317e-05
25 *282:10 *667:24 0.00025304
26 *282:10 *667:30 0.000310641
27 *283:8 *667:24 5.67058e-05
28 *284:12 *667:24 2.12347e-06
29 *323:62 *667:30 3.16702e-05
30 *327:26 *2519:A1 0.000314699
31 *327:26 *2537:A1 0.000171296
32 *327:26 *667:24 0.000479335
33 *327:34 *667:51 3.35885e-05
34 *332:18 *667:30 9.50292e-05
35 *332:28 *2519:A1 0.000313249
36 *332:28 *667:51 2.18506e-05
37 *342:67 *667:24 0.00027578
38 *383:12 *667:24 0.00010018
39 *383:25 *667:14 1.3822e-05
40 *383:25 *667:24 8.264e-05
41 *391:10 *667:38 8.62783e-05
42 *399:14 *667:38 3.7122e-06
43 *407:8 *667:38 5.55278e-05
44 *407:18 *667:30 2.81406e-06
45 *407:18 *667:51 2.60152e-05
46 *415:10 *667:30 1.59094e-05
47 *415:10 *667:38 7.51675e-05
48 *415:18 *667:51 9.03784e-05
49 *487:8 *667:10 0.000228903
50 *540:18 *667:10 0.000232654
51 *587:8 *667:24 0.000113685
52 *604:10 *667:38 6.38845e-05
53 *633:127 *667:38 1.02387e-05
54 *643:145 *2519:A1 4.04206e-05
55 *643:145 *667:38 8.62876e-05
56 *643:145 *667:51 5.50106e-05
57 *666:28 *667:38 0.000274467
*RES
1 *2858:X *667:10 45.3121 
2 *667:10 *667:14 18.3143 
3 *667:14 *667:24 43.3607 
4 *667:24 *667:30 9.36286 
5 *667:30 *667:38 39.0314 
6 *667:38 *2600:A0 23 
7 *667:30 *667:51 34.2879 
8 *667:51 *2490:A1 23 
9 *667:51 *2519:A1 28.8829 
10 *667:24 *2500:A0 23 
11 *667:14 *2537:A1 25.0507 
12 *667:10 *2609:A1 39.9057 
*END

*D_NET *668 0.0160358
*CONN
*I *2730:CLK I *D sky130_fd_sc_hd__dfstp_1
*I *2618:CLK I *D sky130_fd_sc_hd__dfrtp_1
*I *2721:CLK I *D sky130_fd_sc_hd__dfstp_1
*I *2734:CLK I *D sky130_fd_sc_hd__dfrtp_1
*I *2735:CLK I *D sky130_fd_sc_hd__dfrtp_4
*I *2733:CLK I *D sky130_fd_sc_hd__dfrtp_1
*I *2732:CLK I *D sky130_fd_sc_hd__dfrtp_1
*I *2736:CLK I *D sky130_fd_sc_hd__dfrtp_1
*I *2731:CLK I *D sky130_fd_sc_hd__dfrtp_1
*I *2621:CLK I *D sky130_fd_sc_hd__dfrtp_1
*I *2859:X O *D sky130_fd_sc_hd__clkbuf_2
*CAP
1 *2730:CLK 0
2 *2618:CLK 0
3 *2721:CLK 0
4 *2734:CLK 0
5 *2735:CLK 0
6 *2733:CLK 0.000355343
7 *2732:CLK 9.08798e-05
8 *2736:CLK 0
9 *2731:CLK 4.24211e-05
10 *2621:CLK 0.000175022
11 *2859:X 9.31253e-05
12 *668:125 0.000107117
13 *668:119 0.000186448
14 *668:112 0.000832454
15 *668:79 0.000548059
16 *668:77 0.000945924
17 *668:69 0.0010427
18 *668:57 0.000198612
19 *668:55 0.00146703
20 *668:26 0.000990137
21 *668:20 0.00141939
22 *668:16 0.0016122
23 *668:10 0.000251593
24 *668:8 9.31253e-05
25 *2621:CLK *669:34 0
26 *2733:CLK *2733:D 5.41385e-05
27 *2733:CLK *710:10 0.000141869
28 *2733:CLK *720:48 5.20613e-05
29 *668:16 *2736:RESET_B 0.000123385
30 *668:20 *2736:D 1.40958e-05
31 *668:20 *2736:RESET_B 0.000225874
32 *668:26 *2736:D 8.1796e-05
33 *668:26 *2736:RESET_B 8.67371e-05
34 *668:26 *669:87 0
35 *668:26 *715:10 3.7122e-06
36 *668:55 *713:8 0.000184816
37 *668:69 *2735:D 5.3304e-05
38 *668:69 *708:40 2.71291e-05
39 *668:69 *713:8 1.58805e-05
40 *668:77 *705:12 0.000184392
41 *668:77 *708:40 0.000108681
42 *668:112 *2734:RESET_B 2.62973e-05
43 *668:112 *672:16 0.000118143
44 *668:112 *672:30 1.8561e-06
45 *668:112 *708:40 0
46 *668:112 *712:10 0
47 *668:112 *756:20 0
48 *668:119 *672:16 4.75206e-05
49 *668:125 *673:30 0
50 *668:125 *756:20 9.98995e-05
51 *2333:B *668:16 0.000143655
52 *2336:B *668:20 0.000128391
53 *2394:B1 *2733:CLK 0
54 *2406:A1 *668:77 0.000136743
55 *2406:A2 *668:77 5.3304e-05
56 *2417:B *668:77 0.00014196
57 *213:10 *668:55 0
58 *214:16 *668:55 0
59 *215:8 *668:55 0
60 *216:8 *668:8 0
61 *217:8 *668:55 0.000154704
62 *217:14 *668:55 1.97329e-05
63 *227:42 *668:8 0.000166513
64 *229:6 *668:77 8.52481e-05
65 *229:19 *668:77 4.08641e-05
66 *265:14 *668:26 0.000213551
67 *269:14 *2733:CLK 3.5471e-05
68 *273:14 *668:77 6.7177e-06
69 *273:47 *668:112 0.00018036
70 *275:12 *668:77 1.94812e-05
71 *276:12 *668:112 0.000138159
72 *327:118 *2621:CLK 0
73 *327:118 *668:26 0
74 *363:10 *2733:CLK 0
75 *363:10 *668:79 0
76 *542:10 *2621:CLK 0
77 *551:18 *668:69 0.000208328
78 *551:26 *2732:CLK 0.000191335
79 *634:24 *668:69 7.59794e-05
80 *634:36 *668:77 0.000528019
81 *634:146 *668:26 0.000194318
82 *637:172 *668:55 0
83 *637:172 *668:112 0
84 *639:49 *668:26 0.000220047
85 *640:14 *2733:CLK 0.000165412
86 *642:12 *2733:CLK 0
87 *642:99 *2733:CLK 0.000331064
88 *642:99 *668:26 5.40866e-05
89 *642:99 *668:79 0.000133316
90 *642:101 *2621:CLK 7.66085e-05
91 *642:101 *668:26 6.43253e-05
92 *647:12 *668:26 2.49836e-05
*RES
1 *2859:X *668:8 40.2579 
2 *668:8 *668:10 15 
3 *668:10 *668:16 6.02786 
4 *668:16 *668:20 12.5529 
5 *668:20 *668:26 32.4414 
6 *668:26 *2621:CLK 41.5836 
7 *668:26 *2731:CLK 38.6214 
8 *668:20 *2736:CLK 23 
9 *668:16 *668:55 29.5829 
10 *668:55 *668:57 15 
11 *668:57 *668:69 48.9979 
12 *668:69 *668:77 48.85 
13 *668:77 *668:79 1.90571 
14 *668:79 *2732:CLK 40.5479 
15 *668:79 *2733:CLK 46.5343 
16 *668:57 *2735:CLK 23 
17 *668:55 *668:112 30.7221 
18 *668:112 *2734:CLK 23 
19 *668:112 *668:119 1.57429 
20 *668:119 *668:125 32.61 
21 *668:125 *2721:CLK 23 
22 *668:119 *2618:CLK 23 
23 *668:10 *2730:CLK 23 
*END

*D_NET *669 0.030363
*CONN
*I *2859:A I *D sky130_fd_sc_hd__clkbuf_2
*I *2765:CLK I *D sky130_fd_sc_hd__dfrtp_1
*I *2764:CLK I *D sky130_fd_sc_hd__dfrtp_1
*I *2759:CLK I *D sky130_fd_sc_hd__dfrtp_1
*I *2737:CLK I *D sky130_fd_sc_hd__dfrtp_1
*I *2620:CLK I *D sky130_fd_sc_hd__dfrtp_1
*I *2622:CLK I *D sky130_fd_sc_hd__dfrtp_1
*I *2624:CLK I *D sky130_fd_sc_hd__dfrtp_1
*I *2860:X O *D sky130_fd_sc_hd__buf_2
*CAP
1 *2859:A 0
2 *2765:CLK 3.8045e-05
3 *2764:CLK 0.000139429
4 *2759:CLK 0.000617203
5 *2737:CLK 0
6 *2620:CLK 2.34823e-05
7 *2622:CLK 0
8 *2624:CLK 6.17609e-05
9 *2860:X 0.000415147
10 *669:106 0.000876375
11 *669:100 0.000471517
12 *669:87 0.00122943
13 *669:56 0.00153192
14 *669:50 0.00264998
15 *669:44 0.00216925
16 *669:40 0.00217618
17 *669:34 0.00213903
18 *669:28 0.00338181
19 *669:14 0.00156104
20 *669:10 0.000438866
21 *2759:CLK *2491:A0 5.30121e-05
22 *2759:CLK *2759:D 2.64616e-05
23 *2759:CLK *672:76 8.08139e-06
24 *2764:CLK *2759:RESET_B 2.62973e-05
25 *2764:CLK *2764:D 5.67058e-05
26 *2764:CLK *672:66 6.93242e-05
27 *2764:CLK *672:76 3.17209e-05
28 *2765:CLK *2765:D 0.00010018
29 *669:10 *2730:SET_B 0
30 *669:10 *673:8 9.84851e-05
31 *669:28 *2842:A 0.000185428
32 *669:28 *719:10 0.000320413
33 *669:40 *678:12 0.000466582
34 *669:44 *2620:RESET_B 1.53169e-05
35 *669:44 *678:12 0.000141019
36 *669:44 *678:26 7.7149e-05
37 *669:50 *2622:RESET_B 2.56078e-05
38 *669:50 *678:26 0.000455202
39 *669:106 *672:76 6.4393e-05
40 *669:106 *721:8 0
41 *669:106 *724:12 3.07161e-05
42 *669:106 *749:8 9.28739e-05
43 *2347:C *669:10 6.16439e-05
44 *2348:B1 *669:10 0.000139352
45 *2349:C *669:28 0
46 *2363:A1 *669:14 5.50049e-05
47 *2363:A1 *669:28 0.000114798
48 *2404:B *669:28 5.50106e-05
49 *2596:A0 *669:40 0.000210959
50 *2596:S *669:40 0.000182832
51 *2621:CLK *669:34 0
52 *2814:A *669:34 1.12487e-05
53 *2886:A *669:40 0.000119467
54 *45:10 *669:56 0.000140949
55 *113:10 *669:56 0
56 *214:34 *669:10 0.000112717
57 *227:42 *669:10 0.000181532
58 *228:10 *669:10 3.70187e-05
59 *230:14 *669:10 1.40958e-05
60 *231:10 *669:10 8.01363e-05
61 *232:12 *669:28 0.000223665
62 *265:6 *669:28 9.58714e-05
63 *267:10 *669:87 0.000165054
64 *306:8 *669:34 0.000141879
65 *323:151 *669:56 0.000188926
66 *327:69 *669:56 0.000786571
67 *327:118 *669:34 6.36037e-05
68 *327:118 *669:87 0.000175882
69 *338:117 *2624:CLK 9.88574e-06
70 *338:123 *2624:CLK 1.94812e-05
71 *339:36 *669:56 0
72 *343:10 *669:10 0.000141879
73 *348:10 *669:34 2.70366e-05
74 *348:32 *669:34 7.91596e-05
75 *348:63 *669:34 3.3123e-05
76 *354:30 *669:56 0.000179702
77 *354:32 *669:56 0.000242404
78 *363:10 *669:87 0.000442958
79 *363:10 *669:100 0.000216793
80 *542:10 *669:34 8.62876e-05
81 *579:10 *669:56 0
82 *634:36 *669:87 0.000135547
83 *634:52 *669:34 0.000134698
84 *634:52 *669:87 0.000277816
85 *634:60 *669:34 0.000377181
86 *634:115 *669:56 0
87 *634:146 *669:28 0
88 *634:168 *669:87 0.000638175
89 *634:168 *669:100 0.00044292
90 *637:121 *669:56 0.000127525
91 *639:59 *669:34 0
92 *639:67 *669:34 0
93 *639:109 *669:56 0
94 *642:74 *2624:CLK 9.67842e-05
95 *642:99 *669:87 0
96 *644:23 *2765:CLK 4.66047e-05
97 *644:23 *669:100 0.000136851
98 *645:121 *669:56 0
99 *647:101 *669:87 6.97747e-05
100 *647:133 *669:34 0
101 *648:74 *2765:CLK 7.06229e-05
102 *648:74 *669:100 9.13962e-05
103 *650:6 *669:28 0.000225393
104 *650:20 *669:28 0.000292459
105 *650:20 *669:34 9.68547e-05
106 *668:26 *669:87 0
*RES
1 *2860:X *669:10 48.3157 
2 *669:10 *669:14 15.6214 
3 *669:14 *669:28 31.8379 
4 *669:28 *669:34 35.0514 
5 *669:34 *669:40 38.0343 
6 *669:40 *669:44 13.9821 
7 *669:44 *669:50 22.2264 
8 *669:50 *669:56 47.5836 
9 *669:56 *2624:CLK 39.595 
10 *669:50 *2622:CLK 23 
11 *669:44 *2620:CLK 23.4971 
12 *669:28 *669:87 41.0379 
13 *669:87 *2737:CLK 38 
14 *669:87 *669:100 24.135 
15 *669:100 *669:106 32.9621 
16 *669:106 *2759:CLK 31.6586 
17 *669:106 *2764:CLK 26.6457 
18 *669:100 *2765:CLK 25.0507 
19 *669:14 *2859:A 23 
*END

*D_NET *670 0.0281079
*CONN
*I *2739:CLK I *D sky130_fd_sc_hd__dfrtp_1
*I *2763:CLK I *D sky130_fd_sc_hd__dfrtp_1
*I *2766:CLK I *D sky130_fd_sc_hd__dfrtp_1
*I *2738:CLK I *D sky130_fd_sc_hd__dfrtp_1
*I *2761:CLK I *D sky130_fd_sc_hd__dfrtp_1
*I *2619:CLK I *D sky130_fd_sc_hd__dfrtp_1
*I *2617:CLK I *D sky130_fd_sc_hd__dfrtp_1
*I *2623:CLK I *D sky130_fd_sc_hd__dfrtp_1
*I *2760:CLK I *D sky130_fd_sc_hd__dfrtp_1
*I *2762:CLK I *D sky130_fd_sc_hd__dfrtp_1
*I *2861:X O *D sky130_fd_sc_hd__buf_2
*CAP
1 *2739:CLK 0.000306345
2 *2763:CLK 0
3 *2766:CLK 0
4 *2738:CLK 6.09002e-05
5 *2761:CLK 0
6 *2619:CLK 0
7 *2617:CLK 0.000189202
8 *2623:CLK 0
9 *2760:CLK 1.71129e-05
10 *2762:CLK 0
11 *2861:X 0.000198345
12 *670:117 0.000403575
13 *670:90 0.000493102
14 *670:80 0.000682304
15 *670:78 0.00120362
16 *670:74 0.00197798
17 *670:64 0.0032727
18 *670:58 0.00301858
19 *670:45 0.00102692
20 *670:41 0.00134336
21 *670:35 0.000967461
22 *670:29 0.00057815
23 *670:27 0.000828349
24 *670:19 0.00119991
25 *670:10 0.000263563
26 *2739:CLK *675:96 0.000247074
27 *2739:CLK *677:23 0.000103647
28 *2739:CLK *722:19 0
29 *2739:CLK *743:10 7.41231e-05
30 *2760:CLK *2760:D 2.22079e-05
31 *670:10 *675:10 6.74969e-06
32 *670:10 *675:96 4.32475e-05
33 *670:10 *722:19 0
34 *670:10 *743:10 4.21594e-06
35 *670:10 *752:8 8.62876e-05
36 *670:19 *675:96 6.42902e-05
37 *670:19 *743:10 4.5882e-05
38 *670:27 *2746:RESET_B 0
39 *670:27 *2763:D 4.3407e-05
40 *670:27 *733:8 3.71251e-05
41 *670:35 *2761:RESET_B 0.0001094
42 *670:35 *2763:RESET_B 0.000202663
43 *670:35 *750:10 0.000195638
44 *670:41 *717:10 0
45 *670:41 *750:10 1.44546e-05
46 *670:58 *2760:D 4.06408e-05
47 *670:58 *744:16 0.000195248
48 *670:64 *2619:RESET_B 0
49 *670:74 *2619:RESET_B 7.06491e-05
50 *670:74 *677:87 0.000269668
51 *670:78 *677:87 0
52 *670:90 *2623:RESET_B 2.21344e-05
53 *670:90 *677:87 5.95012e-05
54 *670:117 *2756:RESET_B 9.54129e-05
55 *670:117 *2760:D 0.000491534
56 *670:117 *675:32 0.000103647
57 *670:117 *741:8 0.000182832
58 *670:117 *744:16 0.000493765
59 *2418:S0 *670:78 3.47781e-05
60 *2601:A1 *670:64 0.00018282
61 *2601:S *670:64 7.55599e-05
62 *2801:A *670:27 9.8971e-06
63 *2817:A *670:35 0.00014196
64 *2871:A *670:64 0.000226306
65 *2878:A *670:64 0.000221084
66 *44:10 *670:90 7.44354e-05
67 *142:8 *670:78 5.45887e-05
68 *150:12 *670:78 7.76364e-06
69 *264:39 *2617:CLK 0.00023668
70 *316:14 *2617:CLK 8.60475e-05
71 *316:14 *670:78 0.000493305
72 *316:14 *670:90 9.67842e-05
73 *323:74 *670:78 0
74 *345:72 *670:74 0.000186708
75 *345:94 *670:74 0.000117592
76 *351:10 *670:27 5.72217e-05
77 *351:22 *670:35 1.83667e-05
78 *351:24 *670:35 0.000111138
79 *351:26 *670:35 0.000207334
80 *351:26 *670:41 8.51329e-05
81 *351:41 *670:41 5.41385e-05
82 *415:18 *670:78 0.000161073
83 *455:25 *670:74 2.02872e-05
84 *455:25 *670:78 0
85 *471:8 *670:74 4.38756e-05
86 *558:8 *670:78 0
87 *585:10 *670:78 2.33476e-05
88 *588:10 *670:64 0.000267386
89 *631:14 *2617:CLK 0.000156058
90 *633:14 *670:64 2.64616e-05
91 *633:14 *670:117 4.67488e-05
92 *633:18 *2760:CLK 6.70363e-05
93 *633:18 *670:58 0.000315538
94 *633:127 *670:74 0.00105039
95 *634:168 *670:45 4.93809e-05
96 *643:126 *670:78 0
97 *646:82 *670:74 9.41704e-05
98 *646:103 *670:78 0.00101822
99 *665:74 *670:64 0.000366327
100 *667:51 *670:78 0.00026506
*RES
1 *2861:X *670:10 41.3557 
2 *670:10 *2762:CLK 38 
3 *670:10 *670:19 1.90571 
4 *670:19 *670:27 41.5793 
5 *670:27 *670:29 15 
6 *670:29 *670:35 31.3643 
7 *670:35 *670:41 21.2143 
8 *670:41 *670:45 26.5793 
9 *670:45 *2760:CLK 38.8493 
10 *670:45 *670:58 19.3707 
11 *670:58 *670:64 43.065 
12 *670:64 *670:74 49.7614 
13 *670:74 *670:78 43.3164 
14 *670:78 *670:80 15 
15 *670:80 *670:90 39.4457 
16 *670:90 *2623:CLK 23 
17 *670:80 *2617:CLK 29.3386 
18 *670:64 *2619:CLK 23 
19 *670:58 *670:117 42.4907 
20 *670:117 *2761:CLK 23 
21 *670:41 *2738:CLK 24.4707 
22 *670:35 *2766:CLK 38 
23 *670:29 *2763:CLK 23 
24 *670:19 *2739:CLK 46.5343 
*END

*D_NET *671 0.00116513
*CONN
*I *2296:A I *D sky130_fd_sc_hd__inv_2
*I *3021:X O *D sky130_fd_sc_hd__clkbuf_1
*CAP
1 *2296:A 0
2 *3021:X 0.000501037
3 *671:10 0.000501037
4 *3020:A *671:10 3.31127e-05
5 *3022:A *671:10 0
6 *206:10 *671:10 0
7 *660:10 *671:10 0.000129944
*RES
1 *3021:X *671:10 47.9636 
2 *671:10 *2296:A 38 
*END

*D_NET *672 0.0130352
*CONN
*I *2721:SET_B I *D sky130_fd_sc_hd__dfstp_1
*I *2618:RESET_B I *D sky130_fd_sc_hd__dfrtp_1
*I *2734:RESET_B I *D sky130_fd_sc_hd__dfrtp_1
*I *2759:RESET_B I *D sky130_fd_sc_hd__dfrtp_1
*I *2737:RESET_B I *D sky130_fd_sc_hd__dfrtp_1
*I *2770:RESET_B I *D sky130_fd_sc_hd__dfrtp_1
*I *2764:RESET_B I *D sky130_fd_sc_hd__dfrtp_1
*I *2733:RESET_B I *D sky130_fd_sc_hd__dfrtp_1
*I *2732:RESET_B I *D sky130_fd_sc_hd__dfrtp_1
*I *2765:RESET_B I *D sky130_fd_sc_hd__dfrtp_1
*I *2862:X O *D sky130_fd_sc_hd__clkbuf_4
*CAP
1 *2721:SET_B 0
2 *2618:RESET_B 0.000128649
3 *2734:RESET_B 3.43539e-05
4 *2759:RESET_B 3.43539e-05
5 *2737:RESET_B 0.000428908
6 *2770:RESET_B 1.33477e-05
7 *2764:RESET_B 0.000748415
8 *2733:RESET_B 0
9 *2732:RESET_B 0.000379771
10 *2765:RESET_B 4.08008e-05
11 *2862:X 9.41873e-05
12 *672:76 0.000949231
13 *672:66 0.00112728
14 *672:40 0.000812216
15 *672:38 0.00059491
16 *672:30 0.00105257
17 *672:16 0.00187101
18 *672:14 0.00103997
19 *672:10 0.000180613
20 *2732:RESET_B *2837:A 0
21 *2732:RESET_B *705:40 0
22 *2732:RESET_B *720:18 0.000344898
23 *2732:RESET_B *753:10 0.000206266
24 *2737:RESET_B *2430:S 2.46803e-05
25 *2764:RESET_B *753:10 5.31444e-05
26 *2770:RESET_B *2430:S 1.27153e-05
27 *672:10 *673:30 5.3304e-05
28 *672:10 *678:50 0.000114074
29 *672:10 *739:10 5.20202e-05
30 *672:14 *678:50 0.000336457
31 *672:14 *739:10 0.000173681
32 *672:30 *707:6 6.53285e-05
33 *672:30 *707:21 0
34 *672:30 *753:10 0
35 *672:30 *754:8 7.70046e-05
36 *672:30 *754:10 5.36457e-05
37 *672:30 *755:14 0
38 *672:40 *2837:A 0
39 *672:40 *753:10 0.000341267
40 *672:66 *2412:B 0.000196027
41 *672:66 *2764:D 4.94073e-05
42 *672:76 *2430:S 3.00678e-05
43 *672:76 *724:12 0.000400895
44 *2759:CLK *672:76 8.08139e-06
45 *2764:CLK *2759:RESET_B 2.62973e-05
46 *2764:CLK *672:66 6.93242e-05
47 *2764:CLK *672:76 3.17209e-05
48 *268:35 *672:40 2.71291e-05
49 *291:10 *2737:RESET_B 1.70831e-05
50 *333:98 *2737:RESET_B 0
51 *551:18 *2732:RESET_B 0.0002263
52 *551:26 *2732:RESET_B 6.44844e-05
53 *637:10 *672:30 5.50049e-05
54 *639:18 *2737:RESET_B 2.86109e-05
55 *640:33 *2737:RESET_B 0.000107508
56 *644:23 *2764:RESET_B 0
57 *644:23 *672:40 0
58 *648:70 *672:40 0
59 *668:112 *2734:RESET_B 2.62973e-05
60 *668:112 *672:16 0.000118143
61 *668:112 *672:30 1.8561e-06
62 *668:119 *672:16 4.75206e-05
63 *669:106 *672:76 6.4393e-05
*RES
1 *2862:X *672:10 40.175 
2 *672:10 *672:14 19.3707 
3 *672:14 *672:16 11.1029 
4 *672:16 *672:30 46.385 
5 *672:30 *2765:RESET_B 0.548929 
6 *672:30 *672:38 15 
7 *672:38 *672:40 9.30071 
8 *672:40 *2732:RESET_B 24.6632 
9 *672:40 *2733:RESET_B 15 
10 *672:38 *2764:RESET_B 17.2579 
11 *2764:RESET_B *672:66 9.4975 
12 *672:66 *672:76 39.5286 
13 *672:76 *2770:RESET_B 0.548929 
14 *672:76 *2737:RESET_B 36.5561 
15 *672:66 *2759:RESET_B 1.04607 
16 *672:16 *2734:RESET_B 1.04607 
17 *672:14 *2618:RESET_B 1.87464 
18 *672:10 *2721:SET_B 15 
*END

*D_NET *673 0.0132395
*CONN
*I *2774:RESET_B I *D sky130_fd_sc_hd__dfrtp_1
*I *2769:RESET_B I *D sky130_fd_sc_hd__dfrtp_1
*I *2731:RESET_B I *D sky130_fd_sc_hd__dfrtp_1
*I *2621:RESET_B I *D sky130_fd_sc_hd__dfrtp_1
*I *2736:RESET_B I *D sky130_fd_sc_hd__dfrtp_1
*I *2730:SET_B I *D sky130_fd_sc_hd__dfstp_1
*I *2862:A I *D sky130_fd_sc_hd__clkbuf_4
*I *2735:RESET_B I *D sky130_fd_sc_hd__dfrtp_4
*I *2863:X O *D sky130_fd_sc_hd__buf_2
*CAP
1 *2774:RESET_B 0.000159456
2 *2769:RESET_B 0.000212689
3 *2731:RESET_B 0
4 *2621:RESET_B 0.00010598
5 *2736:RESET_B 0.00179481
6 *2730:SET_B 0.00197555
7 *2862:A 0
8 *2735:RESET_B 2.34969e-05
9 *2863:X 0.000387002
10 *673:74 0.000428642
11 *673:58 0.000529842
12 *673:56 0.000480359
13 *673:30 0.00117424
14 *673:16 0.0017419
15 *673:8 0.00111191
16 *2730:SET_B *678:10 0
17 *2730:SET_B *678:50 0
18 *2735:RESET_B *708:10 5.03619e-05
19 *2736:RESET_B *2736:D 0.000185428
20 *2769:RESET_B *723:10 1.73399e-05
21 *2774:RESET_B *679:10 0
22 *673:8 *2863:A 2.65879e-05
23 *673:16 *678:50 0
24 *673:16 *708:10 0
25 *673:16 *739:10 0
26 *673:16 *739:29 7.66085e-05
27 *673:30 *708:10 0
28 *673:30 *739:10 0
29 *673:30 *756:20 0
30 *673:58 *709:10 0
31 empty *673:30 0
32 *2333:B *2736:RESET_B 7.88926e-05
33 *2336:B *2736:RESET_B 0.000128391
34 *2431:S *673:30 0.000100829
35 *39:10 *673:30 0
36 *214:34 *2730:SET_B 0
37 *214:34 *673:16 1.77821e-06
38 *228:10 *673:16 0
39 *230:14 *2730:SET_B 0.000133316
40 *291:20 *673:30 5.58152e-06
41 *518:14 *673:8 4.93223e-05
42 *551:18 *2735:RESET_B 9.18637e-05
43 *634:24 *673:30 0.000164429
44 *639:43 *2774:RESET_B 0.00024655
45 *639:43 *673:58 5.91383e-05
46 *639:43 *673:74 6.43005e-05
47 *642:99 *673:58 0
48 *642:101 *2621:RESET_B 0
49 *642:101 *673:58 0
50 *647:27 *2621:RESET_B 1.02387e-05
51 *648:8 *673:58 0.000233462
52 *648:16 *2621:RESET_B 5.20202e-05
53 *648:16 *673:58 0.000302339
54 *648:53 *2774:RESET_B 0.000124493
55 *648:53 *673:58 0.000182873
56 *648:53 *673:74 0.000139657
57 *668:16 *2736:RESET_B 0.000123385
58 *668:20 *2736:RESET_B 0.000225874
59 *668:26 *2736:RESET_B 8.67371e-05
60 *668:125 *673:30 0
61 *669:10 *2730:SET_B 0
62 *669:10 *673:8 9.84851e-05
63 *672:10 *673:30 5.3304e-05
*RES
1 *2863:X *673:8 43.3857 
2 *673:8 *673:16 10.5746 
3 *673:16 *2735:RESET_B 16.0254 
4 *673:16 *673:30 36.9571 
5 *673:30 *2862:A 23 
6 *673:8 *2730:SET_B 18.3661 
7 *2730:SET_B *2736:RESET_B 26.0586 
8 *2736:RESET_B *673:56 15 
9 *673:56 *673:58 9.65286 
10 *673:58 *2621:RESET_B 17.5271 
11 *673:58 *2731:RESET_B 15 
12 *673:56 *673:74 1.90571 
13 *673:74 *2769:RESET_B 18.4075 
14 *673:74 *2774:RESET_B 19.785 
*END

*D_NET *674 0.0108308
*CONN
*I *2739:RESET_B I *D sky130_fd_sc_hd__dfrtp_1
*I *2762:RESET_B I *D sky130_fd_sc_hd__dfrtp_1
*I *2767:RESET_B I *D sky130_fd_sc_hd__dfrtp_2
*I *2768:RESET_B I *D sky130_fd_sc_hd__dfrtp_2
*I *2746:RESET_B I *D sky130_fd_sc_hd__dfrtp_4
*I *2763:RESET_B I *D sky130_fd_sc_hd__dfrtp_1
*I *2771:RESET_B I *D sky130_fd_sc_hd__dfrtp_1
*I *2766:RESET_B I *D sky130_fd_sc_hd__dfrtp_1
*I *2773:RESET_B I *D sky130_fd_sc_hd__dfrtp_1
*I *2738:RESET_B I *D sky130_fd_sc_hd__dfrtp_1
*I *2864:X O *D sky130_fd_sc_hd__clkbuf_4
*CAP
1 *2739:RESET_B 0.000484076
2 *2762:RESET_B 0
3 *2767:RESET_B 6.54775e-05
4 *2768:RESET_B 6.27914e-06
5 *2746:RESET_B 0.00025649
6 *2763:RESET_B 0.000162279
7 *2771:RESET_B 0
8 *2766:RESET_B 0
9 *2773:RESET_B 0.000938586
10 *2738:RESET_B 2.371e-05
11 *2864:X 0.000127901
12 *674:92 0.00078607
13 *674:81 0.000367471
14 *674:54 0.000554499
15 *674:47 0.000294895
16 *674:22 0.00116198
17 *674:18 0.000280644
18 *674:16 0.00106681
19 *674:12 0.00122339
20 *674:8 0.000518315
21 *2739:RESET_B *2778:D 0
22 *2739:RESET_B *676:23 0
23 *2739:RESET_B *678:50 0
24 *2739:RESET_B *722:19 0
25 *2739:RESET_B *727:12 8.51167e-05
26 *2746:RESET_B *2763:D 0
27 *2746:RESET_B *733:25 0
28 *2763:RESET_B *2761:RESET_B 0.000700512
29 *2763:RESET_B *2763:D 3.57857e-05
30 *2767:RESET_B *727:12 5.561e-05
31 *2767:RESET_B *739:10 5.561e-05
32 *2773:RESET_B *708:50 0.000315857
33 *674:18 *717:10 6.67764e-05
34 *674:18 *755:10 0
35 *674:22 *717:10 9.98891e-05
36 *674:22 *755:10 0
37 *674:47 *717:10 0.000123326
38 *674:47 *750:10 0
39 *674:54 *750:10 0
40 *674:92 *678:50 0
41 *674:92 *727:12 0.00022881
42 *674:92 *739:10 4.6318e-06
43 *2768:CLK *674:16 5.72217e-05
44 *351:20 *2746:RESET_B 0
45 *351:22 *2746:RESET_B 0
46 *351:26 *674:22 0
47 *351:32 *674:22 0
48 *351:41 *2738:RESET_B 2.56078e-05
49 *351:41 *2773:RESET_B 0.000305084
50 *518:40 *2768:RESET_B 1.53169e-05
51 *518:40 *674:8 5.38249e-05
52 *518:40 *674:12 4.03452e-05
53 *518:40 *674:16 3.98818e-05
54 *670:27 *2746:RESET_B 0
55 *670:35 *2763:RESET_B 0.000202663
*RES
1 *2864:X *674:8 25.5479 
2 *674:8 *674:12 5.40643 
3 *674:12 *674:16 29.9143 
4 *674:16 *674:18 1.90571 
5 *674:18 *674:22 19.0186 
6 *674:22 *2738:RESET_B 0.548929 
7 *674:22 *2773:RESET_B 15.5046 
8 *674:18 *2766:RESET_B 15 
9 *674:16 *674:47 4.01857 
10 *674:47 *2771:RESET_B 15 
11 *674:47 *674:54 1.90571 
12 *674:54 *2763:RESET_B 22.6954 
13 *674:54 *2746:RESET_B 19.785 
14 *674:12 *2768:RESET_B 0.548929 
15 *674:8 *674:81 15 
16 *674:81 *2767:RESET_B 16.5536 
17 *674:81 *674:92 6.75286 
18 *674:92 *2762:RESET_B 15 
19 *674:92 *2739:RESET_B 25.4193 
*END

*D_NET *675 0.0147456
*CONN
*I *2864:A I *D sky130_fd_sc_hd__clkbuf_4
*I *2772:RESET_B I *D sky130_fd_sc_hd__dfrtp_1
*I *2778:RESET_B I *D sky130_fd_sc_hd__dfrtp_2
*I *2775:RESET_B I *D sky130_fd_sc_hd__dfrtp_1
*I *2744:RESET_B I *D sky130_fd_sc_hd__dfrtp_1
*I *2757:RESET_B I *D sky130_fd_sc_hd__dfrtp_1
*I *2755:RESET_B I *D sky130_fd_sc_hd__dfrtp_1
*I *2760:RESET_B I *D sky130_fd_sc_hd__dfrtp_1
*I *2756:RESET_B I *D sky130_fd_sc_hd__dfrtp_1
*I *2761:RESET_B I *D sky130_fd_sc_hd__dfrtp_1
*I *2865:X O *D sky130_fd_sc_hd__clkbuf_4
*CAP
1 *2864:A 0
2 *2772:RESET_B 2.36916e-05
3 *2778:RESET_B 0.00026261
4 *2775:RESET_B 6.29757e-05
5 *2744:RESET_B 0.000557231
6 *2757:RESET_B 0
7 *2755:RESET_B 6.4452e-05
8 *2760:RESET_B 0.000146281
9 *2756:RESET_B 0.000107613
10 *2761:RESET_B 0.00168908
11 *2865:X 0
12 *675:122 0.000132663
13 *675:96 0.000950942
14 *675:68 0.000758934
15 *675:59 0.000309437
16 *675:42 0.00058475
17 *675:40 0.000544727
18 *675:32 0.000717734
19 *675:10 0.00271085
20 *675:4 0.00109991
21 *2744:RESET_B *731:21 0.00018282
22 *2744:RESET_B *744:16 0.000333296
23 *2744:RESET_B *746:14 0.000167708
24 *2755:RESET_B *740:10 5.3304e-05
25 *2760:RESET_B *740:10 0.000305491
26 *2761:RESET_B *750:10 0.000182826
27 *2778:RESET_B *726:8 9.88678e-05
28 *675:10 *752:8 0.000219873
29 *675:32 *742:10 1.14452e-05
30 *675:42 *2760:D 0
31 *675:42 *2775:D 0.000108046
32 *675:42 *740:10 2.46345e-05
33 *675:59 *2775:D 9.75372e-05
34 *675:68 *2775:D 3.71198e-05
35 *675:96 *2758:RESET_B 0
36 *675:96 *2925:A 0
37 *675:96 *752:8 1.01436e-05
38 *675:122 *678:50 0.000166504
39 *675:122 *751:10 7.91493e-05
40 *2739:CLK *675:96 0.000247074
41 *2763:RESET_B *2761:RESET_B 0.000700512
42 *2775:CLK *2744:RESET_B 3.7122e-06
43 *2817:A *2761:RESET_B 0.000226306
44 *352:25 *675:96 4.59027e-05
45 *352:29 *2772:RESET_B 2.56175e-05
46 *352:29 *675:96 0.00019975
47 *363:10 *2760:RESET_B 0
48 *363:10 *675:32 1.80023e-05
49 *363:10 *675:42 0
50 *363:10 *675:59 0
51 *363:10 *675:68 0
52 *518:40 *675:122 3.3577e-05
53 *633:14 *675:32 1.97329e-05
54 *670:10 *675:10 6.74969e-06
55 *670:10 *675:96 4.32475e-05
56 *670:19 *675:96 6.42902e-05
57 *670:35 *2761:RESET_B 0.0001094
58 *670:117 *2756:RESET_B 9.54129e-05
59 *670:117 *675:32 0.000103647
*RES
1 *2865:X *675:4 23 
2 *675:4 *675:10 28.1121 
3 *675:10 *2761:RESET_B 33.8189 
4 *2761:RESET_B *675:32 41.4446 
5 *675:32 *2756:RESET_B 1.97821 
6 *675:32 *675:40 15 
7 *675:40 *675:42 7.54 
8 *675:42 *2760:RESET_B 19.0186 
9 *675:42 *2755:RESET_B 16.0254 
10 *675:40 *675:59 4.01857 
11 *675:59 *2757:RESET_B 15 
12 *675:59 *675:68 16.9057 
13 *675:68 *2744:RESET_B 41.2789 
14 *675:68 *2775:RESET_B 1.02536 
15 *675:10 *675:96 30.7221 
16 *675:96 *2778:RESET_B 35.0439 
17 *675:96 *2772:RESET_B 0.548929 
18 *675:4 *675:122 33.3557 
19 *675:122 *2864:A 23 
*END

*D_NET *676 0.016587
*CONN
*I *2758:RESET_B I *D sky130_fd_sc_hd__dfrtp_1
*I *2776:RESET_B I *D sky130_fd_sc_hd__dfrtp_1
*I *2740:RESET_B I *D sky130_fd_sc_hd__dfrtp_1
*I *2745:RESET_B I *D sky130_fd_sc_hd__dfrtp_1
*I *2741:RESET_B I *D sky130_fd_sc_hd__dfrtp_1
*I *2777:RESET_B I *D sky130_fd_sc_hd__dfrtp_1
*I *2865:A I *D sky130_fd_sc_hd__clkbuf_4
*I *2866:X O *D sky130_fd_sc_hd__buf_2
*CAP
1 *2758:RESET_B 0.000491773
2 *2776:RESET_B 0.000191732
3 *2740:RESET_B 0.000384775
4 *2745:RESET_B 0.00161358
5 *2741:RESET_B 0.000628744
6 *2777:RESET_B 0.000641962
7 *2865:A 0.000126239
8 *2866:X 5.90451e-05
9 *676:64 0.0015357
10 *676:54 0.00145079
11 *676:46 0.00201682
12 *676:23 0.00143267
13 *676:8 0.00087608
14 *2741:RESET_B *680:10 0
15 *2741:RESET_B *726:8 0
16 *2745:RESET_B *732:21 5.14746e-06
17 *2745:RESET_B *737:6 0.000206349
18 *2758:RESET_B *2925:A 0.000113614
19 *2758:RESET_B *681:10 0
20 *2758:RESET_B *728:16 0
21 *2758:RESET_B *733:59 0
22 *2776:RESET_B *732:21 8.7283e-06
23 *2865:A *2866:A 9.26005e-05
24 *2865:A *678:50 0
25 *2865:A *751:10 0.000114074
26 *676:8 *751:10 8.91468e-07
27 *676:23 *2778:D 0.000780568
28 *676:23 *2866:A 0.000223034
29 *676:23 *677:21 0.000289955
30 *676:23 *678:50 0
31 *676:23 *718:8 0.000114083
32 *676:46 *714:18 0.000133112
33 *676:46 *728:8 6.87362e-05
34 *676:54 *714:18 9.84794e-05
35 *676:54 *728:8 0.0001164
36 *676:54 *731:21 5.56203e-05
37 *2304:A *676:64 0.000428031
38 *2308:A2 *676:64 9.26098e-05
39 *2325:A1 *676:64 1.94685e-05
40 *2378:A *676:54 0.000140259
41 *2739:RESET_B *676:23 0
42 *2745:CLK *2776:RESET_B 9.8326e-05
43 *2777:CLK *676:23 0.000148818
44 *176:10 *676:64 7.62945e-05
45 *183:10 *676:54 0.000250617
46 *188:8 *676:64 0
47 *189:10 *676:64 0
48 *190:21 *676:64 0.000194318
49 *198:8 *2758:RESET_B 0
50 *208:10 *676:64 5.56203e-05
51 *260:35 *676:64 0
52 *261:10 *676:64 0
53 *352:14 *2758:RESET_B 0
54 *352:25 *2758:RESET_B 0.000197479
55 *352:40 *676:23 9.98995e-05
56 *352:60 *2758:RESET_B 0.000158229
57 *352:90 *2758:RESET_B 0.000209739
58 *363:10 *676:64 0
59 *363:33 *676:64 0
60 *364:8 *676:64 0.000431843
61 *365:8 *676:54 3.31683e-05
62 *366:12 *2740:RESET_B 5.03619e-05
63 *623:10 *2740:RESET_B 3.06338e-05
64 *675:96 *2758:RESET_B 0
*RES
1 *2866:X *676:8 38.6214 
2 *676:8 *2865:A 41.3143 
3 *676:8 *676:23 34.5957 
4 *676:23 *2777:RESET_B 0.548929 
5 *2777:RESET_B *2741:RESET_B 42.035 
6 *676:23 *676:46 10.8129 
7 *676:46 *676:54 45.515 
8 *676:54 *2745:RESET_B 7.11536 
9 *2745:RESET_B *676:64 39.795 
10 *676:64 *2740:RESET_B 21.7425 
11 *676:54 *2776:RESET_B 3.57321 
12 *676:46 *2758:RESET_B 41.6104 
*END

*D_NET *677 0.0285844
*CONN
*I *2742:RESET_B I *D sky130_fd_sc_hd__dfrtp_1
*I *2623:RESET_B I *D sky130_fd_sc_hd__dfrtp_1
*I *2619:RESET_B I *D sky130_fd_sc_hd__dfrtp_1
*I *2617:RESET_B I *D sky130_fd_sc_hd__dfrtp_1
*I *2743:RESET_B I *D sky130_fd_sc_hd__dfrtp_1
*I *2866:A I *D sky130_fd_sc_hd__buf_2
*I *2867:X O *D sky130_fd_sc_hd__buf_2
*CAP
1 *2742:RESET_B 5.13931e-05
2 *2623:RESET_B 1.37898e-05
3 *2619:RESET_B 0.000106977
4 *2617:RESET_B 0.00237718
5 *2743:RESET_B 0.00164495
6 *2866:A 0.000143988
7 *2867:X 6.27375e-05
8 *677:87 0.0018801
9 *677:73 0.00185402
10 *677:67 0.00111732
11 *677:31 0.000969087
12 *677:27 0.00178556
13 *677:23 0.00424733
14 *677:21 0.0032218
15 *677:8 0.000367058
16 *2742:RESET_B *729:8 1.47264e-05
17 *2743:RESET_B *2742:D 1.56762e-05
18 *2743:RESET_B *729:8 1.05353e-05
19 *677:23 *731:21 0.00011481
20 *677:27 *729:54 8.51225e-05
21 *677:27 *744:16 0
22 *677:27 *746:14 0.000114042
23 *677:27 *746:27 0
24 *677:31 *729:48 8.84817e-06
25 *677:87 *689:8 0.000160884
26 *2365:B *677:27 0
27 *2365:B *677:31 7.88926e-05
28 *2386:B *677:27 0.000136486
29 *2418:S0 *677:87 0.000234604
30 *2423:A0 *677:67 3.55887e-05
31 *2739:CLK *677:23 0.000103647
32 *2865:A *2866:A 9.26005e-05
33 *2959:A *677:87 0.000112832
34 *2976:A *677:87 1.22803e-05
35 *3028:A *677:67 4.95442e-05
36 *40:10 *677:87 1.83564e-05
37 *54:8 *677:87 0.000110913
38 *150:12 *677:87 0.000114569
39 *247:12 *2742:RESET_B 2.62876e-05
40 *247:12 *677:31 0.000153497
41 *253:12 *677:27 6.33614e-05
42 *263:10 *677:27 0.000348465
43 *264:39 *2617:RESET_B 0.000111824
44 *316:14 *677:87 0.00120986
45 *323:82 *677:87 0.000132918
46 *337:79 *677:87 0.000241786
47 *345:72 *677:87 0.000459657
48 *345:94 *677:87 0.000263598
49 *345:191 *677:23 1.94693e-05
50 *350:77 *2617:RESET_B 0
51 *350:77 *2742:RESET_B 0
52 *350:77 *2743:RESET_B 0.000142645
53 *350:93 *2617:RESET_B 9.70396e-05
54 *350:93 *2743:RESET_B 0.00014407
55 *352:25 *677:23 0.000136453
56 *359:112 *677:87 0
57 *363:10 *677:27 0
58 *363:18 *677:27 5.3656e-05
59 *363:33 *677:27 0
60 *366:12 *677:27 0.00108002
61 *399:14 *677:87 0.000109512
62 *407:8 *677:87 0.00015964
63 *604:10 *677:87 1.00765e-05
64 *624:8 *2617:RESET_B 5.41385e-05
65 *631:6 *677:67 8.6188e-06
66 *631:27 *677:67 7.79573e-05
67 *633:99 *677:27 0.000324751
68 *633:123 *677:87 2.26406e-05
69 *633:127 *677:87 0.000556042
70 *643:116 *677:87 0
71 *646:103 *677:87 0.000173264
72 *667:38 *677:87 0
73 *670:64 *2619:RESET_B 0
74 *670:74 *2619:RESET_B 7.06491e-05
75 *670:74 *677:87 0.000269668
76 *670:78 *677:87 0
77 *670:90 *2623:RESET_B 2.21344e-05
78 *670:90 *677:87 5.95012e-05
79 *676:23 *2866:A 0.000223034
80 *676:23 *677:21 0.000289955
*RES
1 *2867:X *677:8 38.6214 
2 *677:8 *2866:A 42.0186 
3 *677:8 *677:21 19.0186 
4 *677:21 *677:23 40.165 
5 *677:23 *677:27 45.0771 
6 *677:27 *677:31 23.9589 
7 *677:31 *2743:RESET_B 5.24071 
8 *2743:RESET_B *2617:RESET_B 23.2829 
9 *2617:RESET_B *677:67 47.6693 
10 *677:67 *677:73 15.9425 
11 *677:73 *677:87 47.8189 
12 *677:87 *2619:RESET_B 16.9989 
13 *677:73 *2623:RESET_B 15.6732 
14 *677:31 *2742:RESET_B 1.76071 
*END

*D_NET *678 0.0272002
*CONN
*I *2863:A I *D sky130_fd_sc_hd__buf_2
*I *2867:A I *D sky130_fd_sc_hd__buf_2
*I *2624:RESET_B I *D sky130_fd_sc_hd__dfrtp_1
*I *2622:RESET_B I *D sky130_fd_sc_hd__dfrtp_1
*I *2620:RESET_B I *D sky130_fd_sc_hd__dfrtp_1
*I *2868:X O *D sky130_fd_sc_hd__buf_2
*CAP
1 *2863:A 0.000117825
2 *2867:A 4.68731e-05
3 *2624:RESET_B 7.91575e-05
4 *2622:RESET_B 2.86451e-05
5 *2620:RESET_B 6.27914e-06
6 *2868:X 0
7 *678:50 0.00204446
8 *678:40 0.00141089
9 *678:26 0.00282001
10 *678:12 0.00486867
11 *678:10 0.00456822
12 *678:6 0.00316306
13 *678:4 0.000117825
14 *2867:A *684:8 5.41385e-05
15 *678:50 *739:10 0.000554506
16 *678:50 *751:10 0.000148731
17 rd_data[4] *678:10 7.46212e-05
18 *2350:A1 *678:10 0
19 *2357:B *678:12 1.32939e-05
20 *2596:A0 *678:12 0.000484551
21 *2596:A1 *678:12 5.50106e-05
22 *2596:S *678:12 4.79544e-05
23 *2730:SET_B *678:10 0
24 *2730:SET_B *678:50 0
25 *2739:RESET_B *678:50 0
26 *2804:A *678:40 0.000105742
27 *2865:A *678:50 0
28 *2886:A *678:12 0.000223692
29 *3002:A *678:10 0
30 *3005:A *678:50 0
31 *3008:A *678:50 0
32 *3017:A *678:10 0
33 *3018:A *678:10 0
34 *3029:A *678:50 0
35 *3:8 *678:10 0
36 *8:13 *678:10 0
37 *27:11 *678:50 0
38 *161:8 *678:40 0.000110913
39 *230:14 *678:10 0
40 *237:8 *678:10 3.28876e-05
41 *239:16 *678:12 0.00010018
42 *240:10 *678:12 1.73399e-05
43 *243:8 *678:10 0
44 *264:10 *678:50 0.000163783
45 *264:18 *678:50 2.33476e-05
46 *331:68 *678:40 1.7992e-05
47 *345:22 *678:40 0.000358617
48 *345:24 *678:40 3.14274e-05
49 *355:90 *678:40 0
50 *410:8 *678:40 0.000561337
51 *474:12 *678:40 4.02064e-05
52 *474:33 *678:40 2.30917e-05
53 *495:8 *678:10 0
54 *518:14 *2863:A 5.50106e-05
55 *518:14 *678:50 0.000382574
56 *518:25 *678:50 0
57 *529:10 *678:50 0.000275894
58 *551:8 *678:50 0
59 *560:10 *678:40 0.00013535
60 *573:18 *678:40 0
61 *596:10 *678:12 0.000267173
62 *628:8 *678:12 0.000185428
63 *629:21 *678:10 0.000487434
64 *630:10 *678:26 5.50106e-05
65 *632:10 *2624:RESET_B 2.93845e-05
66 *632:10 *678:40 0.00010404
67 *633:44 *678:40 0
68 *634:115 *678:40 0
69 *638:10 *678:10 6.6869e-05
70 *642:74 *2624:RESET_B 0.00017621
71 *645:16 *678:40 6.72178e-06
72 *649:10 *678:10 0
73 *659:112 *678:40 0
74 *661:10 *678:40 5.58534e-05
75 *661:47 *678:40 0.000577455
76 *669:40 *678:12 0.000466582
77 *669:44 *2620:RESET_B 1.53169e-05
78 *669:44 *678:12 0.000141019
79 *669:44 *678:26 7.7149e-05
80 *669:50 *2622:RESET_B 2.56078e-05
81 *669:50 *678:26 0.000455202
82 *672:10 *678:50 0.000114074
83 *672:14 *678:50 0.000336457
84 *673:8 *2863:A 2.65879e-05
85 *673:16 *678:50 0
86 *674:92 *678:50 0
87 *675:122 *678:50 0.000166504
88 *676:23 *678:50 0
*RES
1 *2868:X *678:4 23 
2 *678:4 *678:6 15 
3 *678:6 *678:10 37.33 
4 *678:10 *678:12 65.4157 
5 *678:12 *2620:RESET_B 0.548929 
6 *678:12 *678:26 22.7236 
7 *678:26 *2622:RESET_B 0.548929 
8 *678:26 *678:40 47.9564 
9 *678:40 *2624:RESET_B 16.9782 
10 *678:6 *678:50 49.0929 
11 *678:50 *2867:A 39.0979 
12 *678:4 *2863:A 25.5686 
*END

*D_NET *679 0.000496572
*CONN
*I *2774:D I *D sky130_fd_sc_hd__dfrtp_1
*I *2869:X O *D sky130_fd_sc_hd__dlygate4sd3_1
*CAP
1 *2774:D 0
2 *2869:X 0.000191249
3 *679:10 0.000191249
4 *2774:RESET_B *679:10 0
5 *639:43 *679:10 0
6 *648:53 *679:10 0.000114074
*RES
1 *2869:X *679:10 41.1279 
2 *679:10 *2774:D 38 
*END

*D_NET *680 0.000323586
*CONN
*I *2777:D I *D sky130_fd_sc_hd__dfrtp_1
*I *2914:X O *D sky130_fd_sc_hd__dlygate4sd3_1
*CAP
1 *2777:D 0
2 *2914:X 0.000161793
3 *680:10 0.000161793
4 *2741:RESET_B *680:10 0
*RES
1 *2914:X *680:10 40.5271 
2 *680:10 *2777:D 38 
*END

*D_NET *681 0.000904902
*CONN
*I *2776:D I *D sky130_fd_sc_hd__dfrtp_1
*I *2925:X O *D sky130_fd_sc_hd__dlygate4sd3_1
*CAP
1 *2776:D 3.86937e-05
2 *2925:X 0.000281536
3 *681:10 0.00032023
4 *681:10 *728:16 0.000138185
5 *681:10 *733:25 5.56203e-05
6 *681:10 *747:16 0
7 *2745:CLK *2776:D 1.39317e-05
8 *2758:RESET_B *681:10 0
9 *254:8 *681:10 0
10 *352:25 *681:10 5.67058e-05
*RES
1 *2925:X *681:10 44.0486 
2 *681:10 *2776:D 38.6214 
*END

*D_NET *682 0.00065892
*CONN
*I *2295:A I *D sky130_fd_sc_hd__inv_2
*I *3022:X O *D sky130_fd_sc_hd__clkbuf_1
*CAP
1 *2295:A 0
2 *3022:X 0.00032946
3 *682:10 0.00032946
4 *682:10 *693:10 0
5 *660:10 *682:10 0
*RES
1 *3022:X *682:10 43.6964 
2 *682:10 *2295:A 38 
*END

*D_NET *683 0.00179997
*CONN
*I *2775:D I *D sky130_fd_sc_hd__dfrtp_1
*I *2936:X O *D sky130_fd_sc_hd__dlygate4sd3_1
*CAP
1 *2775:D 0.000349774
2 *2936:X 0.000166143
3 *683:8 0.000515917
4 *2775:D *2760:D 0.000207427
5 *2775:D *744:16 0
6 *2775:D *746:14 0.000191157
7 *633:14 *683:8 0.000126847
8 *675:42 *2775:D 0.000108046
9 *675:59 *2775:D 9.75372e-05
10 *675:68 *2775:D 3.71198e-05
*RES
1 *2936:X *683:8 40.5271 
2 *683:8 *2775:D 48.005 
*END

*D_NET *684 0.00191877
*CONN
*I *2778:D I *D sky130_fd_sc_hd__dfrtp_2
*I *2947:X O *D sky130_fd_sc_hd__dlygate4sd3_1
*CAP
1 *2778:D 0.000394582
2 *2947:X 0.000147452
3 *684:8 0.000542034
4 *2739:RESET_B *2778:D 0
5 *2867:A *684:8 5.41385e-05
6 *676:23 *2778:D 0.000780568
*RES
1 *2947:X *684:8 40.0507 
2 *684:8 *2778:D 48.3571 
*END

*D_NET *685 0.0015238
*CONN
*I *2566:A0 I *D sky130_fd_sc_hd__mux2_1
*I *2958:X O *D sky130_fd_sc_hd__dlygate4sd3_1
*CAP
1 *2566:A0 0
2 *2958:X 0.000448544
3 *685:10 0.000448544
4 *2566:A1 *685:10 0.000178517
5 *2575:A0 *685:10 0.000110042
6 *2575:A1 *685:10 2.0204e-05
7 *2575:S *685:10 1.94812e-05
8 *2958:A *685:10 3.65166e-05
9 *647:122 *685:10 0.000261951
*RES
1 *2958:X *685:10 30.9336 
2 *685:10 *2566:A0 23 
*END

*D_NET *686 0.00107797
*CONN
*I *2471:A0 I *D sky130_fd_sc_hd__mux2_1
*I *2969:X O *D sky130_fd_sc_hd__dlygate4sd3_1
*CAP
1 *2471:A0 0
2 *2969:X 0.000347143
3 *686:6 0.000347143
4 *2969:A *686:6 5.44131e-05
5 *323:20 *686:6 2.4754e-05
6 *664:82 *686:6 5.50049e-05
7 *664:95 *686:6 0.000249513
*RES
1 *2969:X *686:6 28.8621 
2 *686:6 *2471:A0 23 
*END

*D_NET *687 0.00147928
*CONN
*I *2491:A0 I *D sky130_fd_sc_hd__mux2_1
*I *2980:X O *D sky130_fd_sc_hd__dlygate4sd3_1
*CAP
1 *2491:A0 0.000401783
2 *2980:X 0.000192318
3 *687:10 0.000594101
4 *2491:A0 *2759:D 6.17437e-06
5 *687:10 *740:10 0.000136486
6 *2491:S *2491:A0 5.50049e-05
7 *2759:CLK *2491:A0 5.30121e-05
8 *2980:A *687:10 2.64616e-05
9 *63:10 *2491:A0 1.39431e-05
10 *633:18 *687:10 0
11 *634:168 *687:10 0
*RES
1 *2980:X *687:10 41.2314 
2 *687:10 *2491:A0 44.815 
*END

*D_NET *688 0.000387808
*CONN
*I *2483:A0 I *D sky130_fd_sc_hd__mux2_1
*I *2991:X O *D sky130_fd_sc_hd__dlygate4sd3_1
*CAP
1 *2483:A0 0.000152147
2 *2991:X 0.000152147
3 *2483:A1 *2483:A0 2.93845e-05
4 *325:51 *2483:A0 5.41288e-05
*RES
1 *2991:X *2483:A0 48.5271 
*END

*D_NET *689 0.000474392
*CONN
*I *2583:A0 I *D sky130_fd_sc_hd__mux2_1
*I *2870:X O *D sky130_fd_sc_hd__dlygate4sd3_1
*CAP
1 *2583:A0 0
2 *2870:X 7.63121e-05
3 *689:8 7.63121e-05
4 *646:103 *689:8 0.000160884
5 *677:87 *689:8 0.000160884
*RES
1 *2870:X *689:8 40.2579 
2 *689:8 *2583:A0 38 
*END

*D_NET *690 0.000479688
*CONN
*I *2529:A0 I *D sky130_fd_sc_hd__mux2_1
*I *2881:X O *D sky130_fd_sc_hd__dlygate4sd3_1
*CAP
1 *2529:A0 7.81574e-05
2 *2881:X 7.81574e-05
3 *2529:A0 *705:12 4.2062e-05
4 *2425:A1 *2529:A0 0.000182826
5 *368:27 *2529:A0 9.84851e-05
*RES
1 *2881:X *2529:A0 48.5271 
*END

*D_NET *691 0.00162294
*CONN
*I *2484:A0 I *D sky130_fd_sc_hd__mux2_1
*I *2892:X O *D sky130_fd_sc_hd__dlygate4sd3_1
*CAP
1 *2484:A0 0
2 *2892:X 0.000389504
3 *691:10 0.000389504
4 *2484:S *691:10 3.3746e-05
5 *2961:A *691:10 0.00014424
6 *339:140 *691:10 0.000396795
7 *647:78 *691:10 0
8 *657:112 *691:10 0.000269151
*RES
1 *2892:X *691:10 46.4307 
2 *691:10 *2484:A0 38 
*END

*D_NET *692 0.000273379
*CONN
*I *2530:A0 I *D sky130_fd_sc_hd__mux2_1
*I *2903:X O *D sky130_fd_sc_hd__dlygate4sd3_1
*CAP
1 *2530:A0 0
2 *2903:X 5.28185e-05
3 *692:8 5.28185e-05
4 *333:64 *692:8 0.000113153
5 *650:66 *692:8 5.45887e-05
*RES
1 *2903:X *692:8 39.5536 
2 *692:8 *2530:A0 38 
*END

*D_NET *693 0.000648786
*CONN
*I *2294:A I *D sky130_fd_sc_hd__inv_2
*I *3023:X O *D sky130_fd_sc_hd__clkbuf_1
*CAP
1 *2294:A 0
2 *3023:X 0.000324393
3 *693:10 0.000324393
4 *682:10 *693:10 0
*RES
1 *3023:X *693:10 43.6964 
2 *693:10 *2294:A 38 
*END

*D_NET *694 0.000731631
*CONN
*I *2535:A0 I *D sky130_fd_sc_hd__mux2_1
*I *2908:X O *D sky130_fd_sc_hd__dlygate4sd3_1
*CAP
1 *2535:A0 0
2 *2908:X 0.000257866
3 *694:10 0.000257866
4 *2680:CLK *694:10 0.000147144
5 *327:69 *694:10 2.5415e-05
6 *639:109 *694:10 4.334e-05
*RES
1 *2908:X *694:10 42.205 
2 *694:10 *2535:A0 38 
*END

*D_NET *695 0.000698232
*CONN
*I *2540:A0 I *D sky130_fd_sc_hd__mux2_1
*I *2909:X O *D sky130_fd_sc_hd__dlygate4sd3_1
*CAP
1 *2540:A0 0.000231516
2 *2909:X 7.99533e-05
3 *695:8 0.00031147
4 *334:93 *2540:A0 2.02872e-05
5 *334:99 *695:8 0
6 *659:18 *2540:A0 5.50049e-05
*RES
1 *2909:X *695:8 39.2014 
2 *695:8 *2540:A0 41.0036 
*END

*D_NET *696 0.000426051
*CONN
*I *2511:A0 I *D sky130_fd_sc_hd__mux2_1
*I *2910:X O *D sky130_fd_sc_hd__dlygate4sd3_1
*CAP
1 *2511:A0 0.000187598
2 *2910:X 0.000187598
3 *2511:A1 *2511:A0 2.64616e-05
4 *331:94 *2511:A0 2.43944e-05
*RES
1 *2910:X *2511:A0 48.5271 
*END

*D_NET *697 0.00107035
*CONN
*I *2567:A0 I *D sky130_fd_sc_hd__mux2_1
*I *2911:X O *D sky130_fd_sc_hd__dlygate4sd3_1
*CAP
1 *2567:A0 0.00020333
2 *2911:X 0.000104909
3 *697:10 0.00030824
4 *2512:A1 *2567:A0 0.000308039
5 *2911:A *697:10 3.22879e-05
6 *331:68 *697:10 5.56203e-05
7 *345:22 *697:10 3.31683e-05
8 *663:43 *2567:A0 2.4754e-05
*RES
1 *2911:X *697:10 40.175 
2 *697:10 *2567:A0 41.9564 
*END

*D_NET *698 0.000322345
*CONN
*I *2493:A0 I *D sky130_fd_sc_hd__mux2_1
*I *2912:X O *D sky130_fd_sc_hd__dlygate4sd3_1
*CAP
1 *2493:A0 0.000111455
2 *2912:X 0.000111455
3 *327:107 *2493:A0 4.06849e-05
4 *402:8 *2493:A0 2.93747e-05
5 *661:79 *2493:A0 2.93747e-05
*RES
1 *2912:X *2493:A0 48.5271 
*END

*D_NET *699 0.00117017
*CONN
*I *2595:A0 I *D sky130_fd_sc_hd__mux2_1
*I *2913:X O *D sky130_fd_sc_hd__dlygate4sd3_1
*CAP
1 *2595:A0 0
2 *2913:X 0.000207954
3 *699:6 0.000207954
4 *2586:A0 *699:6 2.4754e-05
5 *2586:A1 *699:6 0.000397602
6 *2586:S *699:6 9.84851e-05
7 *2595:S *699:6 5.3304e-05
8 *2913:A *699:6 0.00018012
*RES
1 *2913:X *699:6 29.815 
2 *699:6 *2595:A0 23 
*END

*D_NET *700 0.00102109
*CONN
*I *2534:A0 I *D sky130_fd_sc_hd__mux2_1
*I *2915:X O *D sky130_fd_sc_hd__dlygate4sd3_1
*CAP
1 *2534:A0 3.09722e-05
2 *2915:X 0.00025613
3 *700:10 0.000287102
4 *2457:A1 *700:10 3.28979e-05
5 *339:110 *700:10 0.000181125
6 *639:143 *700:10 0.000167443
7 *646:82 *700:10 2.92911e-06
8 *654:64 *2534:A0 2.93747e-05
9 *654:64 *700:10 3.31127e-05
*RES
1 *2915:X *700:10 42.785 
2 *700:10 *2534:A0 38.6214 
*END

*D_NET *701 0.00119995
*CONN
*I *2526:A0 I *D sky130_fd_sc_hd__mux2_1
*I *2916:X O *D sky130_fd_sc_hd__dlygate4sd3_1
*CAP
1 *2526:A0 0.000194647
2 *2916:X 0.000128086
3 *701:8 0.000322732
4 *2526:S *2526:A0 5.67058e-05
5 *336:92 *701:8 0
6 *382:33 *701:8 0
7 *651:65 *2526:A0 0.000442766
8 *651:71 *2526:A0 5.50106e-05
*RES
1 *2916:X *701:8 40.2579 
2 *701:8 *2526:A0 43.3857 
*END

*D_NET *702 0.000795707
*CONN
*I *2588:A0 I *D sky130_fd_sc_hd__mux2_1
*I *2917:X O *D sky130_fd_sc_hd__dlygate4sd3_1
*CAP
1 *2588:A0 0.000173652
2 *2917:X 6.00171e-05
3 *702:8 0.000233669
4 *340:131 *702:8 8.62876e-05
5 *346:29 *2588:A0 1.3523e-05
6 *346:33 *2588:A0 0.000228558
*RES
1 *2917:X *702:8 39.2014 
2 *702:8 *2588:A0 40.5271 
*END

*D_NET *703 0.000444983
*CONN
*I *2531:A0 I *D sky130_fd_sc_hd__mux2_1
*I *2918:X O *D sky130_fd_sc_hd__dlygate4sd3_1
*CAP
1 *2531:A0 6.43363e-05
2 *2918:X 6.43363e-05
3 *2918:A *2531:A0 4.04303e-05
4 *333:122 *2531:A0 9.84851e-05
5 *338:44 *2531:A0 0.00012239
6 *659:77 *2531:A0 5.50049e-05
*RES
1 *2918:X *2531:A0 48.5271 
*END

*D_NET *704 0.000886569
*CONN
*I *2842:A I *D sky130_fd_sc_hd__clkbuf_2
*I *2731:Q O *D sky130_fd_sc_hd__dfrtp_1
*CAP
1 *2842:A 8.91408e-05
2 *2731:Q 0.000206164
3 *704:8 0.000295304
4 *704:8 *753:16 0.000110532
5 *647:27 *704:8 0
6 *648:8 *704:8 0
7 *648:16 *704:8 0
8 *669:28 *2842:A 0.000185428
*RES
1 *2731:Q *704:8 42.3707 
2 *704:8 *2842:A 40.0507 
*END

*D_NET *705 0.00989906
*CONN
*I *2837:A I *D sky130_fd_sc_hd__buf_2
*I *2835:A I *D sky130_fd_sc_hd__clkbuf_4
*I *2446:S1 I *D sky130_fd_sc_hd__mux4_1
*I *2425:S1 I *D sky130_fd_sc_hd__mux4_1
*I *2732:Q O *D sky130_fd_sc_hd__dfrtp_1
*CAP
1 *2837:A 0.000262545
2 *2835:A 0.000161049
3 *2446:S1 0
4 *2425:S1 0
5 *2732:Q 0
6 *705:40 0.000600043
7 *705:33 0.000591635
8 *705:20 0.00038932
9 *705:12 0.00257684
10 *705:6 0.00177233
11 *705:12 *753:10 0
12 *705:40 *753:10 0
13 *2395:B *2835:A 1.59094e-05
14 *2395:C *2835:A 1.95448e-05
15 *2396:B *2835:A 5.67058e-05
16 *2403:C *2835:A 9.77541e-05
17 *2425:A1 *705:12 5.08033e-05
18 *2425:S0 *705:20 5.50106e-05
19 *2446:A2 *705:33 7.20518e-05
20 *2529:A0 *705:12 4.2062e-05
21 *2732:RESET_B *2837:A 0
22 *2732:RESET_B *705:40 0
23 *2892:A *705:33 0.000236614
24 *2961:A *705:33 0.00012758
25 *162:8 *705:33 0.000194318
26 *268:6 *2835:A 2.4754e-05
27 *268:35 *2837:A 2.96154e-05
28 *286:6 *705:12 4.96675e-06
29 *286:6 *705:20 2.79819e-05
30 *325:34 *705:20 2.70469e-05
31 *327:103 *705:33 0.000432772
32 *339:140 *705:20 6.70363e-05
33 *368:14 *705:12 2.64616e-05
34 *368:14 *705:20 2.64616e-05
35 *368:14 *705:33 8.4047e-05
36 *368:27 *705:12 0.000195293
37 *403:18 *705:33 0.000376252
38 *432:14 *705:20 3.06763e-05
39 *440:27 *705:20 1.26461e-05
40 *634:36 *705:12 3.38187e-05
41 *637:60 *705:33 7.09173e-05
42 *647:78 *705:33 0
43 *648:53 *2837:A 2.68751e-05
44 *648:53 *705:12 0.000219882
45 *648:53 *705:40 0.000283642
46 *648:70 *2837:A 0.00039141
47 *668:77 *705:12 0.000184392
48 *672:40 *2837:A 0
*RES
1 *2732:Q *705:6 38 
2 *705:6 *705:12 38.1171 
3 *705:12 *705:20 35.7586 
4 *705:20 *2425:S1 23 
5 *705:12 *705:33 46.6129 
6 *705:33 *2446:S1 23 
7 *705:6 *705:40 4.01857 
8 *705:40 *2835:A 41.48 
9 *705:40 *2837:A 43.7793 
*END

*D_NET *706 0.0010828
*CONN
*I *2833:A I *D sky130_fd_sc_hd__clkbuf_2
*I *2832:A I *D sky130_fd_sc_hd__buf_4
*I *2733:Q O *D sky130_fd_sc_hd__dfrtp_1
*CAP
1 *2833:A 0
2 *2832:A 0
3 *2733:Q 0.00016275
4 *706:16 0.000235762
5 *706:8 0.000398512
6 *706:16 *707:14 0
7 *706:16 *754:10 6.68154e-05
8 *637:10 *706:16 7.41959e-05
9 *637:16 *706:16 2.26497e-05
10 *639:6 *706:16 5.3304e-05
11 *640:6 *706:8 1.94812e-05
12 *640:14 *706:8 4.93341e-05
*RES
1 *2733:Q *706:8 26.0243 
2 *706:8 *706:16 33.9357 
3 *706:16 *2832:A 23 
4 *706:8 *2833:A 23 
*END

*D_NET *707 0.00683333
*CONN
*I *2831:A I *D sky130_fd_sc_hd__buf_4
*I *2430:S I *D sky130_fd_sc_hd__mux2_1
*I *2411:A I *D sky130_fd_sc_hd__xnor2_1
*I *2403:A I *D sky130_fd_sc_hd__and3_1
*I *2734:Q O *D sky130_fd_sc_hd__dfrtp_1
*CAP
1 *2831:A 0
2 *2430:S 0.00199822
3 *2411:A 0
4 *2403:A 0
5 *2734:Q 0.000215536
6 *707:23 0.00238336
7 *707:21 0.000425265
8 *707:14 0.000412368
9 *707:6 0.000668019
10 *707:14 *753:10 0.000154717
11 *707:14 *754:10 0
12 *2430:A0 *2430:S 0.000103725
13 *2737:RESET_B *2430:S 2.46803e-05
14 *2770:RESET_B *2430:S 1.27153e-05
15 *291:10 *2430:S 1.68687e-05
16 *349:64 *2430:S 0.000119477
17 *637:10 *707:6 5.50049e-05
18 *637:10 *707:14 0
19 *640:49 *707:14 5.21024e-05
20 *648:70 *707:23 9.58714e-05
21 *672:30 *707:6 6.53285e-05
22 *672:30 *707:21 0
23 *672:76 *2430:S 3.00678e-05
24 *706:16 *707:14 0
*RES
1 *2734:Q *707:6 26.0036 
2 *707:6 *707:14 37.8093 
3 *707:14 *2403:A 23 
4 *707:6 *707:21 0.849286 
5 *707:21 *707:23 6.815 
6 *707:23 *2411:A 23 
7 *707:23 *2430:S 49.0171 
8 *707:21 *2831:A 23 
*END

*D_NET *708 0.00748451
*CONN
*I *2417:A I *D sky130_fd_sc_hd__xor2_1
*I *2409:A I *D sky130_fd_sc_hd__xnor2_1
*I *2773:D I *D sky130_fd_sc_hd__dfrtp_1
*I *2346:B I *D sky130_fd_sc_hd__xnor2_1
*I *2345:B I *D sky130_fd_sc_hd__xor2_1
*I *2735:Q O *D sky130_fd_sc_hd__dfrtp_4
*CAP
1 *2417:A 0
2 *2409:A 0
3 *2773:D 0
4 *2346:B 0
5 *2345:B 8.43423e-05
6 *2735:Q 0.000334491
7 *708:50 0.000370002
8 *708:42 0.000456531
9 *708:40 0.00101522
10 *708:34 0.00114543
11 *708:25 0.000422747
12 *708:10 0.000624842
13 *2345:B *739:29 0.000169674
14 *708:10 *739:29 3.47781e-05
15 *708:10 *756:20 0
16 *708:25 *2346:A 0.000370742
17 *708:34 *2346:A 3.91386e-05
18 *708:40 *713:8 0
19 *708:40 *755:10 0
20 *708:40 *755:14 0
21 *708:50 *755:10 0
22 *2735:RESET_B *708:10 5.03619e-05
23 *2773:RESET_B *708:50 0.000315857
24 *213:8 *708:25 1.22822e-05
25 *213:8 *708:34 0.000394994
26 *213:10 *708:40 3.70187e-05
27 *228:10 *2345:B 1.01436e-05
28 *229:6 *708:34 2.02872e-05
29 *229:19 *708:40 1.69668e-05
30 *272:10 *708:40 6.33511e-05
31 *273:10 *708:40 0
32 *276:12 *708:40 0.000258293
33 *277:10 *708:40 0.000671346
34 *277:10 *708:50 3.70187e-05
35 *279:8 *708:40 4.08641e-05
36 *351:41 *708:50 0.000103647
37 *551:18 *708:10 9.96265e-05
38 *634:24 *708:10 0.000148698
39 *637:172 *2345:B 0
40 *637:172 *708:10 0
41 *668:69 *708:40 2.71291e-05
42 *668:77 *708:40 0.000108681
43 *668:112 *708:40 0
44 *673:16 *708:10 0
45 *673:30 *708:10 0
*RES
1 *2735:Q *708:10 45.6229 
2 *708:10 *2345:B 40.2579 
3 *708:10 *708:25 19.93 
4 *708:25 *2346:B 23 
5 *708:25 *708:34 5.40643 
6 *708:34 *708:40 49.5129 
7 *708:40 *708:42 1.09786 
8 *708:42 *708:50 38.9071 
9 *708:50 *2773:D 23 
10 *708:42 *2409:A 23 
11 *708:34 *2417:A 23 
*END

*D_NET *709 0.000556774
*CONN
*I *2731:D I *D sky130_fd_sc_hd__dfrtp_1
*I *2393:Y O *D sky130_fd_sc_hd__nor2_1
*CAP
1 *2731:D 0
2 *2393:Y 0.000159516
3 *709:10 0.000159516
4 *642:101 *709:10 0.000141869
5 *647:12 *709:10 9.58714e-05
6 *673:58 *709:10 0
*RES
1 *2393:Y *709:10 41.0036 
2 *709:10 *2731:D 38 
*END

*D_NET *710 0.000777279
*CONN
*I *2732:D I *D sky130_fd_sc_hd__dfrtp_1
*I *2396:Y O *D sky130_fd_sc_hd__nor2_1
*CAP
1 *2732:D 0
2 *2396:Y 0.000225838
3 *710:10 0.000225838
4 *2394:B1 *710:10 0
5 *2733:CLK *710:10 0.000141869
6 *640:20 *710:10 0.000183733
7 *642:12 *710:10 0
*RES
1 *2396:Y *710:10 41.9564 
2 *710:10 *2732:D 38 
*END

*D_NET *711 0.000432476
*CONN
*I *2733:D I *D sky130_fd_sc_hd__dfrtp_1
*I *2399:Y O *D sky130_fd_sc_hd__nor2_1
*CAP
1 *2733:D 7.55651e-05
2 *2399:Y 7.55651e-05
3 *2733:CLK *2733:D 5.41385e-05
4 *640:14 *2733:D 0.000227208
*RES
1 *2399:Y *2733:D 48.5271 
*END

*D_NET *712 0.000812509
*CONN
*I *2734:D I *D sky130_fd_sc_hd__dfrtp_1
*I *2416:Y O *D sky130_fd_sc_hd__nor2_1
*CAP
1 *2734:D 0
2 *2416:Y 0.000384244
3 *712:10 0.000384244
4 *712:10 *756:20 0
5 *2416:B *712:10 1.5769e-05
6 *273:47 *712:10 6.17437e-06
7 *637:172 *712:10 2.2077e-05
8 *668:112 *712:10 0
*RES
1 *2416:Y *712:10 43.0336 
2 *712:10 *2734:D 38 
*END

*D_NET *713 0.000882026
*CONN
*I *2735:D I *D sky130_fd_sc_hd__dfrtp_4
*I *2417:X O *D sky130_fd_sc_hd__xor2_1
*CAP
1 *2735:D 5.20886e-05
2 *2417:X 0.000139989
3 *713:8 0.000192078
4 *213:10 *713:8 1.86869e-05
5 *551:18 *2735:D 0.000182826
6 *634:24 *2735:D 4.23568e-05
7 *668:55 *713:8 0.000184816
8 *668:69 *2735:D 5.3304e-05
9 *668:69 *713:8 1.58805e-05
10 *708:40 *713:8 0
*RES
1 *2417:X *713:8 40.61 
2 *713:8 *2735:D 40.0507 
*END

*D_NET *714 0.00140216
*CONN
*I *2299:A I *D sky130_fd_sc_hd__xnor2_2
*I *2314:B I *D sky130_fd_sc_hd__xor2_2
*I *2778:Q O *D sky130_fd_sc_hd__dfrtp_2
*CAP
1 *2299:A 0
2 *2314:B 0.000418971
3 *2778:Q 0.000224002
4 *714:18 0.000194969
5 *714:18 *726:8 0
6 *714:18 *728:8 0.000269775
7 *352:90 *714:18 6.28488e-05
8 *676:46 *714:18 0.000133112
9 *676:54 *714:18 9.84794e-05
*RES
1 *2778:Q *2314:B 26.9046 
2 *2314:B *714:18 35.6136 
3 *714:18 *2299:A 23 
*END

*D_NET *715 0.0010075
*CONN
*I *2769:D I *D sky130_fd_sc_hd__dfrtp_1
*I *2736:Q O *D sky130_fd_sc_hd__dfrtp_1
*CAP
1 *2769:D 0
2 *2736:Q 0.000406325
3 *715:10 0.000406325
4 *348:76 *715:10 3.81391e-05
5 *634:52 *715:10 0.000114083
6 *639:49 *715:10 3.89101e-05
7 *668:26 *715:10 3.7122e-06
*RES
1 *2736:Q *715:10 43.9864 
2 *715:10 *2769:D 38 
*END

*D_NET *716 0.000871797
*CONN
*I *2770:D I *D sky130_fd_sc_hd__dfrtp_1
*I *2737:Q O *D sky130_fd_sc_hd__dfrtp_1
*CAP
1 *2770:D 0
2 *2737:Q 0.000321996
3 *716:10 0.000321996
4 *287:10 *716:10 0.000108681
5 *633:18 *716:10 0.000110922
6 *639:18 *716:10 8.20126e-06
*RES
1 *2737:Q *716:10 42.5571 
2 *716:10 *2770:D 38 
*END

*D_NET *717 0.00161551
*CONN
*I *2771:D I *D sky130_fd_sc_hd__dfrtp_1
*I *2738:Q O *D sky130_fd_sc_hd__dfrtp_1
*CAP
1 *2771:D 0.000158806
2 *2738:Q 0.000377161
3 *717:10 0.000535968
4 *717:10 *750:10 0.000151486
5 *351:41 *717:10 0.000102093
6 *670:41 *717:10 0
7 *674:18 *717:10 6.67764e-05
8 *674:22 *717:10 9.98891e-05
9 *674:47 *717:10 0.000123326
*RES
1 *2738:Q *717:10 47.5907 
2 *717:10 *2771:D 40.5271 
*END

*D_NET *718 0.000533
*CONN
*I *2772:D I *D sky130_fd_sc_hd__dfrtp_1
*I *2739:Q O *D sky130_fd_sc_hd__dfrtp_1
*CAP
1 *2772:D 0.0001054
2 *2739:Q 6.90834e-05
3 *718:8 0.000174484
4 *352:29 *2772:D 6.99492e-05
5 *676:23 *718:8 0.000114083
*RES
1 *2739:Q *718:8 39.5536 
2 *718:8 *2772:D 39.5743 
*END

*D_NET *719 0.00228596
*CONN
*I *2405:B I *D sky130_fd_sc_hd__xor2_1
*I *2736:D I *D sky130_fd_sc_hd__dfrtp_1
*I *2404:Y O *D sky130_fd_sc_hd__xnor2_1
*CAP
1 *2405:B 0.000239354
2 *2736:D 3.87976e-05
3 *2404:Y 0.000464908
4 *719:10 0.000743059
5 *2405:B *753:16 0.000127488
6 *719:10 *753:16 7.06228e-05
7 *2736:RESET_B *2736:D 0.000185428
8 *648:8 *719:10 0
9 *648:53 *2405:B 0
10 *648:53 *719:10 0
11 *668:20 *2736:D 1.40958e-05
12 *668:26 *2736:D 8.1796e-05
13 *669:28 *719:10 0.000320413
*RES
1 *2404:Y *719:10 47.3007 
2 *719:10 *2736:D 40.0507 
3 *719:10 *2405:B 43.075 
*END

*D_NET *720 0.00551399
*CONN
*I *2737:D I *D sky130_fd_sc_hd__dfrtp_1
*I *2401:B I *D sky130_fd_sc_hd__and2_1
*I *2402:B I *D sky130_fd_sc_hd__nor2_1
*I *2400:Y O *D sky130_fd_sc_hd__xnor2_1
*CAP
1 *2737:D 0
2 *2401:B 0
3 *2402:B 0
4 *2400:Y 0
5 *720:48 0.000621331
6 *720:28 0.000228536
7 *720:18 0.000707699
8 *720:6 0.00110049
9 *720:18 *2401:A 9.67842e-05
10 *720:28 *2402:A 5.50049e-05
11 *720:28 *754:18 0.000106121
12 *720:28 *755:14 3.95159e-06
13 *2732:RESET_B *720:18 0.000344898
14 *2733:CLK *720:48 5.20613e-05
15 *269:14 *720:48 0.000188436
16 *270:10 *720:48 0.000163509
17 *272:10 *720:28 6.17437e-06
18 *273:6 *720:28 2.63049e-05
19 *275:12 *720:28 4.6318e-06
20 *363:10 *720:48 0
21 *551:18 *720:18 0.000277586
22 *551:26 *720:18 0.000138486
23 *634:24 *720:18 0.000581956
24 *639:18 *720:48 0.000423567
25 *639:43 *720:18 0
26 *639:43 *720:48 0
27 *640:49 *720:28 3.3123e-05
28 *640:55 *720:28 7.56417e-05
29 *642:99 *720:18 0.00014411
30 *642:99 *720:48 0.000133585
*RES
1 *2400:Y *720:6 38 
2 *720:6 *720:18 30.225 
3 *720:18 *720:28 35.0336 
4 *720:28 *2402:B 23 
5 *720:18 *2401:B 23 
6 *720:6 *720:48 28.8164 
7 *720:48 *2737:D 23 
*END

*D_NET *721 0.00250072
*CONN
*I *2412:B I *D sky130_fd_sc_hd__xnor2_1
*I *2738:D I *D sky130_fd_sc_hd__dfrtp_1
*I *2411:Y O *D sky130_fd_sc_hd__xnor2_1
*CAP
1 *2412:B 0.000526357
2 *2738:D 0.000274614
3 *2411:Y 0.000332806
4 *721:8 0.00113378
5 *2412:B *753:8 3.71369e-05
6 *2738:D *749:8 0
7 *721:8 *749:8 0
8 *351:32 *2738:D 0
9 *644:23 *721:8 0
10 *648:70 *721:8 0
11 *669:106 *721:8 0
12 *672:66 *2412:B 0.000196027
*RES
1 *2411:Y *721:8 43.4271 
2 *721:8 *2738:D 43.075 
3 *721:8 *2412:B 49.2479 
*END

*D_NET *722 0.00351945
*CONN
*I *2739:D I *D sky130_fd_sc_hd__dfrtp_1
*I *2410:B I *D sky130_fd_sc_hd__xnor2_1
*I *2409:Y O *D sky130_fd_sc_hd__xnor2_1
*CAP
1 *2739:D 0
2 *2410:B 0
3 *2409:Y 0.000176769
4 *722:19 0.00153689
5 *722:8 0.00171366
6 *722:19 *2410:A 5.50049e-05
7 *722:19 *727:12 0
8 *722:19 *739:10 0
9 *722:19 *743:10 0
10 *722:19 *752:8 0
11 *722:19 *756:14 0
12 *2739:CLK *722:19 0
13 *2739:RESET_B *722:19 0
14 *278:10 *722:8 3.71251e-05
15 *518:55 *722:19 0
16 *670:10 *722:19 0
*RES
1 *2409:Y *722:8 26.5007 
2 *722:8 *2410:B 23 
3 *722:8 *722:19 43.6271 
4 *722:19 *2739:D 38 
*END

*D_NET *723 0.000653877
*CONN
*I *2869:A I *D sky130_fd_sc_hd__dlygate4sd3_1
*I *2769:Q O *D sky130_fd_sc_hd__dfrtp_1
*CAP
1 *2869:A 0
2 *2769:Q 0.000199777
3 *723:10 0.000199777
4 *2769:RESET_B *723:10 1.73399e-05
5 *639:43 *723:10 0.000117249
6 *642:99 *723:10 0.000119735
*RES
1 *2769:Q *723:10 43.3443 
2 *723:10 *2869:A 38 
*END

*D_NET *724 0.00312679
*CONN
*I *2936:A I *D sky130_fd_sc_hd__dlygate4sd3_1
*I *2770:Q O *D sky130_fd_sc_hd__dfrtp_1
*CAP
1 *2936:A 0
2 *2770:Q 0
3 *724:12 0.000630886
4 *724:6 0.000630886
5 *724:12 *749:8 0
6 *363:10 *724:12 0.00133492
7 *633:14 *724:12 9.84851e-05
8 *669:106 *724:12 3.07161e-05
9 *672:76 *724:12 0.000400895
*RES
1 *2770:Q *724:6 38 
2 *724:6 *724:12 33.85 
3 *724:12 *2936:A 23 
*END

*D_NET *725 0.0020448
*CONN
*I *2925:A I *D sky130_fd_sc_hd__dlygate4sd3_1
*I *2771:Q O *D sky130_fd_sc_hd__dfrtp_1
*CAP
1 *2925:A 0.000560162
2 *2771:Q 0.000405433
3 *725:8 0.000965595
4 *2925:A *2763:D 0
5 *2925:A *733:25 0
6 *2758:RESET_B *2925:A 0.000113614
7 *351:10 *2925:A 0
8 *352:14 *2925:A 0
9 *675:96 *2925:A 0
*RES
1 *2771:Q *725:8 43.3857 
2 *725:8 *2925:A 48.3571 
*END

*D_NET *726 0.00138743
*CONN
*I *2914:A I *D sky130_fd_sc_hd__dlygate4sd3_1
*I *2772:Q O *D sky130_fd_sc_hd__dfrtp_1
*CAP
1 *2914:A 0.000230947
2 *2772:Q 0.000413334
3 *726:8 0.000644281
4 *2741:RESET_B *726:8 0
5 *2778:RESET_B *726:8 9.88678e-05
6 *352:60 *726:8 0
7 *352:90 *726:8 0
8 *714:18 *726:8 0
*RES
1 *2772:Q *726:8 45.54 
2 *726:8 *2914:A 41.9564 
*END

*D_NET *727 0.00169295
*CONN
*I *2947:A I *D sky130_fd_sc_hd__dlygate4sd3_1
*I *2773:Q O *D sky130_fd_sc_hd__dfrtp_1
*CAP
1 *2947:A 0
2 *2773:Q 8.52469e-05
3 *727:12 0.000576461
4 *727:8 0.000661708
5 *727:12 *739:10 0
6 *2739:RESET_B *727:12 8.51167e-05
7 *2767:RESET_B *727:12 5.561e-05
8 *674:92 *727:12 0.00022881
9 *722:19 *727:12 0
*RES
1 *2773:Q *727:8 39.0979 
2 *727:8 *727:12 28.1743 
3 *727:12 *2947:A 23 
*END

*D_NET *728 0.002523
*CONN
*I *2299:B I *D sky130_fd_sc_hd__xnor2_2
*I *2376:A I *D sky130_fd_sc_hd__xnor2_1
*I *2777:Q O *D sky130_fd_sc_hd__dfrtp_1
*CAP
1 *2299:B 0
2 *2376:A 0
3 *2777:Q 0.00032627
4 *728:16 0.000381567
5 *728:8 0.000707837
6 *728:16 *733:27 5.50049e-05
7 *728:16 *733:59 0.000290472
8 *2758:RESET_B *728:16 0
9 *198:8 *728:16 0.000168754
10 *254:8 *728:16 0
11 *676:46 *728:8 6.87362e-05
12 *676:54 *728:8 0.0001164
13 *681:10 *728:16 0.000138185
14 *714:18 *728:8 0.000269775
*RES
1 *2777:Q *728:8 30.7886 
2 *728:8 *728:16 38.3064 
3 *728:16 *2376:A 23 
4 *728:8 *2299:B 23 
*END

*D_NET *729 0.00539815
*CONN
*I *2365:A I *D sky130_fd_sc_hd__nor2_1
*I *2292:A I *D sky130_fd_sc_hd__inv_2
*I *2366:A I *D sky130_fd_sc_hd__and2_1
*I *2488:B I *D sky130_fd_sc_hd__or3b_4
*I *2468:B I *D sky130_fd_sc_hd__or3b_4
*I *2368:B I *D sky130_fd_sc_hd__and3_2
*I *2742:Q O *D sky130_fd_sc_hd__dfrtp_1
*CAP
1 *2365:A 4.96762e-05
2 *2292:A 0
3 *2366:A 0.000190785
4 *2488:B 0
5 *2468:B 0.000255919
6 *2368:B 0.000343626
7 *2742:Q 0
8 *729:54 0.000101261
9 *729:48 0.00025553
10 *729:25 0.000281325
11 *729:10 0.000451701
12 *729:8 0.000866531
13 *729:4 0.000697671
14 *2366:A *734:8 0
15 *2468:B *730:19 5.67058e-05
16 *729:8 *2742:D 4.67488e-05
17 *729:10 *730:8 6.68793e-05
18 *729:25 *730:19 5.50049e-05
19 *2468:C_N *2468:B 5.67058e-05
20 *2478:B *2368:B 0.000168754
21 *2740:CLK *2366:A 2.49836e-05
22 *2742:RESET_B *729:8 1.47264e-05
23 *2743:RESET_B *729:8 1.05353e-05
24 *175:16 *2368:B 0.000223698
25 *175:26 *2368:B 0
26 *175:26 *2468:B 0.000185428
27 *246:61 *2468:B 8.29052e-05
28 *247:12 *2365:A 2.02517e-05
29 *247:12 *729:8 0.000300125
30 *247:12 *729:48 3.22879e-05
31 *248:19 *2366:A 0.00021356
32 *248:19 *2368:B 2.55642e-05
33 *248:19 *729:10 0.000161121
34 *322:10 *2468:B 2.93845e-05
35 *326:8 *2368:B 0
36 *350:71 *2368:B 3.47879e-05
37 *677:27 *729:54 8.51225e-05
38 *677:31 *729:48 8.84817e-06
*RES
1 *2742:Q *729:4 23 
2 *729:4 *729:8 23.7207 
3 *729:8 *729:10 2.25786 
4 *729:10 *2368:B 44.1936 
5 *729:10 *729:25 15.6214 
6 *729:25 *2468:B 29.3386 
7 *729:25 *2488:B 23 
8 *729:8 *2366:A 41.6664 
9 *729:4 *729:48 1.57429 
10 *729:48 *729:54 32.2579 
11 *729:54 *2292:A 23 
12 *729:48 *2365:A 24.2014 
*END

*D_NET *730 0.00261969
*CONN
*I *2369:A I *D sky130_fd_sc_hd__nor2_1
*I *2382:A I *D sky130_fd_sc_hd__xnor2_1
*I *2368:A I *D sky130_fd_sc_hd__and3_2
*I *2291:A I *D sky130_fd_sc_hd__inv_2
*I *2488:A I *D sky130_fd_sc_hd__or3b_4
*I *2743:Q O *D sky130_fd_sc_hd__dfrtp_1
*CAP
1 *2369:A 0.000123841
2 *2382:A 0
3 *2368:A 0
4 *2291:A 8.14654e-05
5 *2488:A 0
6 *2743:Q 9.73994e-05
7 *730:45 0.000145506
8 *730:29 0.000284886
9 *730:19 0.000364744
10 *730:10 0.000139658
11 *730:8 9.73994e-05
12 *2368:C *730:29 9.48909e-05
13 *2369:B *2369:A 0.00012522
14 *2369:B *730:19 6.08617e-05
15 *2369:B *730:45 9.84851e-05
16 *2468:B *730:19 5.67058e-05
17 *175:6 *2291:A 5.50049e-05
18 *175:16 *2291:A 7.88828e-05
19 *175:16 *730:29 2.25419e-05
20 *246:61 *730:19 0.000105913
21 *249:12 *2291:A 0
22 *250:10 *2369:A 0.000228001
23 *250:10 *730:19 5.50106e-05
24 *250:10 *730:29 0.000140958
25 *250:10 *730:45 4.04303e-05
26 *729:10 *730:8 6.68793e-05
27 *729:25 *730:19 5.50049e-05
*RES
1 *2743:Q *730:8 39.9057 
2 *730:8 *730:10 15 
3 *730:10 *2488:A 23 
4 *730:10 *730:19 3.50071 
5 *730:19 *730:29 33.9771 
6 *730:29 *2291:A 25.0714 
7 *730:29 *2368:A 23 
8 *730:19 *730:45 1.09786 
9 *730:45 *2382:A 23 
10 *730:45 *2369:A 27.4743 
*END

*D_NET *731 0.00510003
*CONN
*I *2309:A I *D sky130_fd_sc_hd__or2_1
*I *2830:A I *D sky130_fd_sc_hd__buf_2
*I *2744:Q O *D sky130_fd_sc_hd__dfrtp_1
*CAP
1 *2309:A 0
2 *2830:A 0
3 *2744:Q 0
4 *731:21 0.00204757
5 *731:10 7.97814e-05
6 *731:4 0.00212735
7 *731:10 *744:16 4.23817e-05
8 *731:21 *732:21 0
9 *731:21 *733:37 0
10 *2302:A *731:21 0
11 *2304:A *731:21 0
12 *2744:RESET_B *731:21 0.00018282
13 *183:21 *731:21 0
14 *186:10 *731:21 0.000380352
15 *364:8 *731:21 0
16 *365:8 *731:21 0
17 *639:20 *731:10 6.93553e-05
18 *676:54 *731:21 5.56203e-05
19 *677:23 *731:21 0.00011481
*RES
1 *2744:Q *731:4 23 
2 *731:4 *731:10 31.9057 
3 *731:10 *2830:A 23 
4 *731:4 *731:21 47.2107 
5 *731:21 *2309:A 38 
*END

*D_NET *732 0.00686076
*CONN
*I *2301:A I *D sky130_fd_sc_hd__nand2_1
*I *2312:A I *D sky130_fd_sc_hd__nor2_1
*I *2300:A I *D sky130_fd_sc_hd__and2_1
*I *2829:A I *D sky130_fd_sc_hd__clkbuf_4
*I *2745:Q O *D sky130_fd_sc_hd__dfrtp_1
*CAP
1 *2301:A 1.54697e-05
2 *2312:A 0
3 *2300:A 0
4 *2829:A 0.000572907
5 *2745:Q 0
6 *732:34 8.64515e-05
7 *732:25 0.000329789
8 *732:21 0.00153022
9 *732:4 0.00184432
10 *732:21 *737:6 0.000311344
11 *2301:B *2301:A 5.67058e-05
12 *2301:B *732:34 5.18836e-05
13 *2302:A *732:21 0.000219882
14 *2385:A *2829:A 4.95081e-05
15 *2385:B *2829:A 0.00010018
16 *2745:CLK *732:21 5.41288e-05
17 *2745:RESET_B *732:21 5.14746e-06
18 *2776:RESET_B *732:21 8.7283e-06
19 *183:10 *732:21 0
20 *183:21 *732:21 0
21 *183:21 *732:25 0.000272383
22 *183:28 *732:25 8.6949e-05
23 *183:28 *732:34 5.67058e-05
24 *186:10 *732:21 0
25 *254:8 *732:21 0
26 *260:8 *2829:A 0.000143655
27 *260:35 *2829:A 0.000348774
28 *365:8 *732:21 0.000138718
29 *633:93 *2829:A 0.000168693
30 *633:93 *732:21 0.000141954
31 *633:99 *2829:A 0.000266271
32 *731:21 *732:21 0
*RES
1 *2745:Q *732:4 23 
2 *732:4 *2829:A 35.325 
3 *732:4 *732:21 37.2679 
4 *732:21 *732:25 20.8621 
5 *732:25 *2300:A 23 
6 *732:25 *732:34 2.07143 
7 *732:34 *2312:A 23 
8 *732:34 *2301:A 23.6214 
*END

*D_NET *733 0.00631611
*CONN
*I *2314:A I *D sky130_fd_sc_hd__xor2_2
*I *2375:A I *D sky130_fd_sc_hd__xnor2_1
*I *2415:A I *D sky130_fd_sc_hd__xnor2_1
*I *2763:D I *D sky130_fd_sc_hd__dfrtp_1
*I *2746:Q O *D sky130_fd_sc_hd__dfrtp_4
*CAP
1 *2314:A 0
2 *2375:A 2.34823e-05
3 *2415:A 0
4 *2763:D 0.000237725
5 *2746:Q 3.82873e-05
6 *733:59 0.000493367
7 *733:37 0.000667925
8 *733:27 0.00112177
9 *733:25 0.00123427
10 *733:8 0.000586546
11 *733:25 *747:16 0.000160682
12 *733:27 *747:8 0.000213682
13 *2375:B *733:37 0.000198206
14 *2746:RESET_B *2763:D 0
15 *2746:RESET_B *733:25 0
16 *2758:RESET_B *733:59 0
17 *2763:RESET_B *2763:D 3.57857e-05
18 *2801:A *733:8 5.67058e-05
19 *2925:A *2763:D 0
20 *2925:A *733:25 0
21 *345:174 *733:37 7.88828e-05
22 *345:191 *733:25 0
23 *351:10 *733:25 4.58924e-05
24 *351:20 *733:37 0
25 *352:14 *733:25 0.000246748
26 *352:64 *733:59 0.000268074
27 *364:8 *733:37 0.000126452
28 *633:8 *733:37 0
29 *670:27 *2763:D 4.3407e-05
30 *670:27 *733:8 3.71251e-05
31 *681:10 *733:25 5.56203e-05
32 *728:16 *733:27 5.50049e-05
33 *728:16 *733:59 0.000290472
34 *731:21 *733:37 0
*RES
1 *2746:Q *733:8 39.0979 
2 *733:8 *2763:D 42.2723 
3 *733:8 *733:25 22.8921 
4 *733:25 *733:27 8.72071 
5 *733:27 *733:37 43.8993 
6 *733:37 *2415:A 23 
7 *733:27 *2375:A 23.4971 
8 *733:25 *733:59 40.2743 
9 *733:59 *2314:A 23 
*END

*D_NET *734 0.000931214
*CONN
*I *2742:D I *D sky130_fd_sc_hd__dfrtp_1
*I *2367:Y O *D sky130_fd_sc_hd__nor2_1
*CAP
1 *2742:D 0.000153344
2 *2367:Y 0.000148309
3 *734:8 0.000301653
4 *2366:A *734:8 0
5 *2743:RESET_B *2742:D 1.56762e-05
6 *350:77 *2742:D 6.24154e-05
7 *350:93 *2742:D 0.000143655
8 *350:93 *734:8 5.94125e-05
9 *729:8 *2742:D 4.67488e-05
*RES
1 *2367:Y *734:8 40.2579 
2 *734:8 *2742:D 41.48 
*END

*D_NET *735 0.00112253
*CONN
*I *2743:D I *D sky130_fd_sc_hd__dfrtp_1
*I *2370:Y O *D sky130_fd_sc_hd__nor2_1
*CAP
1 *2743:D 0
2 *2370:Y 0.000513505
3 *735:10 0.000513505
4 *2370:B *735:10 5.50049e-05
5 *175:26 *735:10 0
6 *322:10 *735:10 0
7 *325:67 *735:10 4.05196e-05
*RES
1 *2370:Y *735:10 46.2029 
2 *735:10 *2743:D 38 
*END

*D_NET *736 0.00111508
*CONN
*I *2744:D I *D sky130_fd_sc_hd__dfrtp_1
*I *2373:Y O *D sky130_fd_sc_hd__nor2_1
*CAP
1 *2744:D 0.000133503
2 *2373:Y 0.000201883
3 *736:10 0.000335386
4 *736:10 *745:14 0
5 *2377:B *736:10 6.93449e-05
6 *350:54 *736:10 0.000166522
7 *635:101 *736:10 1.02387e-05
8 *636:16 *2744:D 0.000138444
9 *636:16 *736:10 5.97612e-05
*RES
1 *2373:Y *736:10 42.64 
2 *736:10 *2744:D 40.5479 
*END

*D_NET *737 0.00124821
*CONN
*I *2745:D I *D sky130_fd_sc_hd__dfrtp_1
*I *2414:X O *D sky130_fd_sc_hd__and2b_1
*CAP
1 *2745:D 0
2 *2414:X 0.000242374
3 *737:6 0.000242374
4 *2745:RESET_B *737:6 0.000206349
5 *260:35 *737:6 1.94693e-05
6 *633:93 *737:6 0.0002263
7 *732:21 *737:6 0.000311344
*RES
1 *2414:X *737:6 31.7207 
2 *737:6 *2745:D 23 
*END

*D_NET *738 0.000513366
*CONN
*I *2746:D I *D sky130_fd_sc_hd__dfrtp_4
*I *2415:Y O *D sky130_fd_sc_hd__xnor2_1
*CAP
1 *2746:D 0
2 *2415:Y 0.000125974
3 *738:14 0.000125974
4 *2746:CLK *738:14 8.14168e-05
5 *345:174 *738:14 0.000180002
*RES
1 *2415:Y *738:14 27.1636 
2 *738:14 *2746:D 23 
*END

*D_NET *739 0.00564725
*CONN
*I *2330:B I *D sky130_fd_sc_hd__xnor2_2
*I *2345:A I *D sky130_fd_sc_hd__xor2_1
*I *2346:A I *D sky130_fd_sc_hd__xnor2_1
*I *2768:Q O *D sky130_fd_sc_hd__dfrtp_2
*CAP
1 *2330:B 0
2 *2345:A 0
3 *2346:A 0.000100001
4 *2768:Q 0
5 *739:29 8.43649e-05
6 *739:14 0.000379305
7 *739:10 0.00143693
8 *739:6 0.00124199
9 *2346:A *756:20 0.000269769
10 *739:14 *756:20 0.000140259
11 *2345:B *739:29 0.000169674
12 *2431:S *739:10 0.000103124
13 *2767:RESET_B *739:10 5.561e-05
14 *213:8 *2346:A 7.42621e-05
15 *228:10 *739:29 1.37246e-05
16 *264:10 *739:10 7.44842e-05
17 *264:18 *739:10 1.05658e-05
18 *291:20 *739:10 2.26406e-05
19 *634:24 *739:10 0.000164429
20 *672:10 *739:10 5.20202e-05
21 *672:14 *739:10 0.000173681
22 *673:16 *739:10 0
23 *673:16 *739:29 7.66085e-05
24 *673:30 *739:10 0
25 *674:92 *739:10 4.6318e-06
26 *678:50 *739:10 0.000554506
27 *708:10 *739:29 3.47781e-05
28 *708:25 *2346:A 0.000370742
29 *708:34 *2346:A 3.91386e-05
30 *722:19 *739:10 0
31 *727:12 *739:10 0
*RES
1 *2768:Q *739:6 38 
2 *739:6 *739:10 45.0771 
3 *739:10 *739:14 3.97714 
4 *739:14 *2346:A 27.93 
5 *739:14 *739:29 32.9621 
6 *739:29 *2345:A 23 
7 *739:10 *2330:B 23 
*END

*D_NET *740 0.00172593
*CONN
*I *2759:D I *D sky130_fd_sc_hd__dfrtp_1
*I *2755:Q O *D sky130_fd_sc_hd__dfrtp_1
*CAP
1 *2759:D 3.19371e-05
2 *2755:Q 0.000502648
3 *740:10 0.000534586
4 *740:10 *2760:D 0
5 *2491:A0 *2759:D 6.17437e-06
6 *2755:RESET_B *740:10 5.3304e-05
7 *2759:CLK *2759:D 2.64616e-05
8 *2760:RESET_B *740:10 0.000305491
9 *363:10 *740:10 0
10 *633:18 *740:10 0
11 *634:168 *740:10 0.000104211
12 *675:42 *740:10 2.46345e-05
13 *687:10 *740:10 0.000136486
*RES
1 *2755:Q *740:10 48.3986 
2 *740:10 *2759:D 38.6214 
*END

*D_NET *741 0.00205371
*CONN
*I *2760:D I *D sky130_fd_sc_hd__dfrtp_1
*I *2756:Q O *D sky130_fd_sc_hd__dfrtp_1
*CAP
1 *2760:D 0.000399078
2 *2756:Q 0.000101682
3 *741:8 0.00050076
4 *2760:D *744:16 0.000107548
5 *2760:CLK *2760:D 2.22079e-05
6 *2775:D *2760:D 0.000207427
7 *670:58 *2760:D 4.06408e-05
8 *670:117 *2760:D 0.000491534
9 *670:117 *741:8 0.000182832
10 *675:42 *2760:D 0
11 *740:10 *2760:D 0
*RES
1 *2756:Q *741:8 40.0507 
2 *741:8 *2760:D 49.7657 
*END

*D_NET *742 0.000447065
*CONN
*I *2761:D I *D sky130_fd_sc_hd__dfrtp_1
*I *2757:Q O *D sky130_fd_sc_hd__dfrtp_1
*CAP
1 *2761:D 0
2 *2757:Q 0.00017814
3 *742:10 0.00017814
4 *345:174 *742:10 8.97286e-06
5 *363:10 *742:10 7.03663e-05
6 *633:14 *742:10 0
7 *675:32 *742:10 1.14452e-05
*RES
1 *2757:Q *742:10 41.0036 
2 *742:10 *2761:D 38 
*END

*D_NET *743 0.000899303
*CONN
*I *2762:D I *D sky130_fd_sc_hd__dfrtp_1
*I *2758:Q O *D sky130_fd_sc_hd__dfrtp_1
*CAP
1 *2762:D 0
2 *2758:Q 0.000387541
3 *743:10 0.000387541
4 *2739:CLK *743:10 7.41231e-05
5 *670:10 *743:10 4.21594e-06
6 *670:19 *743:10 4.5882e-05
7 *722:19 *743:10 0
*RES
1 *2758:Q *743:10 44.7736 
2 *743:10 *2762:D 38 
*END

*D_NET *744 0.00669215
*CONN
*I *2383:B I *D sky130_fd_sc_hd__xnor2_1
*I *2755:D I *D sky130_fd_sc_hd__dfrtp_1
*I *2382:Y O *D sky130_fd_sc_hd__xnor2_1
*CAP
1 *2383:B 3.65708e-05
2 *2755:D 0.000258977
3 *2382:Y 0.000565656
4 *744:16 0.00173212
5 *744:12 0.00171039
6 *744:8 0.000766324
7 *744:8 *745:10 5.26204e-05
8 *744:16 *745:10 0
9 *744:16 *746:14 0.00011273
10 *2368:C *744:8 3.90229e-05
11 *2379:B *744:8 0
12 *2386:B *744:16 0
13 *2744:RESET_B *744:16 0.000333296
14 *2760:D *744:16 0.000107548
15 *2775:D *744:16 0
16 *257:10 *744:16 0.000163343
17 *327:99 *744:16 0
18 *350:71 *744:8 0
19 *363:18 *744:16 5.61414e-05
20 *633:18 *744:16 2.60152e-05
21 *633:99 *744:16 0
22 *639:20 *744:16 0
23 *670:58 *744:16 0.000195248
24 *670:117 *744:16 0.000493765
25 *677:27 *744:16 0
26 *731:10 *744:16 4.23817e-05
*RES
1 *2382:Y *744:8 48.3571 
2 *744:8 *744:12 18.48 
3 *744:12 *744:16 46.4857 
4 *744:16 *2755:D 41.9564 
5 *744:12 *2383:B 23.6214 
*END

*D_NET *745 0.00499799
*CONN
*I *2381:B I *D sky130_fd_sc_hd__nand2_1
*I *2380:B I *D sky130_fd_sc_hd__nor2_1
*I *2756:D I *D sky130_fd_sc_hd__dfrtp_1
*I *2379:Y O *D sky130_fd_sc_hd__xnor2_1
*CAP
1 *2381:B 0.000120557
2 *2380:B 0
3 *2756:D 0
4 *2379:Y 0.000292409
5 *745:23 0.000331967
6 *745:14 0.000715807
7 *745:10 0.00121963
8 *2303:A *745:10 5.41288e-05
9 *2377:B *745:14 1.37349e-05
10 *2380:A *2381:B 4.66969e-05
11 *2381:A *2381:B 5.90675e-06
12 *251:10 *745:14 7.81176e-05
13 *323:16 *745:14 0
14 *327:99 *745:10 0.000139647
15 *327:99 *745:14 0.00148053
16 *338:10 *745:14 3.29804e-05
17 *338:18 *745:14 0
18 *345:167 *745:14 0
19 *349:56 *745:14 0.00019747
20 *350:54 *745:14 0
21 *350:71 *745:10 0
22 *350:71 *745:14 0
23 *635:101 *745:14 0.000215791
24 *736:10 *745:14 0
25 *744:8 *745:10 5.26204e-05
26 *744:16 *745:10 0
*RES
1 *2379:Y *745:10 44.1729 
2 *745:10 *745:14 34.865 
3 *745:14 *2756:D 23 
4 *745:10 *745:23 18.48 
5 *745:23 *2380:B 23 
6 *745:23 *2381:B 25.5686 
*END

*D_NET *746 0.00383335
*CONN
*I *2378:B I *D sky130_fd_sc_hd__xor2_1
*I *2757:D I *D sky130_fd_sc_hd__dfrtp_1
*I *2377:Y O *D sky130_fd_sc_hd__xnor2_1
*CAP
1 *2378:B 0
2 *2757:D 0
3 *2377:Y 0.000184765
4 *746:27 0.000363223
5 *746:14 0.000480736
6 *746:6 0.00102872
7 *2374:A *746:6 0.000228001
8 *2374:B *746:6 3.17516e-05
9 *2375:B *746:27 8.52481e-05
10 *2744:RESET_B *746:14 0.000167708
11 *2775:D *746:14 0.000191157
12 *253:6 *746:6 0.000140259
13 *253:6 *746:27 0.000226306
14 *253:12 *746:27 6.33614e-05
15 *345:174 *746:14 0.000119957
16 *363:10 *746:14 0
17 *363:10 *746:27 0.000196904
18 *636:8 *746:6 9.84794e-05
19 *677:27 *746:14 0.000114042
20 *677:27 *746:27 0
21 *744:16 *746:14 0.00011273
*RES
1 *2377:Y *746:6 27.9093 
2 *746:6 *746:14 42.7807 
3 *746:14 *2757:D 23 
4 *746:6 *746:27 38.9071 
5 *746:27 *2378:B 23 
*END

*D_NET *747 0.00162164
*CONN
*I *2376:B I *D sky130_fd_sc_hd__xnor2_1
*I *2758:D I *D sky130_fd_sc_hd__dfrtp_1
*I *2375:Y O *D sky130_fd_sc_hd__xnor2_1
*CAP
1 *2376:B 0
2 *2758:D 0
3 *2375:Y 0.000287232
4 *747:16 0.000311439
5 *747:8 0.000598671
6 *345:191 *747:16 0
7 *352:14 *747:16 4.9939e-05
8 *681:10 *747:16 0
9 *733:25 *747:16 0.000160682
10 *733:27 *747:8 0.000213682
*RES
1 *2375:Y *747:8 29.3593 
2 *747:8 *747:16 36.0745 
3 *747:16 *2758:D 23 
4 *747:8 *2376:B 23 
*END

*D_NET *748 0.000278805
*CONN
*I *2764:D I *D sky130_fd_sc_hd__dfrtp_1
*I *2759:Q O *D sky130_fd_sc_hd__dfrtp_1
*CAP
1 *2764:D 8.63458e-05
2 *2759:Q 8.63458e-05
3 *2764:CLK *2764:D 5.67058e-05
4 *672:66 *2764:D 4.94073e-05
*RES
1 *2759:Q *2764:D 48.0507 
*END

*D_NET *749 0.00137409
*CONN
*I *2765:D I *D sky130_fd_sc_hd__dfrtp_1
*I *2760:Q O *D sky130_fd_sc_hd__dfrtp_1
*CAP
1 *2765:D 4.01419e-05
2 *2760:Q 0.000415982
3 *749:8 0.000456124
4 *2738:D *749:8 0
5 *2765:CLK *2765:D 0.00010018
6 *644:23 *2765:D 0.000228909
7 *648:74 *2765:D 3.98818e-05
8 *669:106 *749:8 9.28739e-05
9 *721:8 *749:8 0
10 *724:12 *749:8 0
*RES
1 *2760:Q *749:8 45.1879 
2 *749:8 *2765:D 40.5271 
*END

*D_NET *750 0.00134244
*CONN
*I *2766:D I *D sky130_fd_sc_hd__dfrtp_1
*I *2761:Q O *D sky130_fd_sc_hd__dfrtp_1
*CAP
1 *2766:D 0
2 *2761:Q 0.000399016
3 *750:10 0.000399016
4 *2761:RESET_B *750:10 0.000182826
5 *670:35 *750:10 0.000195638
6 *670:41 *750:10 1.44546e-05
7 *674:47 *750:10 0
8 *674:54 *750:10 0
9 *717:10 *750:10 0.000151486
*RES
1 *2761:Q *750:10 47.9429 
2 *750:10 *2766:D 38 
*END

*D_NET *751 0.00115207
*CONN
*I *2767:D I *D sky130_fd_sc_hd__dfrtp_2
*I *2762:Q O *D sky130_fd_sc_hd__dfrtp_1
*CAP
1 *2767:D 0
2 *2762:Q 0.000404613
3 *751:10 0.000404613
4 *2865:A *751:10 0.000114074
5 *518:25 *751:10 0
6 *518:40 *751:10 0
7 *675:122 *751:10 7.91493e-05
8 *676:8 *751:10 8.91468e-07
9 *678:50 *751:10 0.000148731
*RES
1 *2762:Q *751:10 46.99 
2 *751:10 *2767:D 38 
*END

*D_NET *752 0.000833493
*CONN
*I *2768:D I *D sky130_fd_sc_hd__dfrtp_2
*I *2763:Q O *D sky130_fd_sc_hd__dfrtp_1
*CAP
1 *2768:D 0
2 *2763:Q 0.000175338
3 *752:8 0.000175338
4 *518:55 *752:8 0.000166513
5 *670:10 *752:8 8.62876e-05
6 *675:10 *752:8 0.000219873
7 *675:96 *752:8 1.01436e-05
8 *722:19 *752:8 0
*RES
1 *2763:Q *752:8 42.7229 
2 *752:8 *2768:D 38 
*END

*D_NET *753 0.0054693
*CONN
*I *2405:A I *D sky130_fd_sc_hd__xor2_1
*I *2338:A I *D sky130_fd_sc_hd__xnor2_1
*I *2764:Q O *D sky130_fd_sc_hd__dfrtp_1
*CAP
1 *2405:A 6.80978e-05
2 *2338:A 0
3 *2764:Q 7.6311e-05
4 *753:16 0.00069935
5 *753:10 0.00191193
6 *753:8 0.00122079
7 *753:10 *754:10 0
8 *753:10 *755:14 0
9 *2405:B *753:16 0.000127488
10 *2412:B *753:8 3.71369e-05
11 *2732:RESET_B *753:10 0.000206266
12 *2764:RESET_B *753:10 5.31444e-05
13 *219:8 *753:16 0.000280472
14 *629:21 *753:16 5.70419e-05
15 *637:10 *753:10 0
16 *640:49 *753:10 0
17 *640:55 *753:10 0
18 *640:55 *753:16 0
19 *647:27 *753:16 0
20 *648:16 *753:16 5.41385e-05
21 *648:53 *753:10 0
22 *648:53 *753:16 0
23 *672:30 *753:10 0
24 *672:40 *753:10 0.000341267
25 *704:8 *753:16 0.000110532
26 *705:12 *753:10 0
27 *705:40 *753:10 0
28 *707:14 *753:10 0.000154717
29 *719:10 *753:16 7.06228e-05
*RES
1 *2764:Q *753:8 39.0979 
2 *753:8 *753:10 24.4429 
3 *753:10 *753:16 33.1457 
4 *753:16 *2338:A 23 
5 *753:10 *2405:A 39.0979 
*END

*D_NET *754 0.00606922
*CONN
*I *2402:A I *D sky130_fd_sc_hd__nor2_1
*I *2336:A I *D sky130_fd_sc_hd__xnor2_2
*I *2401:A I *D sky130_fd_sc_hd__and2_1
*I *2765:Q O *D sky130_fd_sc_hd__dfrtp_1
*CAP
1 *2402:A 1.80505e-05
2 *2336:A 0
3 *2401:A 4.11726e-05
4 *2765:Q 0.000326152
5 *754:33 0.000643076
6 *754:18 0.000846086
7 *754:10 0.00055103
8 *754:8 0.000697295
9 *754:10 *755:14 0.00076013
10 *754:18 *755:14 0.000206858
11 *754:33 *755:14 0.000644724
12 *2407:C1 *754:33 5.3304e-05
13 *213:10 *754:33 0
14 *213:16 *754:33 0
15 *217:8 *754:33 0
16 *217:14 *754:33 0
17 *271:10 *754:33 9.58714e-05
18 *273:6 *2402:A 2.93747e-05
19 *273:10 *754:33 2.55642e-05
20 *273:14 *754:33 0.000187996
21 *274:10 *754:33 7.76364e-06
22 *551:18 *2401:A 2.4754e-05
23 *551:18 *754:33 3.59538e-05
24 *634:24 *2401:A 0.000137651
25 *634:24 *754:33 2.81138e-05
26 *637:10 *754:10 0.000232378
27 *637:16 *754:10 2.05503e-05
28 *640:49 *754:10 0
29 *640:49 *754:18 0
30 *640:55 *754:33 0
31 *672:30 *754:8 7.70046e-05
32 *672:30 *754:10 5.36457e-05
33 *706:16 *754:10 6.68154e-05
34 *707:14 *754:10 0
35 *720:18 *2401:A 9.67842e-05
36 *720:28 *2402:A 5.50049e-05
37 *720:28 *754:18 0.000106121
38 *753:10 *754:10 0
*RES
1 *2765:Q *754:8 42.4329 
2 *754:8 *754:10 10.3571 
3 *754:10 *754:18 18.7286 
4 *754:18 *2401:A 24.5743 
5 *754:18 *754:33 45.805 
6 *754:33 *2336:A 23 
7 *754:10 *2402:A 38.6214 
*END

*D_NET *755 0.00542805
*CONN
*I *2412:A I *D sky130_fd_sc_hd__xnor2_1
*I *2334:A I *D sky130_fd_sc_hd__xor2_2
*I *2766:Q O *D sky130_fd_sc_hd__dfrtp_1
*CAP
1 *2412:A 0
2 *2334:A 0
3 *2766:Q 0.000573486
4 *755:14 0.0010598
5 *755:10 0.00163328
6 *273:10 *755:14 0.00012303
7 *274:10 *755:14 0.000203837
8 *275:12 *755:14 0.000218952
9 *277:10 *755:10 0
10 *279:8 *755:14 0
11 *672:30 *755:14 0
12 *674:18 *755:10 0
13 *674:22 *755:10 0
14 *708:40 *755:10 0
15 *708:40 *755:14 0
16 *708:50 *755:10 0
17 *720:28 *755:14 3.95159e-06
18 *753:10 *755:14 0
19 *754:10 *755:14 0.00076013
20 *754:18 *755:14 0.000206858
21 *754:33 *755:14 0.000644724
*RES
1 *2766:Q *755:10 48.2743 
2 *755:10 *755:14 40.1471 
3 *755:14 *2334:A 23 
4 *755:10 *2412:A 38 
*END

*D_NET *756 0.00448644
*CONN
*I *2410:A I *D sky130_fd_sc_hd__xnor2_1
*I *2330:A I *D sky130_fd_sc_hd__xnor2_2
*I *2767:Q O *D sky130_fd_sc_hd__dfrtp_2
*CAP
1 *2410:A 2.95294e-05
2 *2330:A 0
3 *2767:Q 0.000645899
4 *756:20 0.00119954
5 *756:14 0.00187497
6 empty *756:20 0
7 *2346:A *756:20 0.000269769
8 *39:10 *756:20 0
9 *213:8 *756:20 9.84851e-05
10 *278:10 *756:20 7.30771e-05
11 *637:172 *756:20 0
12 *668:112 *756:20 0
13 *668:125 *756:20 9.98995e-05
14 *673:30 *756:20 0
15 *708:10 *756:20 0
16 *712:10 *756:20 0
17 *722:19 *2410:A 5.50049e-05
18 *722:19 *756:14 0
19 *739:14 *756:20 0.000140259
*RES
1 *2767:Q *756:14 49.5171 
2 *756:14 *756:20 38.9457 
3 *756:20 *2330:A 23 
4 *756:14 *2410:A 38.6214 
*END
