*SPEF "ieee 1481-1999"
*DESIGN "async_fifo"
*DATE "16:36:02 Friday August 28, 2026"
*VENDOR "The OpenROAD Project"
*PROGRAM "OpenROAD"
*VERSION "edf00dff99f6c40d67a30c0e22a8191c5d2ed9d6"
*DESIGN_FLOW "NAME_SCOPE LOCAL" "PIN_CAP NONE"
*DIVIDER /
*DELIMITER :
*BUS_DELIMITER []
*T_UNIT 1 NS
*C_UNIT 1 PF
*R_UNIT 1 OHM
*L_UNIT 1 HENRY

*NAME_MAP
*3 aempty
*4 aempty_threshold[0]
*5 aempty_threshold[1]
*6 aempty_threshold[2]
*7 aempty_threshold[3]
*8 aempty_threshold[4]
*9 afull
*10 afull_threshold[0]
*11 afull_threshold[1]
*12 afull_threshold[2]
*13 afull_threshold[3]
*14 afull_threshold[4]
*15 arst_n
*16 empty
*17 full
*18 rd_clk
*19 rd_data[0]
*20 rd_data[1]
*21 rd_data[2]
*22 rd_data[3]
*23 rd_data[4]
*24 rd_data[5]
*25 rd_data[6]
*26 rd_data[7]
*27 rd_en
*28 wr_clk
*29 wr_data[0]
*30 wr_data[1]
*31 wr_data[2]
*32 wr_data[3]
*33 wr_data[4]
*34 wr_data[5]
*35 wr_data[6]
*36 wr_data[7]
*37 wr_en
*38 _000_
*39 _001_
*40 _002_
*41 _003_
*42 _004_
*43 _005_
*44 _006_
*45 _007_
*46 _008_
*47 _009_
*48 _010_
*49 _011_
*50 _012_
*51 _013_
*52 _014_
*53 _015_
*54 _016_
*55 _017_
*56 _018_
*57 _019_
*58 _020_
*59 _021_
*60 _022_
*61 _023_
*62 _024_
*63 _025_
*64 _026_
*65 _027_
*66 _028_
*67 _029_
*68 _030_
*69 _031_
*70 _032_
*71 _033_
*72 _034_
*73 _035_
*74 _036_
*75 _037_
*76 _038_
*77 _039_
*78 _040_
*79 _041_
*80 _042_
*81 _043_
*82 _044_
*83 _045_
*84 _046_
*85 _047_
*86 _048_
*87 _049_
*88 _050_
*89 _051_
*90 _052_
*91 _053_
*92 _054_
*93 _055_
*94 _056_
*95 _057_
*96 _058_
*97 _059_
*98 _060_
*99 _061_
*100 _062_
*101 _063_
*102 _064_
*103 _065_
*104 _066_
*105 _067_
*106 _068_
*107 _069_
*108 _070_
*109 _071_
*110 _072_
*111 _073_
*112 _074_
*113 _075_
*114 _076_
*115 _077_
*116 _078_
*117 _079_
*118 _080_
*119 _081_
*120 _082_
*121 _083_
*122 _084_
*123 _085_
*124 _086_
*125 _087_
*126 _088_
*127 _089_
*128 _090_
*129 _091_
*130 _092_
*131 _093_
*132 _094_
*133 _095_
*134 _096_
*135 _097_
*136 _098_
*137 _099_
*138 _100_
*139 _101_
*140 _102_
*141 _103_
*142 _104_
*143 _105_
*144 _106_
*145 _107_
*146 _108_
*147 _109_
*148 _110_
*149 _111_
*150 _112_
*151 _113_
*152 _114_
*153 _115_
*154 _116_
*155 _117_
*156 _118_
*157 _119_
*158 _120_
*159 _121_
*160 _122_
*161 _123_
*162 _124_
*163 _125_
*164 _126_
*165 _127_
*166 _128_
*167 _129_
*168 _130_
*169 _131_
*170 _132_
*171 _133_
*172 _134_
*173 _135_
*174 _136_
*175 _137_
*176 _138_
*177 _139_
*178 _140_
*179 _141_
*180 _142_
*181 _143_
*182 _144_
*183 _145_
*184 _146_
*185 _147_
*186 _148_
*187 _149_
*188 _150_
*189 _151_
*190 _152_
*191 _153_
*192 _154_
*193 _155_
*194 _156_
*195 _157_
*196 _158_
*197 _159_
*198 _160_
*199 _161_
*200 _162_
*201 _163_
*202 _164_
*203 _165_
*204 _166_
*205 _167_
*206 _168_
*207 _169_
*208 _170_
*209 _171_
*210 _172_
*211 _173_
*212 _174_
*213 _175_
*214 _176_
*215 _177_
*216 _178_
*217 _179_
*218 _180_
*219 _181_
*220 _182_
*221 _183_
*222 _184_
*223 _185_
*224 _186_
*225 _187_
*226 _188_
*227 _189_
*228 _190_
*229 _191_
*230 _192_
*231 _193_
*232 _194_
*233 _195_
*234 _196_
*235 _197_
*236 _198_
*237 _199_
*238 _200_
*239 _201_
*240 _202_
*241 _203_
*242 _204_
*243 _205_
*244 _206_
*245 _207_
*246 _208_
*247 _209_
*248 _210_
*249 _211_
*250 _212_
*251 _213_
*252 _214_
*253 _215_
*254 _216_
*255 _217_
*256 _218_
*257 _219_
*258 _220_
*259 _221_
*260 _222_
*261 _223_
*262 _224_
*263 _225_
*264 _226_
*265 _227_
*266 _228_
*267 _229_
*268 _230_
*269 _231_
*270 _232_
*271 _233_
*272 _234_
*273 _235_
*274 _236_
*275 _237_
*276 _238_
*277 _239_
*278 _240_
*279 _241_
*280 _242_
*281 _243_
*282 _244_
*283 _245_
*284 _246_
*285 _247_
*286 _248_
*287 _249_
*288 _250_
*289 _251_
*290 _252_
*291 _253_
*292 _254_
*293 _255_
*294 _256_
*295 _257_
*296 _258_
*297 _259_
*298 _260_
*299 _261_
*300 _262_
*301 _263_
*302 _264_
*303 _265_
*304 _266_
*305 _267_
*306 _268_
*307 _269_
*308 _270_
*309 _271_
*310 _272_
*311 _273_
*312 _274_
*313 _275_
*314 _276_
*315 _277_
*316 _278_
*317 _279_
*318 _280_
*319 _281_
*320 _282_
*321 _283_
*322 _284_
*323 _285_
*324 _286_
*325 _287_
*326 _288_
*327 _289_
*328 _290_
*329 _291_
*330 _292_
*331 _293_
*332 _294_
*333 _295_
*334 _296_
*335 _297_
*336 _298_
*337 _299_
*338 _300_
*339 _301_
*340 _302_
*341 _303_
*342 _304_
*343 aempty_next
*344 afull_next
*345 clknet_0_wr_clk
*346 clknet_4_0_0_wr_clk
*347 clknet_4_10_0_wr_clk
*348 clknet_4_11_0_wr_clk
*349 clknet_4_12_0_wr_clk
*350 clknet_4_13_0_wr_clk
*351 clknet_4_14_0_wr_clk
*352 clknet_4_15_0_wr_clk
*353 clknet_4_1_0_wr_clk
*354 clknet_4_2_0_wr_clk
*355 clknet_4_3_0_wr_clk
*356 clknet_4_4_0_wr_clk
*357 clknet_4_5_0_wr_clk
*358 clknet_4_6_0_wr_clk
*359 clknet_4_7_0_wr_clk
*360 clknet_4_8_0_wr_clk
*361 clknet_4_9_0_wr_clk
*362 empty_next
*363 full_compare\[0\]
*364 full_compare\[1\]
*365 full_compare\[2\]
*366 full_next
*367 mem\[0\]\[0\]
*368 mem\[0\]\[1\]
*369 mem\[0\]\[2\]
*370 mem\[0\]\[3\]
*371 mem\[0\]\[4\]
*372 mem\[0\]\[5\]
*373 mem\[0\]\[6\]
*374 mem\[0\]\[7\]
*375 mem\[10\]\[0\]
*376 mem\[10\]\[1\]
*377 mem\[10\]\[2\]
*378 mem\[10\]\[3\]
*379 mem\[10\]\[4\]
*380 mem\[10\]\[5\]
*381 mem\[10\]\[6\]
*382 mem\[10\]\[7\]
*383 mem\[11\]\[0\]
*384 mem\[11\]\[1\]
*385 mem\[11\]\[2\]
*386 mem\[11\]\[3\]
*387 mem\[11\]\[4\]
*388 mem\[11\]\[5\]
*389 mem\[11\]\[6\]
*390 mem\[11\]\[7\]
*391 mem\[12\]\[0\]
*392 mem\[12\]\[1\]
*393 mem\[12\]\[2\]
*394 mem\[12\]\[3\]
*395 mem\[12\]\[4\]
*396 mem\[12\]\[5\]
*397 mem\[12\]\[6\]
*398 mem\[12\]\[7\]
*399 mem\[13\]\[0\]
*400 mem\[13\]\[1\]
*401 mem\[13\]\[2\]
*402 mem\[13\]\[3\]
*403 mem\[13\]\[4\]
*404 mem\[13\]\[5\]
*405 mem\[13\]\[6\]
*406 mem\[13\]\[7\]
*407 mem\[14\]\[0\]
*408 mem\[14\]\[1\]
*409 mem\[14\]\[2\]
*410 mem\[14\]\[3\]
*411 mem\[14\]\[4\]
*412 mem\[14\]\[5\]
*413 mem\[14\]\[6\]
*414 mem\[14\]\[7\]
*415 mem\[15\]\[0\]
*416 mem\[15\]\[1\]
*417 mem\[15\]\[2\]
*418 mem\[15\]\[3\]
*419 mem\[15\]\[4\]
*420 mem\[15\]\[5\]
*421 mem\[15\]\[6\]
*422 mem\[15\]\[7\]
*423 mem\[1\]\[0\]
*424 mem\[1\]\[1\]
*425 mem\[1\]\[2\]
*426 mem\[1\]\[3\]
*427 mem\[1\]\[4\]
*428 mem\[1\]\[5\]
*429 mem\[1\]\[6\]
*430 mem\[1\]\[7\]
*431 mem\[2\]\[0\]
*432 mem\[2\]\[1\]
*433 mem\[2\]\[2\]
*434 mem\[2\]\[3\]
*435 mem\[2\]\[4\]
*436 mem\[2\]\[5\]
*437 mem\[2\]\[6\]
*438 mem\[2\]\[7\]
*439 mem\[3\]\[0\]
*440 mem\[3\]\[1\]
*441 mem\[3\]\[2\]
*442 mem\[3\]\[3\]
*443 mem\[3\]\[4\]
*444 mem\[3\]\[5\]
*445 mem\[3\]\[6\]
*446 mem\[3\]\[7\]
*447 mem\[4\]\[0\]
*448 mem\[4\]\[1\]
*449 mem\[4\]\[2\]
*450 mem\[4\]\[3\]
*451 mem\[4\]\[4\]
*452 mem\[4\]\[5\]
*453 mem\[4\]\[6\]
*454 mem\[4\]\[7\]
*455 mem\[5\]\[0\]
*456 mem\[5\]\[1\]
*457 mem\[5\]\[2\]
*458 mem\[5\]\[3\]
*459 mem\[5\]\[4\]
*460 mem\[5\]\[5\]
*461 mem\[5\]\[6\]
*462 mem\[5\]\[7\]
*463 mem\[6\]\[0\]
*464 mem\[6\]\[1\]
*465 mem\[6\]\[2\]
*466 mem\[6\]\[3\]
*467 mem\[6\]\[4\]
*468 mem\[6\]\[5\]
*469 mem\[6\]\[6\]
*470 mem\[6\]\[7\]
*471 mem\[7\]\[0\]
*472 mem\[7\]\[1\]
*473 mem\[7\]\[2\]
*474 mem\[7\]\[3\]
*475 mem\[7\]\[4\]
*476 mem\[7\]\[5\]
*477 mem\[7\]\[6\]
*478 mem\[7\]\[7\]
*479 mem\[8\]\[0\]
*480 mem\[8\]\[1\]
*481 mem\[8\]\[2\]
*482 mem\[8\]\[3\]
*483 mem\[8\]\[4\]
*484 mem\[8\]\[5\]
*485 mem\[8\]\[6\]
*486 mem\[8\]\[7\]
*487 mem\[9\]\[0\]
*488 mem\[9\]\[1\]
*489 mem\[9\]\[2\]
*490 mem\[9\]\[3\]
*491 mem\[9\]\[4\]
*492 mem\[9\]\[5\]
*493 mem\[9\]\[6\]
*494 mem\[9\]\[7\]
*495 net1
*496 net10
*497 net100
*498 net101
*499 net102
*500 net103
*501 net104
*502 net105
*503 net106
*504 net107
*505 net108
*506 net109
*507 net11
*508 net110
*509 net111
*510 net112
*511 net113
*512 net114
*513 net115
*514 net116
*515 net117
*516 net118
*517 net119
*518 net12
*519 net120
*520 net121
*521 net122
*522 net123
*523 net124
*524 net125
*525 net126
*526 net127
*527 net128
*528 net129
*529 net13
*530 net130
*531 net131
*532 net132
*533 net133
*534 net134
*535 net135
*536 net136
*537 net137
*538 net138
*539 net139
*540 net14
*541 net140
*542 net141
*543 net142
*544 net143
*545 net144
*546 net145
*547 net146
*548 net147
*549 net148
*550 net149
*551 net15
*552 net150
*553 net151
*554 net152
*555 net153
*556 net154
*557 net155
*558 net156
*559 net157
*560 net158
*561 net159
*562 net16
*563 net160
*564 net161
*565 net162
*566 net163
*567 net164
*568 net165
*569 net166
*570 net167
*571 net168
*572 net169
*573 net17
*574 net170
*575 net171
*576 net172
*577 net173
*578 net174
*579 net175
*580 net176
*581 net177
*582 net178
*583 net179
*584 net18
*585 net180
*586 net181
*587 net182
*588 net183
*589 net184
*590 net185
*591 net186
*592 net187
*593 net188
*594 net189
*595 net19
*596 net190
*597 net191
*598 net192
*599 net193
*600 net194
*601 net195
*602 net196
*603 net197
*604 net198
*605 net199
*606 net2
*607 net20
*608 net200
*609 net201
*610 net202
*611 net203
*612 net204
*613 net205
*614 net206
*615 net207
*616 net208
*617 net209
*618 net21
*619 net22
*620 net23
*621 net24
*622 net25
*623 net26
*624 net27
*625 net28
*626 net29
*627 net3
*628 net30
*629 net31
*630 net32
*631 net33
*632 net34
*633 net35
*634 net36
*635 net37
*636 net38
*637 net39
*638 net4
*639 net40
*640 net41
*641 net42
*642 net43
*643 net44
*644 net45
*645 net46
*646 net47
*647 net48
*648 net49
*649 net5
*650 net50
*651 net51
*652 net52
*653 net53
*654 net54
*655 net55
*656 net56
*657 net57
*658 net58
*659 net59
*660 net6
*661 net60
*662 net61
*663 net62
*664 net63
*665 net64
*666 net65
*667 net66
*668 net67
*669 net68
*670 net69
*671 net7
*672 net70
*673 net71
*674 net72
*675 net73
*676 net74
*677 net75
*678 net76
*679 net77
*680 net78
*681 net79
*682 net8
*683 net80
*684 net81
*685 net82
*686 net83
*687 net84
*688 net85
*689 net86
*690 net87
*691 net88
*692 net89
*693 net9
*694 net90
*695 net91
*696 net92
*697 net93
*698 net94
*699 net95
*700 net96
*701 net97
*702 net98
*703 net99
*704 rd_bin\[0\]
*705 rd_bin\[1\]
*706 rd_bin\[2\]
*707 rd_bin\[3\]
*708 rd_bin\[4\]
*709 rd_bin_next\[0\]
*710 rd_bin_next\[1\]
*711 rd_bin_next\[2\]
*712 rd_bin_next\[3\]
*713 rd_bin_next\[4\]
*714 rd_bin_sync\[4\]
*715 rd_gray\[0\]
*716 rd_gray\[1\]
*717 rd_gray\[2\]
*718 rd_gray\[3\]
*719 rd_gray_next\[0\]
*720 rd_gray_next\[1\]
*721 rd_gray_next\[2\]
*722 rd_gray_next\[3\]
*723 rd_gray_sync1\[0\]
*724 rd_gray_sync1\[1\]
*725 rd_gray_sync1\[2\]
*726 rd_gray_sync1\[3\]
*727 rd_gray_sync1\[4\]
*728 rd_gray_sync2\[3\]
*729 wr_bin\[0\]
*730 wr_bin\[1\]
*731 wr_bin\[2\]
*732 wr_bin\[3\]
*733 wr_bin\[4\]
*734 wr_bin_next\[0\]
*735 wr_bin_next\[1\]
*736 wr_bin_next\[2\]
*737 wr_bin_next\[3\]
*738 wr_bin_next\[4\]
*739 wr_bin_sync\[4\]
*740 wr_gray\[0\]
*741 wr_gray\[1\]
*742 wr_gray\[2\]
*743 wr_gray\[3\]
*744 wr_gray_next\[0\]
*745 wr_gray_next\[1\]
*746 wr_gray_next\[2\]
*747 wr_gray_next\[3\]
*748 wr_gray_sync1\[0\]
*749 wr_gray_sync1\[1\]
*750 wr_gray_sync1\[2\]
*751 wr_gray_sync1\[3\]
*752 wr_gray_sync1\[4\]
*753 wr_gray_sync2\[0\]
*754 wr_gray_sync2\[1\]
*755 wr_gray_sync2\[2\]
*756 wr_gray_sync2\[3\]
*757 FILLER_0_109
*758 FILLER_0_113
*759 FILLER_0_121
*760 FILLER_0_126
*761 FILLER_0_138
*762 FILLER_0_141
*763 FILLER_0_15
*764 FILLER_0_153
*765 FILLER_0_161
*766 FILLER_0_169
*767 FILLER_0_174
*768 FILLER_0_186
*769 FILLER_0_194
*770 FILLER_0_197
*771 FILLER_0_209
*772 FILLER_0_221
*773 FILLER_0_225
*774 FILLER_0_23
*775 FILLER_0_237
*776 FILLER_0_249
*777 FILLER_0_253
*778 FILLER_0_265
*779 FILLER_0_27
*780 FILLER_0_277
*781 FILLER_0_281
*782 FILLER_0_29
*783 FILLER_0_293
*784 FILLER_0_3
*785 FILLER_0_301
*786 FILLER_0_41
*787 FILLER_0_53
*788 FILLER_0_57
*789 FILLER_0_65
*790 FILLER_0_69
*791 FILLER_0_81
*792 FILLER_0_85
*793 FILLER_0_97
*794 FILLER_10_116
*795 FILLER_10_128
*796 FILLER_10_161
*797 FILLER_10_169
*798 FILLER_10_179
*799 FILLER_10_191
*800 FILLER_10_195
*801 FILLER_10_205
*802 FILLER_10_217
*803 FILLER_10_229
*804 FILLER_10_24
*805 FILLER_10_241
*806 FILLER_10_249
*807 FILLER_10_253
*808 FILLER_10_265
*809 FILLER_10_282
*810 FILLER_10_294
*811 FILLER_10_298
*812 FILLER_10_3
*813 FILLER_10_45
*814 FILLER_10_56
*815 FILLER_10_64
*816 FILLER_10_75
*817 FILLER_10_83
*818 FILLER_10_85
*819 FILLER_10_93
*820 FILLER_11_106
*821 FILLER_11_149
*822 FILLER_11_193
*823 FILLER_11_205
*824 FILLER_11_217
*825 FILLER_11_22
*826 FILLER_11_223
*827 FILLER_11_225
*828 FILLER_11_237
*829 FILLER_11_249
*830 FILLER_11_273
*831 FILLER_11_288
*832 FILLER_11_296
*833 FILLER_11_3
*834 FILLER_11_57
*835 FILLER_11_61
*836 FILLER_11_71
*837 FILLER_12_137
*838 FILLER_12_141
*839 FILLER_12_145
*840 FILLER_12_155
*841 FILLER_12_170
*842 FILLER_12_191
*843 FILLER_12_195
*844 FILLER_12_218
*845 FILLER_12_230
*846 FILLER_12_242
*847 FILLER_12_25
*848 FILLER_12_250
*849 FILLER_12_266
*850 FILLER_12_293
*851 FILLER_12_3
*852 FILLER_12_45
*853 FILLER_12_51
*854 FILLER_12_93
*855 FILLER_13_113
*856 FILLER_13_15
*857 FILLER_13_162
*858 FILLER_13_190
*859 FILLER_13_203
*860 FILLER_13_245
*861 FILLER_13_256
*862 FILLER_13_26
*863 FILLER_13_268
*864 FILLER_13_285
*865 FILLER_13_297
*866 FILLER_13_3
*867 FILLER_13_30
*868 FILLER_13_95
*869 FILLER_14_115
*870 FILLER_14_121
*871 FILLER_14_138
*872 FILLER_14_141
*873 FILLER_14_15
*874 FILLER_14_222
*875 FILLER_14_226
*876 FILLER_14_247
*877 FILLER_14_251
*878 FILLER_14_253
*879 FILLER_14_265
*880 FILLER_14_27
*881 FILLER_14_271
*882 FILLER_14_275
*883 FILLER_14_298
*884 FILLER_14_3
*885 FILLER_14_37
*886 FILLER_14_48
*887 FILLER_14_79
*888 FILLER_14_83
*889 FILLER_14_85
*890 FILLER_14_93
*891 FILLER_15_103
*892 FILLER_15_124
*893 FILLER_15_136
*894 FILLER_15_148
*895 FILLER_15_15
*896 FILLER_15_169
*897 FILLER_15_175
*898 FILLER_15_219
*899 FILLER_15_223
*900 FILLER_15_225
*901 FILLER_15_240
*902 FILLER_15_252
*903 FILLER_15_258
*904 FILLER_15_267
*905 FILLER_15_279
*906 FILLER_15_288
*907 FILLER_15_3
*908 FILLER_15_34
*909 FILLER_15_38
*910 FILLER_15_53
*911 FILLER_15_57
*912 FILLER_15_61
*913 FILLER_15_79
*914 FILLER_15_91
*915 FILLER_16_103
*916 FILLER_16_111
*917 FILLER_16_125
*918 FILLER_16_137
*919 FILLER_16_141
*920 FILLER_16_153
*921 FILLER_16_184
*922 FILLER_16_21
*923 FILLER_16_213
*924 FILLER_16_221
*925 FILLER_16_244
*926 FILLER_16_253
*927 FILLER_16_265
*928 FILLER_16_27
*929 FILLER_16_3
*930 FILLER_16_300
*931 FILLER_16_56
*932 FILLER_16_64
*933 FILLER_16_73
*934 FILLER_16_81
*935 FILLER_16_85
*936 FILLER_16_97
*937 FILLER_17_138
*938 FILLER_17_150
*939 FILLER_17_162
*940 FILLER_17_169
*941 FILLER_17_182
*942 FILLER_17_21
*943 FILLER_17_217
*944 FILLER_17_223
*945 FILLER_17_225
*946 FILLER_17_246
*947 FILLER_17_250
*948 FILLER_17_264
*949 FILLER_17_272
*950 FILLER_17_3
*951 FILLER_17_54
*952 FILLER_18_137
*953 FILLER_18_141
*954 FILLER_18_153
*955 FILLER_18_165
*956 FILLER_18_177
*957 FILLER_18_189
*958 FILLER_18_195
*959 FILLER_18_205
*960 FILLER_18_21
*961 FILLER_18_213
*962 FILLER_18_234
*963 FILLER_18_246
*964 FILLER_18_253
*965 FILLER_18_265
*966 FILLER_18_27
*967 FILLER_18_271
*968 FILLER_18_3
*969 FILLER_18_94
*970 FILLER_19_101
*971 FILLER_19_113
*972 FILLER_19_148
*973 FILLER_19_160
*974 FILLER_19_169
*975 FILLER_19_181
*976 FILLER_19_193
*977 FILLER_19_205
*978 FILLER_19_217
*979 FILLER_19_223
*980 FILLER_19_252
*981 FILLER_19_271
*982 FILLER_19_279
*983 FILLER_19_281
*984 FILLER_19_293
*985 FILLER_19_3
*986 FILLER_19_35
*987 FILLER_19_46
*988 FILLER_19_57
*989 FILLER_19_9
*990 FILLER_19_93
*991 FILLER_1_105
*992 FILLER_1_111
*993 FILLER_1_113
*994 FILLER_1_140
*995 FILLER_1_15
*996 FILLER_1_152
*997 FILLER_1_164
*998 FILLER_1_178
*999 FILLER_1_191
*1000 FILLER_1_203
*1001 FILLER_1_215
*1002 FILLER_1_223
*1003 FILLER_1_225
*1004 FILLER_1_237
*1005 FILLER_1_249
*1006 FILLER_1_261
*1007 FILLER_1_27
*1008 FILLER_1_273
*1009 FILLER_1_279
*1010 FILLER_1_281
*1011 FILLER_1_293
*1012 FILLER_1_3
*1013 FILLER_1_301
*1014 FILLER_1_39
*1015 FILLER_1_57
*1016 FILLER_1_69
*1017 FILLER_1_81
*1018 FILLER_1_93
*1019 FILLER_20_105
*1020 FILLER_20_109
*1021 FILLER_20_118
*1022 FILLER_20_138
*1023 FILLER_20_149
*1024 FILLER_20_167
*1025 FILLER_20_178
*1026 FILLER_20_190
*1027 FILLER_20_213
*1028 FILLER_20_22
*1029 FILLER_20_225
*1030 FILLER_20_239
*1031 FILLER_20_251
*1032 FILLER_20_253
*1033 FILLER_20_265
*1034 FILLER_20_277
*1035 FILLER_20_288
*1036 FILLER_20_29
*1037 FILLER_20_296
*1038 FILLER_20_42
*1039 FILLER_20_48
*1040 FILLER_20_65
*1041 FILLER_20_7
*1042 FILLER_20_82
*1043 FILLER_20_85
*1044 FILLER_20_93
*1045 FILLER_21_113
*1046 FILLER_21_121
*1047 FILLER_21_166
*1048 FILLER_21_178
*1049 FILLER_21_21
*1050 FILLER_21_222
*1051 FILLER_21_225
*1052 FILLER_21_237
*1053 FILLER_21_249
*1054 FILLER_21_261
*1055 FILLER_21_270
*1056 FILLER_21_279
*1057 FILLER_21_294
*1058 FILLER_21_298
*1059 FILLER_21_3
*1060 FILLER_21_51
*1061 FILLER_21_55
*1062 FILLER_21_57
*1063 FILLER_21_66
*1064 FILLER_21_82
*1065 FILLER_21_90
*1066 FILLER_22_109
*1067 FILLER_22_121
*1068 FILLER_22_129
*1069 FILLER_22_21
*1070 FILLER_22_217
*1071 FILLER_22_244
*1072 FILLER_22_253
*1073 FILLER_22_268
*1074 FILLER_22_27
*1075 FILLER_22_293
*1076 FILLER_22_301
*1077 FILLER_22_50
*1078 FILLER_22_6
*1079 FILLER_22_67
*1080 FILLER_22_79
*1081 FILLER_22_83
*1082 FILLER_22_85
*1083 FILLER_22_97
*1084 FILLER_23_108
*1085 FILLER_23_121
*1086 FILLER_23_133
*1087 FILLER_23_153
*1088 FILLER_23_165
*1089 FILLER_23_216
*1090 FILLER_23_220
*1091 FILLER_23_243
*1092 FILLER_23_25
*1093 FILLER_23_251
*1094 FILLER_23_260
*1095 FILLER_23_272
*1096 FILLER_23_281
*1097 FILLER_23_293
*1098 FILLER_23_3
*1099 FILLER_23_301
*1100 FILLER_23_51
*1101 FILLER_23_55
*1102 FILLER_23_84
*1103 FILLER_23_96
*1104 FILLER_24_109
*1105 FILLER_24_119
*1106 FILLER_24_129
*1107 FILLER_24_137
*1108 FILLER_24_141
*1109 FILLER_24_15
*1110 FILLER_24_179
*1111 FILLER_24_187
*1112 FILLER_24_214
*1113 FILLER_24_226
*1114 FILLER_24_253
*1115 FILLER_24_258
*1116 FILLER_24_27
*1117 FILLER_24_270
*1118 FILLER_24_282
*1119 FILLER_24_29
*1120 FILLER_24_296
*1121 FILLER_24_3
*1122 FILLER_24_45
*1123 FILLER_24_83
*1124 FILLER_24_85
*1125 FILLER_24_94
*1126 FILLER_25_110
*1127 FILLER_25_137
*1128 FILLER_25_15
*1129 FILLER_25_169
*1130 FILLER_25_181
*1131 FILLER_25_193
*1132 FILLER_25_221
*1133 FILLER_25_225
*1134 FILLER_25_233
*1135 FILLER_25_247
*1136 FILLER_25_255
*1137 FILLER_25_27
*1138 FILLER_25_270
*1139 FILLER_25_278
*1140 FILLER_25_281
*1141 FILLER_25_3
*1142 FILLER_25_39
*1143 FILLER_25_47
*1144 FILLER_25_57
*1145 FILLER_26_134
*1146 FILLER_26_141
*1147 FILLER_26_156
*1148 FILLER_26_168
*1149 FILLER_26_180
*1150 FILLER_26_186
*1151 FILLER_26_197
*1152 FILLER_26_20
*1153 FILLER_26_203
*1154 FILLER_26_224
*1155 FILLER_26_232
*1156 FILLER_26_242
*1157 FILLER_26_250
*1158 FILLER_26_279
*1159 FILLER_26_3
*1160 FILLER_26_301
*1161 FILLER_26_45
*1162 FILLER_26_53
*1163 FILLER_26_79
*1164 FILLER_26_83
*1165 FILLER_26_85
*1166 FILLER_27_129
*1167 FILLER_27_165
*1168 FILLER_27_169
*1169 FILLER_27_181
*1170 FILLER_27_198
*1171 FILLER_27_210
*1172 FILLER_27_222
*1173 FILLER_27_225
*1174 FILLER_27_229
*1175 FILLER_27_250
*1176 FILLER_27_262
*1177 FILLER_27_279
*1178 FILLER_27_29
*1179 FILLER_27_3
*1180 FILLER_27_55
*1181 FILLER_27_57
*1182 FILLER_27_69
*1183 FILLER_27_87
*1184 FILLER_28_109
*1185 FILLER_28_123
*1186 FILLER_28_141
*1187 FILLER_28_145
*1188 FILLER_28_191
*1189 FILLER_28_195
*1190 FILLER_28_206
*1191 FILLER_28_25
*1192 FILLER_28_253
*1193 FILLER_28_264
*1194 FILLER_28_272
*1195 FILLER_28_281
*1196 FILLER_28_293
*1197 FILLER_28_3
*1198 FILLER_28_300
*1199 FILLER_28_58
*1200 FILLER_28_66
*1201 FILLER_28_77
*1202 FILLER_28_83
*1203 FILLER_28_85
*1204 FILLER_28_97
*1205 FILLER_29_102
*1206 FILLER_29_11
*1207 FILLER_29_110
*1208 FILLER_29_113
*1209 FILLER_29_125
*1210 FILLER_29_165
*1211 FILLER_29_169
*1212 FILLER_29_177
*1213 FILLER_29_225
*1214 FILLER_29_237
*1215 FILLER_29_249
*1216 FILLER_29_261
*1217 FILLER_29_273
*1218 FILLER_29_279
*1219 FILLER_29_281
*1220 FILLER_29_29
*1221 FILLER_29_293
*1222 FILLER_29_3
*1223 FILLER_29_49
*1224 FILLER_29_55
*1225 FILLER_29_57
*1226 FILLER_29_78
*1227 FILLER_29_90
*1228 FILLER_2_103
*1229 FILLER_2_120
*1230 FILLER_2_138
*1231 FILLER_2_149
*1232 FILLER_2_15
*1233 FILLER_2_161
*1234 FILLER_2_165
*1235 FILLER_2_191
*1236 FILLER_2_195
*1237 FILLER_2_197
*1238 FILLER_2_209
*1239 FILLER_2_221
*1240 FILLER_2_233
*1241 FILLER_2_245
*1242 FILLER_2_251
*1243 FILLER_2_253
*1244 FILLER_2_265
*1245 FILLER_2_27
*1246 FILLER_2_277
*1247 FILLER_2_289
*1248 FILLER_2_29
*1249 FILLER_2_3
*1250 FILLER_2_301
*1251 FILLER_2_65
*1252 FILLER_2_77
*1253 FILLER_2_83
*1254 FILLER_2_85
*1255 FILLER_2_97
*1256 FILLER_30_10
*1257 FILLER_30_110
*1258 FILLER_30_122
*1259 FILLER_30_134
*1260 FILLER_30_150
*1261 FILLER_30_154
*1262 FILLER_30_163
*1263 FILLER_30_190
*1264 FILLER_30_205
*1265 FILLER_30_22
*1266 FILLER_30_229
*1267 FILLER_30_253
*1268 FILLER_30_265
*1269 FILLER_30_29
*1270 FILLER_30_291
*1271 FILLER_30_299
*1272 FILLER_30_35
*1273 FILLER_30_45
*1274 FILLER_30_57
*1275 FILLER_30_85
*1276 FILLER_31_122
*1277 FILLER_31_134
*1278 FILLER_31_146
*1279 FILLER_31_155
*1280 FILLER_31_167
*1281 FILLER_31_169
*1282 FILLER_31_196
*1283 FILLER_31_219
*1284 FILLER_31_223
*1285 FILLER_31_225
*1286 FILLER_31_237
*1287 FILLER_31_261
*1288 FILLER_31_273
*1289 FILLER_31_279
*1290 FILLER_31_3
*1291 FILLER_31_30
*1292 FILLER_31_57
*1293 FILLER_32_101
*1294 FILLER_32_122
*1295 FILLER_32_134
*1296 FILLER_32_141
*1297 FILLER_32_153
*1298 FILLER_32_165
*1299 FILLER_32_194
*1300 FILLER_32_205
*1301 FILLER_32_217
*1302 FILLER_32_227
*1303 FILLER_32_239
*1304 FILLER_32_25
*1305 FILLER_32_251
*1306 FILLER_32_253
*1307 FILLER_32_265
*1308 FILLER_32_3
*1309 FILLER_32_300
*1310 FILLER_32_74
*1311 FILLER_32_85
*1312 FILLER_32_91
*1313 FILLER_33_104
*1314 FILLER_33_129
*1315 FILLER_33_15
*1316 FILLER_33_155
*1317 FILLER_33_167
*1318 FILLER_33_169
*1319 FILLER_33_181
*1320 FILLER_33_187
*1321 FILLER_33_197
*1322 FILLER_33_209
*1323 FILLER_33_221
*1324 FILLER_33_225
*1325 FILLER_33_237
*1326 FILLER_33_25
*1327 FILLER_33_259
*1328 FILLER_33_271
*1329 FILLER_33_278
*1330 FILLER_33_281
*1331 FILLER_33_29
*1332 FILLER_33_293
*1333 FILLER_33_3
*1334 FILLER_33_301
*1335 FILLER_33_55
*1336 FILLER_33_68
*1337 FILLER_33_85
*1338 FILLER_33_93
*1339 FILLER_34_101
*1340 FILLER_34_126
*1341 FILLER_34_130
*1342 FILLER_34_141
*1343 FILLER_34_15
*1344 FILLER_34_175
*1345 FILLER_34_188
*1346 FILLER_34_19
*1347 FILLER_34_217
*1348 FILLER_34_241
*1349 FILLER_34_253
*1350 FILLER_34_3
*1351 FILLER_34_301
*1352 FILLER_34_37
*1353 FILLER_34_43
*1354 FILLER_34_66
*1355 FILLER_34_72
*1356 FILLER_34_82
*1357 FILLER_34_85
*1358 FILLER_34_97
*1359 FILLER_35_11
*1360 FILLER_35_124
*1361 FILLER_35_165
*1362 FILLER_35_178
*1363 FILLER_35_197
*1364 FILLER_35_223
*1365 FILLER_35_225
*1366 FILLER_35_235
*1367 FILLER_35_270
*1368 FILLER_35_278
*1369 FILLER_35_281
*1370 FILLER_35_295
*1371 FILLER_35_3
*1372 FILLER_35_301
*1373 FILLER_35_47
*1374 FILLER_35_55
*1375 FILLER_35_57
*1376 FILLER_35_91
*1377 FILLER_36_141
*1378 FILLER_36_145
*1379 FILLER_36_180
*1380 FILLER_36_184
*1381 FILLER_36_206
*1382 FILLER_36_21
*1383 FILLER_36_210
*1384 FILLER_36_231
*1385 FILLER_36_243
*1386 FILLER_36_253
*1387 FILLER_36_27
*1388 FILLER_36_277
*1389 FILLER_36_289
*1390 FILLER_36_3
*1391 FILLER_36_301
*1392 FILLER_36_45
*1393 FILLER_36_49
*1394 FILLER_36_66
*1395 FILLER_36_94
*1396 FILLER_37_129
*1397 FILLER_37_141
*1398 FILLER_37_153
*1399 FILLER_37_159
*1400 FILLER_37_169
*1401 FILLER_37_208
*1402 FILLER_37_21
*1403 FILLER_37_220
*1404 FILLER_37_225
*1405 FILLER_37_237
*1406 FILLER_37_249
*1407 FILLER_37_25
*1408 FILLER_37_271
*1409 FILLER_37_279
*1410 FILLER_37_3
*1411 FILLER_37_301
*1412 FILLER_37_51
*1413 FILLER_37_55
*1414 FILLER_37_57
*1415 FILLER_38_11
*1416 FILLER_38_136
*1417 FILLER_38_141
*1418 FILLER_38_153
*1419 FILLER_38_165
*1420 FILLER_38_169
*1421 FILLER_38_195
*1422 FILLER_38_21
*1423 FILLER_38_211
*1424 FILLER_38_223
*1425 FILLER_38_231
*1426 FILLER_38_239
*1427 FILLER_38_247
*1428 FILLER_38_251
*1429 FILLER_38_253
*1430 FILLER_38_262
*1431 FILLER_38_27
*1432 FILLER_38_274
*1433 FILLER_38_280
*1434 FILLER_38_3
*1435 FILLER_38_301
*1436 FILLER_38_50
*1437 FILLER_38_80
*1438 FILLER_38_93
*1439 FILLER_39_101
*1440 FILLER_39_111
*1441 FILLER_39_113
*1442 FILLER_39_122
*1443 FILLER_39_134
*1444 FILLER_39_146
*1445 FILLER_39_15
*1446 FILLER_39_158
*1447 FILLER_39_166
*1448 FILLER_39_169
*1449 FILLER_39_181
*1450 FILLER_39_208
*1451 FILLER_39_216
*1452 FILLER_39_27
*1453 FILLER_39_278
*1454 FILLER_39_3
*1455 FILLER_39_35
*1456 FILLER_39_45
*1457 FILLER_39_53
*1458 FILLER_39_57
*1459 FILLER_39_69
*1460 FILLER_39_93
*1461 FILLER_3_138
*1462 FILLER_3_15
*1463 FILLER_3_150
*1464 FILLER_3_209
*1465 FILLER_3_221
*1466 FILLER_3_225
*1467 FILLER_3_237
*1468 FILLER_3_249
*1469 FILLER_3_261
*1470 FILLER_3_27
*1471 FILLER_3_273
*1472 FILLER_3_279
*1473 FILLER_3_281
*1474 FILLER_3_293
*1475 FILLER_3_3
*1476 FILLER_3_301
*1477 FILLER_3_35
*1478 FILLER_3_52
*1479 FILLER_3_66
*1480 FILLER_3_78
*1481 FILLER_3_90
*1482 FILLER_40_122
*1483 FILLER_40_134
*1484 FILLER_40_15
*1485 FILLER_40_162
*1486 FILLER_40_174
*1487 FILLER_40_187
*1488 FILLER_40_197
*1489 FILLER_40_224
*1490 FILLER_40_236
*1491 FILLER_40_248
*1492 FILLER_40_253
*1493 FILLER_40_259
*1494 FILLER_40_27
*1495 FILLER_40_273
*1496 FILLER_40_299
*1497 FILLER_40_3
*1498 FILLER_40_37
*1499 FILLER_40_49
*1500 FILLER_40_76
*1501 FILLER_40_85
*1502 FILLER_40_97
*1503 FILLER_41_145
*1504 FILLER_41_165
*1505 FILLER_41_169
*1506 FILLER_41_192
*1507 FILLER_41_204
*1508 FILLER_41_213
*1509 FILLER_41_222
*1510 FILLER_41_228
*1511 FILLER_41_253
*1512 FILLER_41_265
*1513 FILLER_41_277
*1514 FILLER_41_281
*1515 FILLER_41_297
*1516 FILLER_41_3
*1517 FILLER_41_30
*1518 FILLER_41_301
*1519 FILLER_41_43
*1520 FILLER_41_55
*1521 FILLER_41_73
*1522 FILLER_41_92
*1523 FILLER_42_129
*1524 FILLER_42_141
*1525 FILLER_42_163
*1526 FILLER_42_169
*1527 FILLER_42_195
*1528 FILLER_42_206
*1529 FILLER_42_21
*1530 FILLER_42_220
*1531 FILLER_42_224
*1532 FILLER_42_236
*1533 FILLER_42_248
*1534 FILLER_42_253
*1535 FILLER_42_265
*1536 FILLER_42_27
*1537 FILLER_42_277
*1538 FILLER_42_289
*1539 FILLER_42_3
*1540 FILLER_42_301
*1541 FILLER_42_50
*1542 FILLER_42_88
*1543 FILLER_43_101
*1544 FILLER_43_11
*1545 FILLER_43_122
*1546 FILLER_43_151
*1547 FILLER_43_162
*1548 FILLER_43_169
*1549 FILLER_43_173
*1550 FILLER_43_199
*1551 FILLER_43_211
*1552 FILLER_43_223
*1553 FILLER_43_246
*1554 FILLER_43_25
*1555 FILLER_43_265
*1556 FILLER_43_277
*1557 FILLER_43_281
*1558 FILLER_43_293
*1559 FILLER_43_3
*1560 FILLER_43_301
*1561 FILLER_43_52
*1562 FILLER_43_57
*1563 FILLER_43_68
*1564 FILLER_43_93
*1565 FILLER_44_105
*1566 FILLER_44_124
*1567 FILLER_44_141
*1568 FILLER_44_15
*1569 FILLER_44_171
*1570 FILLER_44_183
*1571 FILLER_44_195
*1572 FILLER_44_197
*1573 FILLER_44_209
*1574 FILLER_44_221
*1575 FILLER_44_233
*1576 FILLER_44_239
*1577 FILLER_44_243
*1578 FILLER_44_251
*1579 FILLER_44_260
*1580 FILLER_44_27
*1581 FILLER_44_271
*1582 FILLER_44_279
*1583 FILLER_44_3
*1584 FILLER_44_301
*1585 FILLER_44_53
*1586 FILLER_44_65
*1587 FILLER_44_80
*1588 FILLER_44_85
*1589 FILLER_44_97
*1590 FILLER_45_100
*1591 FILLER_45_122
*1592 FILLER_45_134
*1593 FILLER_45_140
*1594 FILLER_45_166
*1595 FILLER_45_169
*1596 FILLER_45_18
*1597 FILLER_45_184
*1598 FILLER_45_204
*1599 FILLER_45_216
*1600 FILLER_45_225
*1601 FILLER_45_233
*1602 FILLER_45_245
*1603 FILLER_45_257
*1604 FILLER_45_279
*1605 FILLER_45_281
*1606 FILLER_45_289
*1607 FILLER_45_293
*1608 FILLER_45_297
*1609 FILLER_45_30
*1610 FILLER_45_38
*1611 FILLER_45_47
*1612 FILLER_45_55
*1613 FILLER_45_57
*1614 FILLER_45_6
*1615 FILLER_45_63
*1616 FILLER_45_88
*1617 FILLER_46_103
*1618 FILLER_46_132
*1619 FILLER_46_15
*1620 FILLER_46_150
*1621 FILLER_46_162
*1622 FILLER_46_174
*1623 FILLER_46_195
*1624 FILLER_46_207
*1625 FILLER_46_213
*1626 FILLER_46_217
*1627 FILLER_46_221
*1628 FILLER_46_229
*1629 FILLER_46_247
*1630 FILLER_46_251
*1631 FILLER_46_267
*1632 FILLER_46_27
*1633 FILLER_46_279
*1634 FILLER_46_29
*1635 FILLER_46_291
*1636 FILLER_46_3
*1637 FILLER_46_41
*1638 FILLER_46_53
*1639 FILLER_46_65
*1640 FILLER_46_77
*1641 FILLER_46_83
*1642 FILLER_46_85
*1643 FILLER_46_97
*1644 FILLER_47_105
*1645 FILLER_47_111
*1646 FILLER_47_122
*1647 FILLER_47_128
*1648 FILLER_47_149
*1649 FILLER_47_15
*1650 FILLER_47_161
*1651 FILLER_47_167
*1652 FILLER_47_169
*1653 FILLER_47_215
*1654 FILLER_47_225
*1655 FILLER_47_252
*1656 FILLER_47_264
*1657 FILLER_47_27
*1658 FILLER_47_276
*1659 FILLER_47_281
*1660 FILLER_47_293
*1661 FILLER_47_3
*1662 FILLER_47_301
*1663 FILLER_47_39
*1664 FILLER_47_51
*1665 FILLER_47_55
*1666 FILLER_47_57
*1667 FILLER_47_69
*1668 FILLER_47_81
*1669 FILLER_47_93
*1670 FILLER_48_123
*1671 FILLER_48_135
*1672 FILLER_48_139
*1673 FILLER_48_141
*1674 FILLER_48_15
*1675 FILLER_48_153
*1676 FILLER_48_165
*1677 FILLER_48_177
*1678 FILLER_48_185
*1679 FILLER_48_195
*1680 FILLER_48_197
*1681 FILLER_48_219
*1682 FILLER_48_227
*1683 FILLER_48_253
*1684 FILLER_48_262
*1685 FILLER_48_27
*1686 FILLER_48_274
*1687 FILLER_48_286
*1688 FILLER_48_29
*1689 FILLER_48_298
*1690 FILLER_48_3
*1691 FILLER_48_41
*1692 FILLER_48_53
*1693 FILLER_48_65
*1694 FILLER_48_77
*1695 FILLER_48_83
*1696 FILLER_48_85
*1697 FILLER_48_97
*1698 FILLER_49_105
*1699 FILLER_49_111
*1700 FILLER_49_113
*1701 FILLER_49_125
*1702 FILLER_49_137
*1703 FILLER_49_149
*1704 FILLER_49_15
*1705 FILLER_49_161
*1706 FILLER_49_167
*1707 FILLER_49_169
*1708 FILLER_49_181
*1709 FILLER_49_193
*1710 FILLER_49_205
*1711 FILLER_49_215
*1712 FILLER_49_223
*1713 FILLER_49_225
*1714 FILLER_49_237
*1715 FILLER_49_249
*1716 FILLER_49_261
*1717 FILLER_49_27
*1718 FILLER_49_273
*1719 FILLER_49_279
*1720 FILLER_49_281
*1721 FILLER_49_293
*1722 FILLER_49_3
*1723 FILLER_49_301
*1724 FILLER_49_39
*1725 FILLER_49_51
*1726 FILLER_49_55
*1727 FILLER_49_57
*1728 FILLER_49_69
*1729 FILLER_49_81
*1730 FILLER_49_93
*1731 FILLER_4_119
*1732 FILLER_4_138
*1733 FILLER_4_141
*1734 FILLER_4_15
*1735 FILLER_4_153
*1736 FILLER_4_161
*1737 FILLER_4_171
*1738 FILLER_4_193
*1739 FILLER_4_197
*1740 FILLER_4_209
*1741 FILLER_4_221
*1742 FILLER_4_233
*1743 FILLER_4_245
*1744 FILLER_4_251
*1745 FILLER_4_253
*1746 FILLER_4_265
*1747 FILLER_4_27
*1748 FILLER_4_277
*1749 FILLER_4_289
*1750 FILLER_4_3
*1751 FILLER_4_301
*1752 FILLER_4_67
*1753 FILLER_4_79
*1754 FILLER_4_83
*1755 FILLER_4_85
*1756 FILLER_4_97
*1757 FILLER_50_109
*1758 FILLER_50_113
*1759 FILLER_50_125
*1760 FILLER_50_133
*1761 FILLER_50_139
*1762 FILLER_50_141
*1763 FILLER_50_147
*1764 FILLER_50_15
*1765 FILLER_50_153
*1766 FILLER_50_165
*1767 FILLER_50_169
*1768 FILLER_50_181
*1769 FILLER_50_193
*1770 FILLER_50_197
*1771 FILLER_50_209
*1772 FILLER_50_216
*1773 FILLER_50_225
*1774 FILLER_50_233
*1775 FILLER_50_237
*1776 FILLER_50_244
*1777 FILLER_50_251
*1778 FILLER_50_253
*1779 FILLER_50_261
*1780 FILLER_50_265
*1781 FILLER_50_27
*1782 FILLER_50_277
*1783 FILLER_50_281
*1784 FILLER_50_29
*1785 FILLER_50_293
*1786 FILLER_50_3
*1787 FILLER_50_301
*1788 FILLER_50_41
*1789 FILLER_50_53
*1790 FILLER_50_57
*1791 FILLER_50_69
*1792 FILLER_50_81
*1793 FILLER_50_85
*1794 FILLER_50_97
*1795 FILLER_5_102
*1796 FILLER_5_113
*1797 FILLER_5_125
*1798 FILLER_5_146
*1799 FILLER_5_15
*1800 FILLER_5_158
*1801 FILLER_5_166
*1802 FILLER_5_169
*1803 FILLER_5_187
*1804 FILLER_5_199
*1805 FILLER_5_211
*1806 FILLER_5_223
*1807 FILLER_5_225
*1808 FILLER_5_23
*1809 FILLER_5_237
*1810 FILLER_5_249
*1811 FILLER_5_261
*1812 FILLER_5_273
*1813 FILLER_5_279
*1814 FILLER_5_281
*1815 FILLER_5_293
*1816 FILLER_5_3
*1817 FILLER_5_301
*1818 FILLER_5_54
*1819 FILLER_5_65
*1820 FILLER_5_73
*1821 FILLER_5_90
*1822 FILLER_6_109
*1823 FILLER_6_126
*1824 FILLER_6_138
*1825 FILLER_6_15
*1826 FILLER_6_157
*1827 FILLER_6_165
*1828 FILLER_6_175
*1829 FILLER_6_187
*1830 FILLER_6_195
*1831 FILLER_6_206
*1832 FILLER_6_218
*1833 FILLER_6_230
*1834 FILLER_6_242
*1835 FILLER_6_250
*1836 FILLER_6_253
*1837 FILLER_6_265
*1838 FILLER_6_27
*1839 FILLER_6_277
*1840 FILLER_6_289
*1841 FILLER_6_3
*1842 FILLER_6_301
*1843 FILLER_6_53
*1844 FILLER_6_83
*1845 FILLER_7_101
*1846 FILLER_7_113
*1847 FILLER_7_126
*1848 FILLER_7_15
*1849 FILLER_7_165
*1850 FILLER_7_169
*1851 FILLER_7_193
*1852 FILLER_7_220
*1853 FILLER_7_225
*1854 FILLER_7_237
*1855 FILLER_7_249
*1856 FILLER_7_261
*1857 FILLER_7_27
*1858 FILLER_7_273
*1859 FILLER_7_279
*1860 FILLER_7_281
*1861 FILLER_7_293
*1862 FILLER_7_3
*1863 FILLER_7_301
*1864 FILLER_7_39
*1865 FILLER_7_51
*1866 FILLER_7_55
*1867 FILLER_7_57
*1868 FILLER_7_61
*1869 FILLER_8_103
*1870 FILLER_8_122
*1871 FILLER_8_132
*1872 FILLER_8_15
*1873 FILLER_8_157
*1874 FILLER_8_165
*1875 FILLER_8_193
*1876 FILLER_8_218
*1877 FILLER_8_230
*1878 FILLER_8_242
*1879 FILLER_8_250
*1880 FILLER_8_253
*1881 FILLER_8_265
*1882 FILLER_8_27
*1883 FILLER_8_277
*1884 FILLER_8_289
*1885 FILLER_8_29
*1886 FILLER_8_3
*1887 FILLER_8_301
*1888 FILLER_8_41
*1889 FILLER_8_49
*1890 FILLER_8_77
*1891 FILLER_8_83
*1892 FILLER_8_94
*1893 FILLER_9_108
*1894 FILLER_9_113
*1895 FILLER_9_122
*1896 FILLER_9_134
*1897 FILLER_9_140
*1898 FILLER_9_149
*1899 FILLER_9_15
*1900 FILLER_9_161
*1901 FILLER_9_167
*1902 FILLER_9_169
*1903 FILLER_9_173
*1904 FILLER_9_225
*1905 FILLER_9_237
*1906 FILLER_9_249
*1907 FILLER_9_261
*1908 FILLER_9_273
*1909 FILLER_9_279
*1910 FILLER_9_281
*1911 FILLER_9_29
*1912 FILLER_9_293
*1913 FILLER_9_3
*1914 FILLER_9_301
*1915 FILLER_9_41
*1916 FILLER_9_53
*1917 FILLER_9_57
*1918 FILLER_9_63
*1919 FILLER_9_67
*1920 FILLER_9_78
*1921 FILLER_9_90
*1922 FILLER_9_98
*1923 PHY_EDGE_ROW_0_Left_51
*1924 PHY_EDGE_ROW_0_Right_0
*1925 PHY_EDGE_ROW_10_Left_61
*1926 PHY_EDGE_ROW_10_Right_10
*1927 PHY_EDGE_ROW_11_Left_62
*1928 PHY_EDGE_ROW_11_Right_11
*1929 PHY_EDGE_ROW_12_Left_63
*1930 PHY_EDGE_ROW_12_Right_12
*1931 PHY_EDGE_ROW_13_Left_64
*1932 PHY_EDGE_ROW_13_Right_13
*1933 PHY_EDGE_ROW_14_Left_65
*1934 PHY_EDGE_ROW_14_Right_14
*1935 PHY_EDGE_ROW_15_Left_66
*1936 PHY_EDGE_ROW_15_Right_15
*1937 PHY_EDGE_ROW_16_Left_67
*1938 PHY_EDGE_ROW_16_Right_16
*1939 PHY_EDGE_ROW_17_Left_68
*1940 PHY_EDGE_ROW_17_Right_17
*1941 PHY_EDGE_ROW_18_Left_69
*1942 PHY_EDGE_ROW_18_Right_18
*1943 PHY_EDGE_ROW_19_Left_70
*1944 PHY_EDGE_ROW_19_Right_19
*1945 PHY_EDGE_ROW_1_Left_52
*1946 PHY_EDGE_ROW_1_Right_1
*1947 PHY_EDGE_ROW_20_Left_71
*1948 PHY_EDGE_ROW_20_Right_20
*1949 PHY_EDGE_ROW_21_Left_72
*1950 PHY_EDGE_ROW_21_Right_21
*1951 PHY_EDGE_ROW_22_Left_73
*1952 PHY_EDGE_ROW_22_Right_22
*1953 PHY_EDGE_ROW_23_Left_74
*1954 PHY_EDGE_ROW_23_Right_23
*1955 PHY_EDGE_ROW_24_Left_75
*1956 PHY_EDGE_ROW_24_Right_24
*1957 PHY_EDGE_ROW_25_Left_76
*1958 PHY_EDGE_ROW_25_Right_25
*1959 PHY_EDGE_ROW_26_Left_77
*1960 PHY_EDGE_ROW_26_Right_26
*1961 PHY_EDGE_ROW_27_Left_78
*1962 PHY_EDGE_ROW_27_Right_27
*1963 PHY_EDGE_ROW_28_Left_79
*1964 PHY_EDGE_ROW_28_Right_28
*1965 PHY_EDGE_ROW_29_Left_80
*1966 PHY_EDGE_ROW_29_Right_29
*1967 PHY_EDGE_ROW_2_Left_53
*1968 PHY_EDGE_ROW_2_Right_2
*1969 PHY_EDGE_ROW_30_Left_81
*1970 PHY_EDGE_ROW_30_Right_30
*1971 PHY_EDGE_ROW_31_Left_82
*1972 PHY_EDGE_ROW_31_Right_31
*1973 PHY_EDGE_ROW_32_Left_83
*1974 PHY_EDGE_ROW_32_Right_32
*1975 PHY_EDGE_ROW_33_Left_84
*1976 PHY_EDGE_ROW_33_Right_33
*1977 PHY_EDGE_ROW_34_Left_85
*1978 PHY_EDGE_ROW_34_Right_34
*1979 PHY_EDGE_ROW_35_Left_86
*1980 PHY_EDGE_ROW_35_Right_35
*1981 PHY_EDGE_ROW_36_Left_87
*1982 PHY_EDGE_ROW_36_Right_36
*1983 PHY_EDGE_ROW_37_Left_88
*1984 PHY_EDGE_ROW_37_Right_37
*1985 PHY_EDGE_ROW_38_Left_89
*1986 PHY_EDGE_ROW_38_Right_38
*1987 PHY_EDGE_ROW_39_Left_90
*1988 PHY_EDGE_ROW_39_Right_39
*1989 PHY_EDGE_ROW_3_Left_54
*1990 PHY_EDGE_ROW_3_Right_3
*1991 PHY_EDGE_ROW_40_Left_91
*1992 PHY_EDGE_ROW_40_Right_40
*1993 PHY_EDGE_ROW_41_Left_92
*1994 PHY_EDGE_ROW_41_Right_41
*1995 PHY_EDGE_ROW_42_Left_93
*1996 PHY_EDGE_ROW_42_Right_42
*1997 PHY_EDGE_ROW_43_Left_94
*1998 PHY_EDGE_ROW_43_Right_43
*1999 PHY_EDGE_ROW_44_Left_95
*2000 PHY_EDGE_ROW_44_Right_44
*2001 PHY_EDGE_ROW_45_Left_96
*2002 PHY_EDGE_ROW_45_Right_45
*2003 PHY_EDGE_ROW_46_Left_97
*2004 PHY_EDGE_ROW_46_Right_46
*2005 PHY_EDGE_ROW_47_Left_98
*2006 PHY_EDGE_ROW_47_Right_47
*2007 PHY_EDGE_ROW_48_Left_99
*2008 PHY_EDGE_ROW_48_Right_48
*2009 PHY_EDGE_ROW_49_Left_100
*2010 PHY_EDGE_ROW_49_Right_49
*2011 PHY_EDGE_ROW_4_Left_55
*2012 PHY_EDGE_ROW_4_Right_4
*2013 PHY_EDGE_ROW_50_Left_101
*2014 PHY_EDGE_ROW_50_Right_50
*2015 PHY_EDGE_ROW_5_Left_56
*2016 PHY_EDGE_ROW_5_Right_5
*2017 PHY_EDGE_ROW_6_Left_57
*2018 PHY_EDGE_ROW_6_Right_6
*2019 PHY_EDGE_ROW_7_Left_58
*2020 PHY_EDGE_ROW_7_Right_7
*2021 PHY_EDGE_ROW_8_Left_59
*2022 PHY_EDGE_ROW_8_Right_8
*2023 PHY_EDGE_ROW_9_Left_60
*2024 PHY_EDGE_ROW_9_Right_9
*2025 TAP_TAPCELL_ROW_0_102
*2026 TAP_TAPCELL_ROW_0_103
*2027 TAP_TAPCELL_ROW_0_104
*2028 TAP_TAPCELL_ROW_0_105
*2029 TAP_TAPCELL_ROW_0_106
*2030 TAP_TAPCELL_ROW_0_107
*2031 TAP_TAPCELL_ROW_0_108
*2032 TAP_TAPCELL_ROW_0_109
*2033 TAP_TAPCELL_ROW_0_110
*2034 TAP_TAPCELL_ROW_0_111
*2035 TAP_TAPCELL_ROW_10_157
*2036 TAP_TAPCELL_ROW_10_158
*2037 TAP_TAPCELL_ROW_10_159
*2038 TAP_TAPCELL_ROW_10_160
*2039 TAP_TAPCELL_ROW_10_161
*2040 TAP_TAPCELL_ROW_11_162
*2041 TAP_TAPCELL_ROW_11_163
*2042 TAP_TAPCELL_ROW_11_164
*2043 TAP_TAPCELL_ROW_11_165
*2044 TAP_TAPCELL_ROW_11_166
*2045 TAP_TAPCELL_ROW_12_167
*2046 TAP_TAPCELL_ROW_12_168
*2047 TAP_TAPCELL_ROW_12_169
*2048 TAP_TAPCELL_ROW_12_170
*2049 TAP_TAPCELL_ROW_12_171
*2050 TAP_TAPCELL_ROW_13_172
*2051 TAP_TAPCELL_ROW_13_173
*2052 TAP_TAPCELL_ROW_13_174
*2053 TAP_TAPCELL_ROW_13_175
*2054 TAP_TAPCELL_ROW_13_176
*2055 TAP_TAPCELL_ROW_14_177
*2056 TAP_TAPCELL_ROW_14_178
*2057 TAP_TAPCELL_ROW_14_179
*2058 TAP_TAPCELL_ROW_14_180
*2059 TAP_TAPCELL_ROW_14_181
*2060 TAP_TAPCELL_ROW_15_182
*2061 TAP_TAPCELL_ROW_15_183
*2062 TAP_TAPCELL_ROW_15_184
*2063 TAP_TAPCELL_ROW_15_185
*2064 TAP_TAPCELL_ROW_15_186
*2065 TAP_TAPCELL_ROW_16_187
*2066 TAP_TAPCELL_ROW_16_188
*2067 TAP_TAPCELL_ROW_16_189
*2068 TAP_TAPCELL_ROW_16_190
*2069 TAP_TAPCELL_ROW_16_191
*2070 TAP_TAPCELL_ROW_17_192
*2071 TAP_TAPCELL_ROW_17_193
*2072 TAP_TAPCELL_ROW_17_194
*2073 TAP_TAPCELL_ROW_17_195
*2074 TAP_TAPCELL_ROW_17_196
*2075 TAP_TAPCELL_ROW_18_197
*2076 TAP_TAPCELL_ROW_18_198
*2077 TAP_TAPCELL_ROW_18_199
*2078 TAP_TAPCELL_ROW_18_200
*2079 TAP_TAPCELL_ROW_18_201
*2080 TAP_TAPCELL_ROW_19_202
*2081 TAP_TAPCELL_ROW_19_203
*2082 TAP_TAPCELL_ROW_19_204
*2083 TAP_TAPCELL_ROW_19_205
*2084 TAP_TAPCELL_ROW_19_206
*2085 TAP_TAPCELL_ROW_1_112
*2086 TAP_TAPCELL_ROW_1_113
*2087 TAP_TAPCELL_ROW_1_114
*2088 TAP_TAPCELL_ROW_1_115
*2089 TAP_TAPCELL_ROW_1_116
*2090 TAP_TAPCELL_ROW_20_207
*2091 TAP_TAPCELL_ROW_20_208
*2092 TAP_TAPCELL_ROW_20_209
*2093 TAP_TAPCELL_ROW_20_210
*2094 TAP_TAPCELL_ROW_20_211
*2095 TAP_TAPCELL_ROW_21_212
*2096 TAP_TAPCELL_ROW_21_213
*2097 TAP_TAPCELL_ROW_21_214
*2098 TAP_TAPCELL_ROW_21_215
*2099 TAP_TAPCELL_ROW_21_216
*2100 TAP_TAPCELL_ROW_22_217
*2101 TAP_TAPCELL_ROW_22_218
*2102 TAP_TAPCELL_ROW_22_219
*2103 TAP_TAPCELL_ROW_22_220
*2104 TAP_TAPCELL_ROW_22_221
*2105 TAP_TAPCELL_ROW_23_222
*2106 TAP_TAPCELL_ROW_23_223
*2107 TAP_TAPCELL_ROW_23_224
*2108 TAP_TAPCELL_ROW_23_225
*2109 TAP_TAPCELL_ROW_23_226
*2110 TAP_TAPCELL_ROW_24_227
*2111 TAP_TAPCELL_ROW_24_228
*2112 TAP_TAPCELL_ROW_24_229
*2113 TAP_TAPCELL_ROW_24_230
*2114 TAP_TAPCELL_ROW_24_231
*2115 TAP_TAPCELL_ROW_25_232
*2116 TAP_TAPCELL_ROW_25_233
*2117 TAP_TAPCELL_ROW_25_234
*2118 TAP_TAPCELL_ROW_25_235
*2119 TAP_TAPCELL_ROW_25_236
*2120 TAP_TAPCELL_ROW_26_237
*2121 TAP_TAPCELL_ROW_26_238
*2122 TAP_TAPCELL_ROW_26_239
*2123 TAP_TAPCELL_ROW_26_240
*2124 TAP_TAPCELL_ROW_26_241
*2125 TAP_TAPCELL_ROW_27_242
*2126 TAP_TAPCELL_ROW_27_243
*2127 TAP_TAPCELL_ROW_27_244
*2128 TAP_TAPCELL_ROW_27_245
*2129 TAP_TAPCELL_ROW_27_246
*2130 TAP_TAPCELL_ROW_28_247
*2131 TAP_TAPCELL_ROW_28_248
*2132 TAP_TAPCELL_ROW_28_249
*2133 TAP_TAPCELL_ROW_28_250
*2134 TAP_TAPCELL_ROW_28_251
*2135 TAP_TAPCELL_ROW_29_252
*2136 TAP_TAPCELL_ROW_29_253
*2137 TAP_TAPCELL_ROW_29_254
*2138 TAP_TAPCELL_ROW_29_255
*2139 TAP_TAPCELL_ROW_29_256
*2140 TAP_TAPCELL_ROW_2_117
*2141 TAP_TAPCELL_ROW_2_118
*2142 TAP_TAPCELL_ROW_2_119
*2143 TAP_TAPCELL_ROW_2_120
*2144 TAP_TAPCELL_ROW_2_121
*2145 TAP_TAPCELL_ROW_30_257
*2146 TAP_TAPCELL_ROW_30_258
*2147 TAP_TAPCELL_ROW_30_259
*2148 TAP_TAPCELL_ROW_30_260
*2149 TAP_TAPCELL_ROW_30_261
*2150 TAP_TAPCELL_ROW_31_262
*2151 TAP_TAPCELL_ROW_31_263
*2152 TAP_TAPCELL_ROW_31_264
*2153 TAP_TAPCELL_ROW_31_265
*2154 TAP_TAPCELL_ROW_31_266
*2155 TAP_TAPCELL_ROW_32_267
*2156 TAP_TAPCELL_ROW_32_268
*2157 TAP_TAPCELL_ROW_32_269
*2158 TAP_TAPCELL_ROW_32_270
*2159 TAP_TAPCELL_ROW_32_271
*2160 TAP_TAPCELL_ROW_33_272
*2161 TAP_TAPCELL_ROW_33_273
*2162 TAP_TAPCELL_ROW_33_274
*2163 TAP_TAPCELL_ROW_33_275
*2164 TAP_TAPCELL_ROW_33_276
*2165 TAP_TAPCELL_ROW_34_277
*2166 TAP_TAPCELL_ROW_34_278
*2167 TAP_TAPCELL_ROW_34_279
*2168 TAP_TAPCELL_ROW_34_280
*2169 TAP_TAPCELL_ROW_34_281
*2170 TAP_TAPCELL_ROW_35_282
*2171 TAP_TAPCELL_ROW_35_283
*2172 TAP_TAPCELL_ROW_35_284
*2173 TAP_TAPCELL_ROW_35_285
*2174 TAP_TAPCELL_ROW_35_286
*2175 TAP_TAPCELL_ROW_36_287
*2176 TAP_TAPCELL_ROW_36_288
*2177 TAP_TAPCELL_ROW_36_289
*2178 TAP_TAPCELL_ROW_36_290
*2179 TAP_TAPCELL_ROW_36_291
*2180 TAP_TAPCELL_ROW_37_292
*2181 TAP_TAPCELL_ROW_37_293
*2182 TAP_TAPCELL_ROW_37_294
*2183 TAP_TAPCELL_ROW_37_295
*2184 TAP_TAPCELL_ROW_37_296
*2185 TAP_TAPCELL_ROW_38_297
*2186 TAP_TAPCELL_ROW_38_298
*2187 TAP_TAPCELL_ROW_38_299
*2188 TAP_TAPCELL_ROW_38_300
*2189 TAP_TAPCELL_ROW_38_301
*2190 TAP_TAPCELL_ROW_39_302
*2191 TAP_TAPCELL_ROW_39_303
*2192 TAP_TAPCELL_ROW_39_304
*2193 TAP_TAPCELL_ROW_39_305
*2194 TAP_TAPCELL_ROW_39_306
*2195 TAP_TAPCELL_ROW_3_122
*2196 TAP_TAPCELL_ROW_3_123
*2197 TAP_TAPCELL_ROW_3_124
*2198 TAP_TAPCELL_ROW_3_125
*2199 TAP_TAPCELL_ROW_3_126
*2200 TAP_TAPCELL_ROW_40_307
*2201 TAP_TAPCELL_ROW_40_308
*2202 TAP_TAPCELL_ROW_40_309
*2203 TAP_TAPCELL_ROW_40_310
*2204 TAP_TAPCELL_ROW_40_311
*2205 TAP_TAPCELL_ROW_41_312
*2206 TAP_TAPCELL_ROW_41_313
*2207 TAP_TAPCELL_ROW_41_314
*2208 TAP_TAPCELL_ROW_41_315
*2209 TAP_TAPCELL_ROW_41_316
*2210 TAP_TAPCELL_ROW_42_317
*2211 TAP_TAPCELL_ROW_42_318
*2212 TAP_TAPCELL_ROW_42_319
*2213 TAP_TAPCELL_ROW_42_320
*2214 TAP_TAPCELL_ROW_42_321
*2215 TAP_TAPCELL_ROW_43_322
*2216 TAP_TAPCELL_ROW_43_323
*2217 TAP_TAPCELL_ROW_43_324
*2218 TAP_TAPCELL_ROW_43_325
*2219 TAP_TAPCELL_ROW_43_326
*2220 TAP_TAPCELL_ROW_44_327
*2221 TAP_TAPCELL_ROW_44_328
*2222 TAP_TAPCELL_ROW_44_329
*2223 TAP_TAPCELL_ROW_44_330
*2224 TAP_TAPCELL_ROW_44_331
*2225 TAP_TAPCELL_ROW_45_332
*2226 TAP_TAPCELL_ROW_45_333
*2227 TAP_TAPCELL_ROW_45_334
*2228 TAP_TAPCELL_ROW_45_335
*2229 TAP_TAPCELL_ROW_45_336
*2230 TAP_TAPCELL_ROW_46_337
*2231 TAP_TAPCELL_ROW_46_338
*2232 TAP_TAPCELL_ROW_46_339
*2233 TAP_TAPCELL_ROW_46_340
*2234 TAP_TAPCELL_ROW_46_341
*2235 TAP_TAPCELL_ROW_47_342
*2236 TAP_TAPCELL_ROW_47_343
*2237 TAP_TAPCELL_ROW_47_344
*2238 TAP_TAPCELL_ROW_47_345
*2239 TAP_TAPCELL_ROW_47_346
*2240 TAP_TAPCELL_ROW_48_347
*2241 TAP_TAPCELL_ROW_48_348
*2242 TAP_TAPCELL_ROW_48_349
*2243 TAP_TAPCELL_ROW_48_350
*2244 TAP_TAPCELL_ROW_48_351
*2245 TAP_TAPCELL_ROW_49_352
*2246 TAP_TAPCELL_ROW_49_353
*2247 TAP_TAPCELL_ROW_49_354
*2248 TAP_TAPCELL_ROW_49_355
*2249 TAP_TAPCELL_ROW_49_356
*2250 TAP_TAPCELL_ROW_4_127
*2251 TAP_TAPCELL_ROW_4_128
*2252 TAP_TAPCELL_ROW_4_129
*2253 TAP_TAPCELL_ROW_4_130
*2254 TAP_TAPCELL_ROW_4_131
*2255 TAP_TAPCELL_ROW_50_357
*2256 TAP_TAPCELL_ROW_50_358
*2257 TAP_TAPCELL_ROW_50_359
*2258 TAP_TAPCELL_ROW_50_360
*2259 TAP_TAPCELL_ROW_50_361
*2260 TAP_TAPCELL_ROW_50_362
*2261 TAP_TAPCELL_ROW_50_363
*2262 TAP_TAPCELL_ROW_50_364
*2263 TAP_TAPCELL_ROW_50_365
*2264 TAP_TAPCELL_ROW_50_366
*2265 TAP_TAPCELL_ROW_5_132
*2266 TAP_TAPCELL_ROW_5_133
*2267 TAP_TAPCELL_ROW_5_134
*2268 TAP_TAPCELL_ROW_5_135
*2269 TAP_TAPCELL_ROW_5_136
*2270 TAP_TAPCELL_ROW_6_137
*2271 TAP_TAPCELL_ROW_6_138
*2272 TAP_TAPCELL_ROW_6_139
*2273 TAP_TAPCELL_ROW_6_140
*2274 TAP_TAPCELL_ROW_6_141
*2275 TAP_TAPCELL_ROW_7_142
*2276 TAP_TAPCELL_ROW_7_143
*2277 TAP_TAPCELL_ROW_7_144
*2278 TAP_TAPCELL_ROW_7_145
*2279 TAP_TAPCELL_ROW_7_146
*2280 TAP_TAPCELL_ROW_8_147
*2281 TAP_TAPCELL_ROW_8_148
*2282 TAP_TAPCELL_ROW_8_149
*2283 TAP_TAPCELL_ROW_8_150
*2284 TAP_TAPCELL_ROW_8_151
*2285 TAP_TAPCELL_ROW_9_152
*2286 TAP_TAPCELL_ROW_9_153
*2287 TAP_TAPCELL_ROW_9_154
*2288 TAP_TAPCELL_ROW_9_155
*2289 TAP_TAPCELL_ROW_9_156
*2290 _305_
*2291 _306_
*2292 _307_
*2293 _308_
*2294 _309_
*2295 _310_
*2296 _311_
*2297 _312_
*2298 _313_
*2299 _314_
*2300 _315_
*2301 _316_
*2302 _317_
*2303 _318_
*2304 _319_
*2305 _320_
*2306 _321_
*2307 _322_
*2308 _323_
*2309 _324_
*2310 _325_
*2311 _326_
*2312 _327_
*2313 _328_
*2314 _329_
*2315 _330_
*2316 _331_
*2317 _332_
*2318 _333_
*2319 _334_
*2320 _335_
*2321 _336_
*2322 _337_
*2323 _338_
*2324 _339_
*2325 _340_
*2326 _341_
*2327 _342_
*2328 _343_
*2329 _344_
*2330 _345_
*2331 _346_
*2332 _347_
*2333 _348_
*2334 _349_
*2335 _350_
*2336 _351_
*2337 _352_
*2338 _353_
*2339 _354_
*2340 _355_
*2341 _356_
*2342 _357_
*2343 _358_
*2344 _359_
*2345 _360_
*2346 _361_
*2347 _362_
*2348 _363_
*2349 _364_
*2350 _365_
*2351 _366_
*2352 _367_
*2353 _368_
*2354 _369_
*2355 _370_
*2356 _371_
*2357 _372_
*2358 _373_
*2359 _374_
*2360 _375_
*2361 _376_
*2362 _377_
*2363 _378_
*2364 _379_
*2365 _380_
*2366 _381_
*2367 _382_
*2368 _383_
*2369 _384_
*2370 _385_
*2371 _386_
*2372 _387_
*2373 _388_
*2374 _389_
*2375 _390_
*2376 _391_
*2377 _392_
*2378 _393_
*2379 _394_
*2380 _395_
*2381 _396_
*2382 _397_
*2383 _398_
*2384 _399_
*2385 _400_
*2386 _401_
*2387 _402_
*2388 _403_
*2389 _404_
*2390 _405_
*2391 _406_
*2392 _407_
*2393 _408_
*2394 _409_
*2395 _410_
*2396 _411_
*2397 _412_
*2398 _413_
*2399 _414_
*2400 _415_
*2401 _416_
*2402 _417_
*2403 _418_
*2404 _419_
*2405 _420_
*2406 _421_
*2407 _422_
*2408 _423_
*2409 _424_
*2410 _425_
*2411 _426_
*2412 _427_
*2413 _428_
*2414 _429_
*2415 _430_
*2416 _431_
*2417 _432_
*2418 _433_
*2419 _434_
*2420 _435_
*2421 _436_
*2422 _437_
*2423 _438_
*2424 _439_
*2425 _440_
*2426 _441_
*2427 _442_
*2428 _443_
*2429 _444_
*2430 _445_
*2431 _446_
*2432 _447_
*2433 _448_
*2434 _449_
*2435 _450_
*2436 _451_
*2437 _452_
*2438 _453_
*2439 _454_
*2440 _455_
*2441 _456_
*2442 _457_
*2443 _458_
*2444 _459_
*2445 _460_
*2446 _461_
*2447 _462_
*2448 _463_
*2449 _464_
*2450 _465_
*2451 _466_
*2452 _467_
*2453 _468_
*2454 _469_
*2455 _470_
*2456 _471_
*2457 _472_
*2458 _473_
*2459 _474_
*2460 _475_
*2461 _476_
*2462 _477_
*2463 _478_
*2464 _479_
*2465 _480_
*2466 _481_
*2467 _482_
*2468 _483_
*2469 _484_
*2470 _485_
*2471 _486_
*2472 _487_
*2473 _488_
*2474 _489_
*2475 _490_
*2476 _491_
*2477 _492_
*2478 _493_
*2479 _494_
*2480 _495_
*2481 _496_
*2482 _497_
*2483 _498_
*2484 _499_
*2485 _500_
*2486 _501_
*2487 _502_
*2488 _503_
*2489 _504_
*2490 _505_
*2491 _506_
*2492 _507_
*2493 _508_
*2494 _509_
*2495 _510_
*2496 _511_
*2497 _512_
*2498 _513_
*2499 _514_
*2500 _515_
*2501 _516_
*2502 _517_
*2503 _518_
*2504 _519_
*2505 _520_
*2506 _521_
*2507 _522_
*2508 _523_
*2509 _524_
*2510 _525_
*2511 _526_
*2512 _527_
*2513 _528_
*2514 _529_
*2515 _530_
*2516 _531_
*2517 _532_
*2518 _533_
*2519 _534_
*2520 _535_
*2521 _536_
*2522 _537_
*2523 _538_
*2524 _539_
*2525 _540_
*2526 _541_
*2527 _542_
*2528 _543_
*2529 _544_
*2530 _545_
*2531 _546_
*2532 _547_
*2533 _548_
*2534 _549_
*2535 _550_
*2536 _551_
*2537 _552_
*2538 _553_
*2539 _554_
*2540 _555_
*2541 _556_
*2542 _557_
*2543 _558_
*2544 _559_
*2545 _560_
*2546 _561_
*2547 _562_
*2548 _563_
*2549 _564_
*2550 _565_
*2551 _566_
*2552 _567_
*2553 _568_
*2554 _569_
*2555 _570_
*2556 _571_
*2557 _572_
*2558 _573_
*2559 _574_
*2560 _575_
*2561 _576_
*2562 _577_
*2563 _578_
*2564 _579_
*2565 _580_
*2566 _581_
*2567 _582_
*2568 _583_
*2569 _584_
*2570 _585_
*2571 _586_
*2572 _587_
*2573 _588_
*2574 _589_
*2575 _590_
*2576 _591_
*2577 _592_
*2578 _593_
*2579 _594_
*2580 _595_
*2581 _596_
*2582 _597_
*2583 _598_
*2584 _599_
*2585 _600_
*2586 _601_
*2587 _602_
*2588 _603_
*2589 _604_
*2590 _605_
*2591 _606_
*2592 _607_
*2593 _608_
*2594 _609_
*2595 _610_
*2596 _611_
*2597 _612_
*2598 _613_
*2599 _614_
*2600 _615_
*2601 _616_
*2602 _617_
*2603 _618_
*2604 _619_
*2605 _620_
*2606 _621_
*2607 _622_
*2608 _623_
*2609 _624_
*2610 _625_
*2611 _626_
*2612 _627_
*2613 _628_
*2614 _629_
*2615 _630_
*2616 _631_
*2617 _632_
*2618 _633_
*2619 _634_
*2620 _635_
*2621 _636_
*2622 _637_
*2623 _638_
*2624 _639_
*2625 _640_
*2626 _641_
*2627 _642_
*2628 _643_
*2629 _644_
*2630 _645_
*2631 _646_
*2632 _647_
*2633 _648_
*2634 _649_
*2635 _650_
*2636 _651_
*2637 _652_
*2638 _653_
*2639 _654_
*2640 _655_
*2641 _656_
*2642 _657_
*2643 _658_
*2644 _659_
*2645 _660_
*2646 _661_
*2647 _662_
*2648 _663_
*2649 _664_
*2650 _665_
*2651 _666_
*2652 _667_
*2653 _668_
*2654 _669_
*2655 _670_
*2656 _671_
*2657 _672_
*2658 _673_
*2659 _674_
*2660 _675_
*2661 _676_
*2662 _677_
*2663 _678_
*2664 _679_
*2665 _680_
*2666 _681_
*2667 _682_
*2668 _683_
*2669 _684_
*2670 _685_
*2671 _686_
*2672 _687_
*2673 _688_
*2674 _689_
*2675 _690_
*2676 _691_
*2677 _692_
*2678 _693_
*2679 _694_
*2680 _695_
*2681 _696_
*2682 _697_
*2683 _698_
*2684 _699_
*2685 _700_
*2686 _701_
*2687 _702_
*2688 _703_
*2689 _704_
*2690 _705_
*2691 _706_
*2692 _707_
*2693 _708_
*2694 _709_
*2695 _710_
*2696 _711_
*2697 _712_
*2698 _713_
*2699 _714_
*2700 _715_
*2701 _716_
*2702 _717_
*2703 _718_
*2704 _719_
*2705 _720_
*2706 _721_
*2707 _722_
*2708 _723_
*2709 _724_
*2710 _725_
*2711 _726_
*2712 _727_
*2713 _728_
*2714 _729_
*2715 _730_
*2716 _731_
*2717 _732_
*2718 _733_
*2719 _734_
*2720 _735_
*2721 _736_
*2722 _737_
*2723 _738_
*2724 _739_
*2725 _740_
*2726 _741_
*2727 _742_
*2728 _743_
*2729 _744_
*2730 _745_
*2731 _746_
*2732 _747_
*2733 _748_
*2734 _749_
*2735 _750_
*2736 _751_
*2737 _752_
*2738 _753_
*2739 _754_
*2740 _755_
*2741 _756_
*2742 _757_
*2743 _758_
*2744 _759_
*2745 _760_
*2746 _761_
*2747 _762_
*2748 _763_
*2749 _764_
*2750 _765_
*2751 _766_
*2752 _767_
*2753 _768_
*2754 _769_
*2755 _770_
*2756 _771_
*2757 _772_
*2758 _773_
*2759 _774_
*2760 _775_
*2761 _776_
*2762 _777_
*2763 _778_
*2764 _779_
*2765 _780_
*2766 _781_
*2767 _782_
*2768 _783_
*2769 _784_
*2770 _785_
*2771 _786_
*2772 _787_
*2773 _788_
*2774 _789_
*2775 _790_
*2776 _791_
*2777 _792_
*2778 _793_
*2779 _794_
*2780 _795_
*2781 _796_
*2782 _797_
*2783 _798_
*2784 _799_
*2785 _800_
*2786 _801_
*2787 _802_
*2788 _803_
*2789 _804_
*2790 _805_
*2791 _806_
*2792 _807_
*2793 _808_
*2794 _809_
*2795 clkbuf_0_wr_clk
*2796 clkbuf_4_0_0_wr_clk
*2797 clkbuf_4_10_0_wr_clk
*2798 clkbuf_4_11_0_wr_clk
*2799 clkbuf_4_12_0_wr_clk
*2800 clkbuf_4_13_0_wr_clk
*2801 clkbuf_4_14_0_wr_clk
*2802 clkbuf_4_15_0_wr_clk
*2803 clkbuf_4_1_0_wr_clk
*2804 clkbuf_4_2_0_wr_clk
*2805 clkbuf_4_3_0_wr_clk
*2806 clkbuf_4_4_0_wr_clk
*2807 clkbuf_4_5_0_wr_clk
*2808 clkbuf_4_6_0_wr_clk
*2809 clkbuf_4_7_0_wr_clk
*2810 clkbuf_4_8_0_wr_clk
*2811 clkbuf_4_9_0_wr_clk
*2812 clkload0
*2813 clkload1
*2814 clkload10
*2815 clkload11
*2816 clkload12
*2817 clkload13
*2818 clkload14
*2819 clkload2
*2820 clkload3
*2821 clkload4
*2822 clkload5
*2823 clkload6
*2824 clkload7
*2825 clkload8
*2826 clkload9
*2827 fanout35
*2828 fanout36
*2829 fanout37
*2830 fanout38
*2831 fanout39
*2832 fanout40
*2833 fanout41
*2834 fanout42
*2835 fanout43
*2836 fanout44
*2837 fanout45
*2838 fanout46
*2839 fanout47
*2840 fanout48
*2841 fanout49
*2842 fanout50
*2843 fanout51
*2844 fanout52
*2845 fanout53
*2846 fanout54
*2847 fanout55
*2848 fanout56
*2849 fanout57
*2850 fanout58
*2851 fanout59
*2852 fanout60
*2853 fanout61
*2854 fanout62
*2855 fanout63
*2856 fanout64
*2857 fanout65
*2858 fanout66
*2859 fanout67
*2860 fanout68
*2861 fanout69
*2862 fanout70
*2863 fanout71
*2864 fanout72
*2865 fanout73
*2866 fanout74
*2867 fanout75
*2868 fanout76
*2869 hold1
*2870 hold10
*2871 hold100
*2872 hold101
*2873 hold102
*2874 hold103
*2875 hold104
*2876 hold105
*2877 hold106
*2878 hold107
*2879 hold108
*2880 hold109
*2881 hold11
*2882 hold110
*2883 hold111
*2884 hold112
*2885 hold113
*2886 hold114
*2887 hold115
*2888 hold116
*2889 hold117
*2890 hold118
*2891 hold119
*2892 hold12
*2893 hold120
*2894 hold121
*2895 hold122
*2896 hold123
*2897 hold124
*2898 hold125
*2899 hold126
*2900 hold127
*2901 hold128
*2902 hold129
*2903 hold13
*2904 hold130
*2905 hold131
*2906 hold132
*2907 hold133
*2908 hold14
*2909 hold15
*2910 hold16
*2911 hold17
*2912 hold18
*2913 hold19
*2914 hold2
*2915 hold20
*2916 hold21
*2917 hold22
*2918 hold23
*2919 hold24
*2920 hold25
*2921 hold26
*2922 hold27
*2923 hold28
*2924 hold29
*2925 hold3
*2926 hold30
*2927 hold31
*2928 hold32
*2929 hold33
*2930 hold34
*2931 hold35
*2932 hold36
*2933 hold37
*2934 hold38
*2935 hold39
*2936 hold4
*2937 hold40
*2938 hold41
*2939 hold42
*2940 hold43
*2941 hold44
*2942 hold45
*2943 hold46
*2944 hold47
*2945 hold48
*2946 hold49
*2947 hold5
*2948 hold50
*2949 hold51
*2950 hold52
*2951 hold53
*2952 hold54
*2953 hold55
*2954 hold56
*2955 hold57
*2956 hold58
*2957 hold59
*2958 hold6
*2959 hold60
*2960 hold61
*2961 hold62
*2962 hold63
*2963 hold64
*2964 hold65
*2965 hold66
*2966 hold67
*2967 hold68
*2968 hold69
*2969 hold7
*2970 hold70
*2971 hold71
*2972 hold72
*2973 hold73
*2974 hold74
*2975 hold75
*2976 hold76
*2977 hold77
*2978 hold78
*2979 hold79
*2980 hold8
*2981 hold80
*2982 hold81
*2983 hold82
*2984 hold83
*2985 hold84
*2986 hold85
*2987 hold86
*2988 hold87
*2989 hold88
*2990 hold89
*2991 hold9
*2992 hold90
*2993 hold91
*2994 hold92
*2995 hold93
*2996 hold94
*2997 hold95
*2998 hold96
*2999 hold97
*3000 hold98
*3001 hold99
*3002 input1
*3003 input10
*3004 input11
*3005 input12
*3006 input13
*3007 input14
*3008 input15
*3009 input16
*3010 input17
*3011 input18
*3012 input19
*3013 input2
*3014 input20
*3015 input21
*3016 input22
*3017 input3
*3018 input4
*3019 input5
*3020 input6
*3021 input7
*3022 input8
*3023 input9
*3024 output23
*3025 output24
*3026 output25
*3027 output26
*3028 output27
*3029 output28
*3030 output29
*3031 output30
*3032 output31
*3033 output32
*3034 output33
*3035 output34

*PORTS
aempty O
aempty_threshold[0] I
aempty_threshold[1] I
aempty_threshold[2] I
aempty_threshold[3] I
aempty_threshold[4] I
afull O
afull_threshold[0] I
afull_threshold[1] I
afull_threshold[2] I
afull_threshold[3] I
afull_threshold[4] I
arst_n I
empty O
full O
rd_clk I
rd_data[0] O
rd_data[1] O
rd_data[2] O
rd_data[3] O
rd_data[4] O
rd_data[5] O
rd_data[6] O
rd_data[7] O
rd_en I
wr_clk I
wr_data[0] I
wr_data[1] I
wr_data[2] I
wr_data[3] I
wr_data[4] I
wr_data[5] I
wr_data[6] I
wr_data[7] I
wr_en I

*D_NET *3 0.000957716
*CONN
*P aempty O
*I *3024:X O *D sky130_fd_sc_hd__buf_2
*CAP
1 aempty 0.000314932
2 *3024:X 0.000314932
3 aempty rd_data[4] 0
4 aempty *3004:A 7.56675e-05
5 aempty *3019:A 5.91271e-05
6 aempty *3024:A 7.4538e-05
7 aempty *649:14 0.00011852
8 aempty *678:10 0
*RES
1 *3024:X aempty 7.96503 
*END

*D_NET *4 0.000489915
*CONN
*P aempty_threshold[0] I
*I *3002:A I *D sky130_fd_sc_hd__clkbuf_1
*CAP
1 aempty_threshold[0] 0.000207124
2 *3002:A 0.000207124
3 *3002:A *3013:A 7.56675e-05
4 *3002:A *678:10 0
*RES
1 aempty_threshold[0] *3002:A 5.8085 
*END

*D_NET *5 0.000478221
*CONN
*P aempty_threshold[1] I
*I *3013:A I *D sky130_fd_sc_hd__clkbuf_1
*CAP
1 aempty_threshold[1] 0.000143796
2 *3013:A 0.000143796
3 *3013:A *2360:A1 4.7496e-05
4 *3013:A *3017:A 6.74652e-05
5 *3002:A *3013:A 7.56675e-05
*RES
1 aempty_threshold[1] *3013:A 5.5535 
*END

*D_NET *6 0.00037739
*CONN
*P aempty_threshold[2] I
*I *3017:A I *D sky130_fd_sc_hd__clkbuf_1
*CAP
1 aempty_threshold[2] 0.000118357
2 *3017:A 0.000118357
3 *3017:A *3018:A 7.32103e-05
4 *3017:A *678:10 0
5 *3013:A *3017:A 6.74652e-05
*RES
1 aempty_threshold[2] *3017:A 4.7885 
*END

*D_NET *7 0.000383191
*CONN
*P aempty_threshold[3] I
*I *3018:A I *D sky130_fd_sc_hd__clkbuf_1
*CAP
1 aempty_threshold[3] 0.000118385
2 *3018:A 0.000118385
3 *3018:A rd_data[4] 7.32103e-05
4 *3018:A *678:10 0
5 *3017:A *3018:A 7.32103e-05
*RES
1 aempty_threshold[3] *3018:A 4.7885 
*END

*D_NET *8 0.000897142
*CONN
*P aempty_threshold[4] I
*I *3019:A I *D sky130_fd_sc_hd__clkbuf_1
*CAP
1 aempty_threshold[4] 0.000297935
2 *3019:A 0.000297935
3 *3019:A rd_data[4] 6.35417e-05
4 *3019:A *2298:A 0
5 *3019:A *3024:A 0.000108647
6 *3019:A *649:14 6.99562e-05
7 *3019:A *678:10 0
8 aempty *3019:A 5.91271e-05
*RES
1 aempty_threshold[4] *3019:A 8.49523 
*END

*D_NET *9 0.000482312
*CONN
*P afull O
*I *3025:X O *D sky130_fd_sc_hd__buf_2
*CAP
1 afull 0.000186687
2 *3025:X 0.000186687
3 afull *3003:A 7.56675e-05
4 afull *3025:A 3.32709e-05
*RES
1 *3025:X afull 5.35677 
*END

*D_NET *10 0.000971766
*CONN
*P afull_threshold[0] I
*I *3020:A I *D sky130_fd_sc_hd__clkbuf_1
*CAP
1 afull_threshold[0] 0.000470618
2 *3020:A 0.000470618
3 *3020:A *2296:A 3.05295e-05
4 *3020:A *3021:A 0
5 *3020:A *3022:A 0
*RES
1 afull_threshold[0] *3020:A 12.135 
*END

*D_NET *11 0.000958501
*CONN
*P afull_threshold[1] I
*I *3021:A I *D sky130_fd_sc_hd__clkbuf_1
*CAP
1 afull_threshold[1] 0.000479251
2 *3021:A 0.000479251
3 *3020:A *3021:A 0
*RES
1 afull_threshold[1] *3021:A 12.135 
*END

*D_NET *12 0.000963061
*CONN
*P afull_threshold[2] I
*I *3022:A I *D sky130_fd_sc_hd__clkbuf_1
*CAP
1 afull_threshold[2] 0.00048153
2 *3022:A 0.00048153
3 *3022:A *2296:A 0
4 *3020:A *3022:A 0
*RES
1 afull_threshold[2] *3022:A 12.135 
*END

*D_NET *13 0.00103451
*CONN
*P afull_threshold[3] I
*I *3023:A I *D sky130_fd_sc_hd__clkbuf_1
*CAP
1 afull_threshold[3] 0.000517257
2 *3023:A 0.000517257
*RES
1 afull_threshold[3] *3023:A 12.825 
*END

*D_NET *14 0.00042817
*CONN
*P afull_threshold[4] I
*I *3003:A I *D sky130_fd_sc_hd__clkbuf_1
*CAP
1 afull_threshold[4] 0.000176251
2 *3003:A 0.000176251
3 afull *3003:A 7.56675e-05
*RES
1 afull_threshold[4] *3003:A 5.2985 
*END

*D_NET *15 0.00058148
*CONN
*P arst_n I
*I *3004:A I *D sky130_fd_sc_hd__clkbuf_1
*CAP
1 arst_n 0.000215072
2 *3004:A 0.000215072
3 *3004:A *2860:A 0
4 *3004:A *2868:A 0
5 *3004:A *3005:A 7.56675e-05
6 aempty *3004:A 7.56675e-05
*RES
1 arst_n *3004:A 6.5735 
*END

*D_NET *16 0.00153785
*CONN
*P empty O
*I *3026:X O *D sky130_fd_sc_hd__buf_2
*CAP
1 empty 0.000545825
2 *3026:X 0.000545825
3 empty rd_data[1] 7.9903e-05
4 empty *2330:A 0
5 empty *2431:A1 0.000107319
6 empty *2862:A 0
7 empty *264:18 0.000258979
*RES
1 *3026:X empty 6.3473 
*END

*D_NET *17 0.000950239
*CONN
*P full O
*I *3027:X O *D sky130_fd_sc_hd__buf_2
*CAP
1 full 0.00047512
2 *3027:X 0.00047512
*RES
1 *3027:X full 12.06 
*END

*D_NET *18 0.000530619
*CONN
*P rd_clk I
*I *3005:A I *D sky130_fd_sc_hd__clkbuf_1
*CAP
1 rd_clk 0.00016264
2 *3005:A 0.00016264
3 *3005:A *2860:A 0
4 *3005:A *2867:A 0
5 *3005:A *3008:A 7.56675e-05
6 *3005:A *518:25 5.4003e-05
7 *3004:A *3005:A 7.56675e-05
*RES
1 rd_clk *3005:A 5.8085 
*END

*D_NET *19 0.000912233
*CONN
*P rd_data[0] O
*I *3028:X O *D sky130_fd_sc_hd__buf_2
*CAP
1 rd_data[0] 0.000456117
2 *3028:X 0.000456117
3 rd_data[0] *3007:A 0
*RES
1 *3028:X rd_data[0] 11.715 
*END

*D_NET *20 0.000987858
*CONN
*P rd_data[1] O
*I *3029:X O *D sky130_fd_sc_hd__buf_2
*CAP
1 rd_data[1] 0.0002166
2 *3029:X 0.0002166
3 rd_data[1] *3006:A 6.58134e-05
4 rd_data[1] *3029:A 0.00013882
5 rd_data[1] *518:25 8.42298e-05
6 rd_data[1] *622:12 8.17606e-05
7 rd_data[1] *625:10 0.000104132
8 empty rd_data[1] 7.9903e-05
*RES
1 *3029:X rd_data[1] 7.39677 
*END

*D_NET *21 0.00062163
*CONN
*P rd_data[2] O
*I *3030:X O *D sky130_fd_sc_hd__buf_2
*CAP
1 rd_data[2] 0.000278193
2 *3030:X 0.000278193
3 rd_data[2] *3009:A 6.52446e-05
*RES
1 *3030:X rd_data[2] 6.0935 
*END

*D_NET *22 0.000876668
*CONN
*P rd_data[3] O
*I *3031:X O *D sky130_fd_sc_hd__buf_2
*CAP
1 rd_data[3] 0.000438334
2 *3031:X 0.000438334
3 rd_data[3] *3011:A 0
*RES
1 *3031:X rd_data[3] 10.53 
*END

*D_NET *23 0.00071426
*CONN
*P rd_data[4] O
*I *3032:X O *D sky130_fd_sc_hd__buf_2
*CAP
1 rd_data[4] 0.00025751
2 *3032:X 0.00025751
3 rd_data[4] *649:14 0
4 rd_data[4] *678:10 6.24871e-05
5 aempty rd_data[4] 0
6 *3018:A rd_data[4] 7.32103e-05
7 *3019:A rd_data[4] 6.35417e-05
*RES
1 *3032:X rd_data[4] 5.58983 
*END

*D_NET *24 0.000887282
*CONN
*P rd_data[5] O
*I *3033:X O *D sky130_fd_sc_hd__buf_2
*CAP
1 rd_data[5] 0.000429879
2 *3033:X 0.000429879
3 rd_data[5] *3033:A 2.75229e-05
*RES
1 *3033:X rd_data[5] 10.53 
*END

*D_NET *25 0.000950239
*CONN
*P rd_data[6] O
*I *3034:X O *D sky130_fd_sc_hd__buf_2
*CAP
1 rd_data[6] 0.00047512
2 *3034:X 0.00047512
*RES
1 *3034:X rd_data[6] 12.06 
*END

*D_NET *26 0.000610808
*CONN
*P rd_data[7] O
*I *3035:X O *D sky130_fd_sc_hd__buf_2
*CAP
1 rd_data[7] 0.000284729
2 *3035:X 0.000284729
3 rd_data[7] *3015:A 2.24901e-05
4 rd_data[7] *353:39 1.88597e-05
*RES
1 *3035:X rd_data[7] 6.0935 
*END

*D_NET *27 0.00113527
*CONN
*P rd_en I
*I *3006:A I *D sky130_fd_sc_hd__clkbuf_1
*CAP
1 rd_en 0.000266517
2 *3006:A 0.000266517
3 *3006:A *2390:B 0.000134761
4 *3006:A *2867:A 0
5 *3006:A *518:25 0.000401665
6 rd_data[1] *3006:A 6.58134e-05
*RES
1 rd_en *3006:A 9.1235 
*END

*D_NET *28 0.0159025
*CONN
*P wr_clk I
*I *2795:A I *D sky130_fd_sc_hd__clkbuf_16
*CAP
1 wr_clk 0.00253324
2 *2795:A 2.08101e-05
3 *28:17 0.00480456
4 *28:15 0.00731699
5 *28:15 *3009:A 0
6 *28:15 *3014:A 5.30635e-05
7 *28:17 *2433:A0 1.17437e-05
8 *28:17 *2464:A1 2.75145e-05
9 *28:17 *2464:A2 1.0284e-05
10 *28:17 *2464:S0 1.1392e-05
11 *28:17 *2466:A3 6.29218e-05
12 *28:17 *2497:A0 8.88631e-05
13 *28:17 *2530:A1 0.000433421
14 *28:17 *2675:D 0.000348838
15 *28:17 *2707:D 6.90626e-05
16 *28:17 *2903:A 0.000109845
*RES
1 wr_clk *28:15 44.0764 
2 *28:15 *28:17 54.96 
3 *28:17 *2795:A 1.96 
*END

*D_NET *29 0.000958501
*CONN
*P wr_data[0] I
*I *3007:A I *D sky130_fd_sc_hd__buf_1
*CAP
1 wr_data[0] 0.000479251
2 *3007:A 0.000479251
3 *3007:A *3028:A 0
4 rd_data[0] *3007:A 0
*RES
1 wr_data[0] *3007:A 12.135 
*END

*D_NET *30 0.000508257
*CONN
*P wr_data[1] I
*I *3008:A I *D sky130_fd_sc_hd__buf_1
*CAP
1 wr_data[1] 0.000172521
2 *3008:A 0.000172521
3 *3008:A *2867:A 0
4 *3008:A *518:25 8.75474e-05
5 *3005:A *3008:A 7.56675e-05
*RES
1 wr_data[1] *3008:A 5.5535 
*END

*D_NET *31 0.00079996
*CONN
*P wr_data[2] I
*I *3009:A I *D sky130_fd_sc_hd__buf_1
*CAP
1 wr_data[2] 0.000352037
2 *3009:A 0.000352037
3 *3009:A *3030:A 3.06427e-05
4 rd_data[2] *3009:A 6.52446e-05
5 *28:15 *3009:A 0
*RES
1 wr_data[2] *3009:A 8.89043 
*END

*D_NET *32 0.000786235
*CONN
*P wr_data[3] I
*I *3010:A I *D sky130_fd_sc_hd__buf_1
*CAP
1 wr_data[3] 0.000393118
2 *3010:A 0.000393118
*RES
1 wr_data[3] *3010:A 10.35 
*END

*D_NET *33 0.000787594
*CONN
*P wr_data[4] I
*I *3011:A I *D sky130_fd_sc_hd__buf_1
*CAP
1 wr_data[4] 0.000393797
2 *3011:A 0.000393797
3 *3011:A *3031:A 0
4 rd_data[3] *3011:A 0
*RES
1 wr_data[4] *3011:A 10.35 
*END

*D_NET *34 0.000786235
*CONN
*P wr_data[5] I
*I *3012:A I *D sky130_fd_sc_hd__buf_1
*CAP
1 wr_data[5] 0.000393118
2 *3012:A 0.000393118
*RES
1 wr_data[5] *3012:A 10.35 
*END

*D_NET *35 0.0006392
*CONN
*P wr_data[6] I
*I *3014:A I *D sky130_fd_sc_hd__buf_1
*CAP
1 wr_data[6] 0.000293068
2 *3014:A 0.000293068
3 *28:15 *3014:A 5.30635e-05
*RES
1 wr_data[6] *3014:A 7.5993 
*END

*D_NET *36 0.000567377
*CONN
*P wr_data[7] I
*I *3015:A I *D sky130_fd_sc_hd__buf_1
*CAP
1 wr_data[7] 0.000272443
2 *3015:A 0.000272443
3 rd_data[7] *3015:A 2.24901e-05
*RES
1 wr_data[7] *3015:A 7.0893 
*END

*D_NET *37 0.00118171
*CONN
*P wr_en I
*I *3016:A I *D sky130_fd_sc_hd__clkbuf_1
*CAP
1 wr_en 0.000565581
2 *3016:A 0.000565581
3 *3016:A *2364:B 5.05521e-05
*RES
1 wr_en *3016:A 13.62 
*END

*D_NET *38 0.000725671
*CONN
*I *2617:D I *D sky130_fd_sc_hd__dfrtp_1
*I *2423:X O *D sky130_fd_sc_hd__mux2_1
*CAP
1 *2617:D 0.000257922
2 *2423:X 0.000257922
3 *2617:D *2423:A0 0
4 *2617:D *2461:S 0.000188719
5 *2617:D *2857:A 2.11084e-05
*RES
1 *2423:X *2617:D 12.15 
*END

*D_NET *39 0.000341327
*CONN
*I *2618:D I *D sky130_fd_sc_hd__dfrtp_1
*I *2431:X O *D sky130_fd_sc_hd__mux2_1
*CAP
1 *2618:D 0.000145683
2 *2431:X 0.000145683
3 *2618:D *2330:A 0
4 *2618:D *2862:A 0
5 *2618:D *3026:A 4.99619e-05
*RES
1 *2431:X *2618:D 9.12 
*END

*D_NET *40 0.000604286
*CONN
*I *2619:D I *D sky130_fd_sc_hd__dfrtp_1
*I *2437:X O *D sky130_fd_sc_hd__mux2_1
*CAP
1 *2619:D 0.000199273
2 *2437:X 0.000199273
3 *2619:D *2437:A0 0.000162311
4 *2619:D *2619:RESET_B 1.70935e-05
5 *2619:D *345:72 2.25161e-05
6 *2619:D *643:31 3.81908e-06
7 *2619:D *643:116 0
*RES
1 *2437:X *2619:D 10.155 
*END

*D_NET *41 0.000801202
*CONN
*I *2620:D I *D sky130_fd_sc_hd__dfrtp_1
*I *2443:X O *D sky130_fd_sc_hd__mux2_1
*CAP
1 *2620:D 0.000227628
2 *2443:X 0.000227628
3 *2620:D *2560:S 5.05521e-05
4 *2620:D *329:107 0
5 *2620:D *342:77 0.000295393
*RES
1 *2443:X *2620:D 11.415 
*END

*D_NET *42 0.00035467
*CONN
*I *2621:D I *D sky130_fd_sc_hd__dfrtp_1
*I *2449:X O *D sky130_fd_sc_hd__mux2_1
*CAP
1 *2621:D 9.10204e-05
2 *2449:X 9.10204e-05
3 *2621:D *2449:A0 0.000172629
*RES
1 *2449:X *2621:D 5.495 
*END

*D_NET *43 0.000142198
*CONN
*I *2622:D I *D sky130_fd_sc_hd__dfrtp_1
*I *2455:X O *D sky130_fd_sc_hd__mux2_1
*CAP
1 *2622:D 7.1099e-05
2 *2455:X 7.1099e-05
3 *2622:D *2455:A1 0
4 *2622:D *354:32 0
*RES
1 *2455:X *2622:D 8.325 
*END

*D_NET *44 0.000654441
*CONN
*I *2623:D I *D sky130_fd_sc_hd__dfrtp_1
*I *2461:X O *D sky130_fd_sc_hd__mux2_1
*CAP
1 *2623:D 0.00029236
2 *2461:X 0.00029236
3 *2623:D *2623:CLK 6.97202e-05
*RES
1 *2461:X *2623:D 10.845 
*END

*D_NET *45 0.000348537
*CONN
*I *2624:D I *D sky130_fd_sc_hd__dfrtp_1
*I *2467:X O *D sky130_fd_sc_hd__mux2_1
*CAP
1 *2624:D 7.33635e-05
2 *2467:X 7.33635e-05
3 *2624:D *2436:S0 6.28765e-05
4 *2624:D *2624:CLK 0.000117825
5 *2624:D *3035:A 2.11084e-05
*RES
1 *2467:X *2624:D 9.03 
*END

*D_NET *46 0.000894791
*CONN
*I *2625:D I *D sky130_fd_sc_hd__dfxtp_1
*I *2470:X O *D sky130_fd_sc_hd__mux2_1
*CAP
1 *2625:D 0.000187331
2 *2470:X 0.000187331
3 *2625:D *2496:S 4.82319e-06
4 *2625:D *2633:CLK 0.000270647
5 *2625:D *2779:CLK 0
6 *2625:D *2779:D 1.07797e-05
7 *2625:D *327:34 6.69341e-05
8 *2625:D *359:84 0.000166946
*RES
1 *2470:X *2625:D 12.1388 
*END

*D_NET *47 0.000812861
*CONN
*I *2626:D I *D sky130_fd_sc_hd__dfxtp_1
*I *2471:X O *D sky130_fd_sc_hd__mux2_1
*CAP
1 *2626:D 0.000275057
2 *2471:X 0.000275057
3 *2626:D *2437:S 0.000111321
4 *2626:D *2626:CLK 0.000130317
5 *2626:D *408:6 2.11084e-05
*RES
1 *2471:X *2626:D 8.18375 
*END

*D_NET *48 0.000821007
*CONN
*I *2627:D I *D sky130_fd_sc_hd__dfxtp_1
*I *2472:X O *D sky130_fd_sc_hd__mux2_1
*CAP
1 *2627:D 0.000150857
2 *2472:X 0.000150857
3 *2627:D *2436:A2 3.51254e-06
4 *2627:D *3030:A 8.49205e-05
5 *2627:D *356:14 7.81954e-05
6 *2627:D *356:20 7.89689e-05
7 *2627:D *662:76 0.000273695
*RES
1 *2472:X *2627:D 11.2987 
*END

*D_NET *49 0.000862129
*CONN
*I *2628:D I *D sky130_fd_sc_hd__dfxtp_1
*I *2473:X O *D sky130_fd_sc_hd__mux2_1
*CAP
1 *2628:D 0.000212611
2 *2473:X 0.000212611
3 *2628:D *2467:S 0.000268285
4 *2628:D *339:40 0
5 *2628:D *355:90 0.000168621
*RES
1 *2473:X *2628:D 11.8837 
*END

*D_NET *50 0.00050844
*CONN
*I *2629:D I *D sky130_fd_sc_hd__dfxtp_1
*I *2474:X O *D sky130_fd_sc_hd__mux2_1
*CAP
1 *2629:D 0.000129173
2 *2474:X 0.000129173
3 *2629:D *2444:S1 0
4 *2629:D *341:105 0.000162325
5 *2629:D *348:38 8.77684e-05
*RES
1 *2474:X *2629:D 9.91875 
*END

*D_NET *51 0.000887806
*CONN
*I *2630:D I *D sky130_fd_sc_hd__dfxtp_1
*I *2475:X O *D sky130_fd_sc_hd__mux2_1
*CAP
1 *2630:D 0.00022828
2 *2475:X 0.00022828
3 *2630:D *2475:A0 0
4 *2630:D *2597:S 6.55406e-05
5 *2630:D *346:29 0.000200511
6 *2630:D *655:83 0.000165193
7 *2630:D *655:112 0
*RES
1 *2475:X *2630:D 12.5138 
*END

*D_NET *52 0.00111368
*CONN
*I *2631:D I *D sky130_fd_sc_hd__dfxtp_1
*I *2476:X O *D sky130_fd_sc_hd__mux2_1
*CAP
1 *2631:D 0.000325201
2 *2476:X 0.000325201
3 *2631:D *2460:A1 0
4 *2631:D *2606:A0 7.13883e-05
5 *2631:D *2606:S 0.000122557
6 *2631:D *2785:D 3.89528e-05
7 *2631:D *323:114 0
8 *2631:D *329:38 0.000166058
9 *2631:D *334:41 6.43269e-05
10 *2631:D *342:36 0
*RES
1 *2476:X *2631:D 14.4338 
*END

*D_NET *53 0.000894762
*CONN
*I *2632:D I *D sky130_fd_sc_hd__dfxtp_1
*I *2477:X O *D sky130_fd_sc_hd__mux2_1
*CAP
1 *2632:D 0.000209611
2 *2477:X 0.000209611
3 *2632:D *2607:A0 8.53113e-06
4 *2632:D *2632:CLK 0.000128642
5 *2632:D *2648:CLK 3.57349e-05
6 *2632:D *2786:D 2.24833e-05
7 *2632:D *323:120 0
8 *2632:D *353:106 0.000117832
9 *2632:D *353:128 0.000162318
*RES
1 *2477:X *2632:D 11.8837 
*END

*D_NET *54 0.000646119
*CONN
*I *2633:D I *D sky130_fd_sc_hd__dfxtp_1
*I *2480:X O *D sky130_fd_sc_hd__mux2_1
*CAP
1 *2633:D 0.000150508
2 *2480:X 0.000150508
3 *2633:D *2420:A1 0.00015896
4 *2633:D *2461:A1 9.30717e-05
5 *2633:D *2619:RESET_B 9.30717e-05
*RES
1 *2480:X *2633:D 10.5337 
*END

*D_NET *55 0.00120266
*CONN
*I *2634:D I *D sky130_fd_sc_hd__dfxtp_1
*I *2481:X O *D sky130_fd_sc_hd__mux2_1
*CAP
1 *2634:D 0.000169007
2 *2481:X 0.000169007
3 *2634:D *2427:A2 0.000203755
4 *2634:D *2427:A3 4.50017e-05
5 *2634:D *2634:CLK 1.71013e-05
6 *2634:D *333:46 7.25605e-05
7 *2634:D *345:152 0.000507307
8 *2634:D *400:10 3.51254e-06
9 *2634:D *644:35 1.54049e-05
*RES
1 *2481:X *2634:D 13.3088 
*END

*D_NET *56 0.000993877
*CONN
*I *2635:D I *D sky130_fd_sc_hd__dfxtp_1
*I *2482:X O *D sky130_fd_sc_hd__mux2_1
*CAP
1 *2635:D 0.000159794
2 *2482:X 0.000159794
3 *2635:D *2434:A0 7.55391e-05
4 *2635:D *2602:A1 0.000314445
5 *2635:D *2854:A 0.000160919
6 *2635:D *3030:A 5.59371e-05
7 *2635:D *325:93 6.7449e-05
*RES
1 *2482:X *2635:D 12.3938 
*END

*D_NET *57 0.000487971
*CONN
*I *2636:D I *D sky130_fd_sc_hd__dfxtp_1
*I *2483:X O *D sky130_fd_sc_hd__mux2_1
*CAP
1 *2636:D 0.000145098
2 *2483:X 0.000145098
3 *2636:D *2440:A2 6.97202e-05
4 *2636:D *2493:A1 6.50844e-06
5 *2636:D *2636:CLK 1.43717e-05
6 *2636:D *345:22 4.61744e-05
7 *2636:D *659:116 6.10014e-05
*RES
1 *2483:X *2636:D 9.85875 
*END

*D_NET *58 0.000383926
*CONN
*I *2637:D I *D sky130_fd_sc_hd__dfxtp_1
*I *2484:X O *D sky130_fd_sc_hd__mux2_1
*CAP
1 *2637:D 4.22942e-05
2 *2484:X 4.22942e-05
3 *2637:D *2637:CLK 1.43717e-05
4 *2637:D *338:32 0.000139238
5 *2637:D *345:128 0.000140905
6 *2637:D *633:34 4.82319e-06
*RES
1 *2484:X *2637:D 8.97375 
*END

*D_NET *59 0.000555587
*CONN
*I *2638:D I *D sky130_fd_sc_hd__dfxtp_1
*I *2485:X O *D sky130_fd_sc_hd__mux2_1
*CAP
1 *2638:D 0.000206991
2 *2485:X 0.000206991
3 *2638:D *2452:A1 0
4 *2638:D *2937:A 0
5 *2638:D *339:44 0.000141606
*RES
1 *2485:X *2638:D 10.6987 
*END

*D_NET *60 0.000414156
*CONN
*I *2639:D I *D sky130_fd_sc_hd__dfxtp_1
*I *2486:X O *D sky130_fd_sc_hd__mux2_1
*CAP
1 *2639:D 0.000207078
2 *2486:X 0.000207078
3 *2639:D *2486:A0 0
4 *2639:D *2639:CLK 0
*RES
1 *2486:X *2639:D 10.3538 
*END

*D_NET *61 0.000578034
*CONN
*I *2640:D I *D sky130_fd_sc_hd__dfxtp_1
*I *2487:X O *D sky130_fd_sc_hd__mux2_1
*CAP
1 *2640:D 0.00010083
2 *2487:X 0.00010083
3 *2640:D *2464:S1 0.000139245
4 *2640:D *2607:S 6.85082e-05
5 *2640:D *2839:A 0.000168621
6 *2640:D *323:120 0
*RES
1 *2487:X *2640:D 10.3538 
*END

*D_NET *62 0.00156423
*CONN
*I *2641:D I *D sky130_fd_sc_hd__dfxtp_1
*I *2490:X O *D sky130_fd_sc_hd__mux2_1
*CAP
1 *2641:D 0.00053328
2 *2490:X 0.00053328
3 *2641:D *2665:D 0
4 *2641:D *323:80 8.50642e-05
5 *2641:D *327:26 5.68801e-05
6 *2641:D *332:18 3.39064e-05
7 *2641:D *359:66 2.97004e-06
8 *2641:D *359:82 1.43717e-05
9 *2641:D *643:126 0
10 *2641:D *643:157 0.000304474
*RES
1 *2490:X *2641:D 15.0037 
*END

*D_NET *63 0.000741494
*CONN
*I *2642:D I *D sky130_fd_sc_hd__dfxtp_1
*I *2491:X O *D sky130_fd_sc_hd__mux2_1
*CAP
1 *2642:D 0.00018367
2 *2491:X 0.00018367
3 *2642:D *2491:A0 1.4399e-05
4 *2642:D *2980:A 0.000141061
5 *2642:D *633:22 7.70938e-05
6 *2642:D *639:26 0.000141599
*RES
1 *2491:X *2642:D 11.4937 
*END

*D_NET *64 0.000848372
*CONN
*I *2643:D I *D sky130_fd_sc_hd__dfxtp_1
*I *2492:X O *D sky130_fd_sc_hd__mux2_1
*CAP
1 *2643:D 0.000120788
2 *2492:X 0.000120788
3 *2643:D *2436:A2 0.000116165
4 *2643:D *2643:CLK 0.000202692
5 *2643:D *339:32 0.000117825
6 *2643:D *393:10 4.66826e-05
7 *2643:D *643:31 0.00012343
*RES
1 *2492:X *2643:D 11.4788 
*END

*D_NET *65 0.00114129
*CONN
*I *2644:D I *D sky130_fd_sc_hd__dfxtp_1
*I *2493:X O *D sky130_fd_sc_hd__mux2_1
*CAP
1 *2644:D 0.000148601
2 *2493:X 0.000148601
3 *2644:D *2440:S0 1.07797e-05
4 *2644:D *2535:S 0.000446796
5 *2644:D *337:30 0.000148983
6 *2644:D *633:34 0.000237533
*RES
1 *2493:X *2644:D 12.5737 
*END

*D_NET *66 0.000330101
*CONN
*I *2645:D I *D sky130_fd_sc_hd__dfxtp_1
*I *2494:X O *D sky130_fd_sc_hd__mux2_1
*CAP
1 *2645:D 8.9469e-05
2 *2494:X 8.9469e-05
3 *2645:D *2494:A1 0.000151163
*RES
1 *2494:X *2645:D 4.92875 
*END

*D_NET *67 0.000870078
*CONN
*I *2646:D I *D sky130_fd_sc_hd__dfxtp_1
*I *2495:X O *D sky130_fd_sc_hd__mux2_1
*CAP
1 *2646:D 9.74645e-05
2 *2495:X 9.74645e-05
3 *2646:D *2454:A3 8.25609e-05
4 *2646:D *2605:S 0.000225208
5 *2646:D *3001:A 0.000186904
6 *2646:D *354:26 2.05056e-05
7 *2646:D *639:111 0.00015997
*RES
1 *2495:X *2646:D 11.1488 
*END

*D_NET *68 0.000838659
*CONN
*I *2647:D I *D sky130_fd_sc_hd__dfxtp_1
*I *2496:X O *D sky130_fd_sc_hd__mux2_1
*CAP
1 *2647:D 0.000236426
2 *2496:X 0.000236426
3 *2647:D *2458:A0 0
4 *2647:D *2458:A1 0
5 *2647:D *2458:A3 6.47516e-05
6 *2647:D *2458:S0 0.000164448
7 *2647:D *2459:S1 0
8 *2647:D *2476:A0 0.000128642
9 *2647:D *2606:A0 0
10 *2647:D *323:102 7.9642e-06
11 *2647:D *323:114 0
12 *2647:D *654:16 0
*RES
1 *2496:X *2647:D 12.0487 
*END

*D_NET *69 0.0013269
*CONN
*I *2648:D I *D sky130_fd_sc_hd__dfxtp_1
*I *2497:X O *D sky130_fd_sc_hd__mux2_1
*CAP
1 *2648:D 0.000273416
2 *2497:X 0.000273416
3 *2648:D *2464:A0 2.87867e-05
4 *2648:D *2464:S0 0.00011923
5 *2648:D *2466:A3 0
6 *2648:D *2497:A1 0
7 *2648:D *2607:A0 0.000309891
8 *2648:D *2945:A 0.000124895
9 *2648:D *652:12 0.000197269
*RES
1 *2497:X *2648:D 14.1488 
*END

*D_NET *70 0.000507796
*CONN
*I *2649:D I *D sky130_fd_sc_hd__dfxtp_1
*I *2500:X O *D sky130_fd_sc_hd__mux2_1
*CAP
1 *2649:D 0.000115272
2 *2500:X 0.000115272
3 *2649:D *2787:CLK 1.02692e-05
4 *2649:D *2873:A 0.000155941
5 *2649:D *327:26 1.43717e-05
6 *2649:D *332:12 4.82863e-05
7 *2649:D *359:123 4.83842e-05
*RES
1 *2500:X *2649:D 9.67875 
*END

*D_NET *71 0.00124695
*CONN
*I *2650:D I *D sky130_fd_sc_hd__dfxtp_1
*I *2501:X O *D sky130_fd_sc_hd__mux2_1
*CAP
1 *2650:D 0.000256044
2 *2501:X 0.000256044
3 *2650:D *2520:A0 2.67022e-05
4 *2650:D *2520:S 0
5 *2650:D *2788:CLK 0.000316806
6 *2650:D *342:67 0.000186101
7 *2650:D *361:12 3.66286e-05
8 *2650:D *361:16 0.000168621
*RES
1 *2501:X *2650:D 14.5238 
*END

*D_NET *72 0.000673093
*CONN
*I *2651:D I *D sky130_fd_sc_hd__dfxtp_1
*I *2502:X O *D sky130_fd_sc_hd__mux2_1
*CAP
1 *2651:D 0.000230492
2 *2502:X 0.000230492
3 *2651:D *2651:CLK 0
4 *2651:D *2667:D 0.000137578
5 *2651:D *336:81 7.45302e-05
*RES
1 *2502:X *2651:D 11.5387 
*END

*D_NET *73 0.000895559
*CONN
*I *2652:D I *D sky130_fd_sc_hd__dfxtp_1
*I *2503:X O *D sky130_fd_sc_hd__mux2_1
*CAP
1 *2652:D 0.000254917
2 *2503:X 0.000254917
3 *2652:D *2441:A2 9.71137e-05
4 *2652:D *2684:CLK 0.000128642
5 *2652:D *2790:CLK 0
6 *2652:D *2852:A 9.54469e-05
7 *2652:D *2928:A 6.45236e-05
8 *2652:D *573:12 0
*RES
1 *2503:X *2652:D 12.3038 
*END

*D_NET *74 0.000743392
*CONN
*I *2653:D I *D sky130_fd_sc_hd__dfxtp_1
*I *2504:X O *D sky130_fd_sc_hd__mux2_1
*CAP
1 *2653:D 0.000257898
2 *2504:X 0.000257898
3 *2653:D *2504:S 0.000127602
4 *2653:D *2791:D 8.56227e-05
5 *2653:D *3031:A 0
6 *2653:D *347:65 1.43717e-05
*RES
1 *2504:X *2653:D 12.1538 
*END

*D_NET *75 0.000963804
*CONN
*I *2654:D I *D sky130_fd_sc_hd__dfxtp_1
*I *2505:X O *D sky130_fd_sc_hd__mux2_1
*CAP
1 *2654:D 0.000407245
2 *2505:X 0.000407245
3 *2654:D *2454:A1 1.19928e-05
4 *2654:D *2524:A1 8.52883e-05
5 *2654:D *2654:CLK 5.20335e-05
*RES
1 *2505:X *2654:D 8.54375 
*END

*D_NET *76 0.000770667
*CONN
*I *2655:D I *D sky130_fd_sc_hd__dfxtp_1
*I *2506:X O *D sky130_fd_sc_hd__mux2_1
*CAP
1 *2655:D 0.000317462
2 *2506:X 0.000317462
3 *2655:D *389:8 4.99619e-05
4 *2655:D *653:25 3.72314e-05
5 *2655:D *653:43 4.85494e-05
*RES
1 *2506:X *2655:D 8.54375 
*END

*D_NET *77 0.000937123
*CONN
*I *2656:D I *D sky130_fd_sc_hd__dfxtp_1
*I *2507:X O *D sky130_fd_sc_hd__mux2_1
*CAP
1 *2656:D 0.000397341
2 *2507:X 0.000397341
3 *2656:D *2672:D 5.21046e-05
4 *2656:D *2906:A 0
5 *2656:D *332:80 0
6 *2656:D *353:26 9.03376e-05
7 *2656:D *353:30 0
8 *2656:D *353:39 0
9 *2656:D *390:10 0
10 *2656:D *651:71 0
*RES
1 *2507:X *2656:D 13.9987 
*END

*D_NET *78 0.00121015
*CONN
*I *2657:D I *D sky130_fd_sc_hd__dfxtp_1
*I *2510:X O *D sky130_fd_sc_hd__mux2_1
*CAP
1 *2657:D 0.000290423
2 *2510:X 0.000290423
3 *2657:D *2516:S 7.02414e-05
4 *2657:D *2528:A0 7.23602e-05
5 *2657:D *2534:S 0.000134955
6 *2657:D *2657:CLK 2.81948e-05
7 *2657:D *333:12 1.82242e-05
8 *2657:D *340:10 0.000120655
9 *2657:D *648:117 0.000184674
*RES
1 *2510:X *2657:D 13.23 
*END

*D_NET *79 0.000549369
*CONN
*I *2658:D I *D sky130_fd_sc_hd__dfxtp_1
*I *2511:X O *D sky130_fd_sc_hd__mux2_1
*CAP
1 *2658:D 5.60759e-05
2 *2511:X 5.60759e-05
3 *2658:D *2426:A1 0.00012637
4 *2658:D *338:22 9.30787e-05
5 *2658:D *642:37 0.000124689
6 *2658:D *665:46 9.30787e-05
*RES
1 *2511:X *2658:D 9.49875 
*END

*D_NET *80 0.001283
*CONN
*I *2659:D I *D sky130_fd_sc_hd__dfxtp_1
*I *2512:X O *D sky130_fd_sc_hd__mux2_1
*CAP
1 *2659:D 0.000325596
2 *2512:X 0.000325596
3 *2659:D *2433:A0 0
4 *2659:D *2839:A 7.5416e-05
5 *2659:D *3000:A 0
6 *2659:D *331:56 5.30673e-05
7 *2659:D *345:72 0.00048895
8 *2659:D *361:26 1.43717e-05
9 *2659:D *425:10 0
*RES
1 *2512:X *2659:D 13.8488 
*END

*D_NET *81 0.00133793
*CONN
*I *2660:D I *D sky130_fd_sc_hd__dfxtp_1
*I *2513:X O *D sky130_fd_sc_hd__mux2_1
*CAP
1 *2660:D 0.000540474
2 *2513:X 0.000540474
3 *2660:D *2531:A1 4.82863e-05
4 *2660:D *2533:S 9.95967e-05
5 *2660:D *2613:S 0.000109101
6 *2660:D *329:107 0
*RES
1 *2513:X *2660:D 15.4087 
*END

*D_NET *82 0.00108564
*CONN
*I *2661:D I *D sky130_fd_sc_hd__dfxtp_1
*I *2514:X O *D sky130_fd_sc_hd__mux2_1
*CAP
1 *2661:D 0.000387917
2 *2514:X 0.000387917
3 *2661:D *2445:S1 0
4 *2661:D *2447:S1 0
5 *2661:D *2448:A0 0.000183738
6 *2661:D *2448:A1 0
7 *2661:D *2532:A1 0.000126073
8 *2661:D *331:102 0
*RES
1 *2514:X *2661:D 14.0887 
*END

*D_NET *83 0.00102763
*CONN
*I *2662:D I *D sky130_fd_sc_hd__dfxtp_1
*I *2515:X O *D sky130_fd_sc_hd__mux2_1
*CAP
1 *2662:D 0.000142757
2 *2515:X 0.000142757
3 *2662:D *2451:A1 0.000162325
4 *2662:D *2453:S0 0
5 *2662:D *2505:S 3.54965e-05
6 *2662:D *2662:CLK 0.00012657
7 *2662:D *354:38 5.92304e-05
8 *2662:D *354:40 7.44453e-05
9 *2662:D *428:10 0.000284045
*RES
1 *2515:X *2662:D 12.4237 
*END

*D_NET *84 0.000549493
*CONN
*I *2663:D I *D sky130_fd_sc_hd__dfxtp_1
*I *2516:X O *D sky130_fd_sc_hd__mux2_1
*CAP
1 *2663:D 0.000120455
2 *2516:X 0.000120455
3 *2663:D *2434:S0 0
4 *2663:D *2457:S1 0.000134375
5 *2663:D *336:65 4.81347e-05
6 *2663:D *359:14 0.000126073
*RES
1 *2516:X *2663:D 10.0087 
*END

*D_NET *85 0.000329021
*CONN
*I *2664:D I *D sky130_fd_sc_hd__dfxtp_1
*I *2517:X O *D sky130_fd_sc_hd__mux2_1
*CAP
1 *2664:D 0.000104831
2 *2517:X 0.000104831
3 *2664:D *2473:S 9.03376e-05
4 *2664:D *2485:S 0
5 *2664:D *2517:A0 0
6 *2664:D *3035:A 2.90223e-05
*RES
1 *2517:X *2664:D 9.15375 
*END

*D_NET *86 0.000819186
*CONN
*I *2665:D I *D sky130_fd_sc_hd__dfxtp_1
*I *2519:X O *D sky130_fd_sc_hd__mux2_1
*CAP
1 *2665:D 0.000236835
2 *2519:X 0.000236835
3 *2665:D *2500:S 0.000180682
4 *2665:D *323:80 0.000118978
5 *2665:D *327:26 1.91597e-05
6 *2665:D *359:123 2.66961e-05
7 *2641:D *2665:D 0
*RES
1 *2519:X *2665:D 11.5538 
*END

*D_NET *87 0.000519167
*CONN
*I *2666:D I *D sky130_fd_sc_hd__dfxtp_1
*I *2520:X O *D sky130_fd_sc_hd__mux2_1
*CAP
1 *2666:D 0.000135784
2 *2520:X 0.000135784
3 *2666:D *337:28 7.89767e-05
4 *2666:D *643:23 0
5 *2666:D *644:49 0.000168621
*RES
1 *2520:X *2666:D 10.3538 
*END

*D_NET *88 0.000953326
*CONN
*I *2667:D I *D sky130_fd_sc_hd__dfxtp_1
*I *2521:X O *D sky130_fd_sc_hd__mux2_1
*CAP
1 *2667:D 0.000177642
2 *2521:X 0.000177642
3 *2667:D *2651:CLK 0
4 *2667:D *336:81 0.000296088
5 *2667:D *356:41 0.000164377
6 *2651:D *2667:D 0.000137578
*RES
1 *2521:X *2667:D 12.1388 
*END

*D_NET *89 0.000321596
*CONN
*I *2668:D I *D sky130_fd_sc_hd__dfxtp_1
*I *2522:X O *D sky130_fd_sc_hd__mux2_1
*CAP
1 *2668:D 0.000114792
2 *2522:X 0.000114792
3 *2668:D *2614:S 9.20132e-05
4 *2668:D *2852:A 0
5 *2668:D *354:42 0
*RES
1 *2522:X *2668:D 9.15375 
*END

*D_NET *90 0.000746836
*CONN
*I *2669:D I *D sky130_fd_sc_hd__dfxtp_1
*I *2523:X O *D sky130_fd_sc_hd__mux2_1
*CAP
1 *2669:D 0.000308491
2 *2523:X 0.000308491
3 *2669:D *2523:S 0.000115484
4 *2669:D *2669:CLK 1.43717e-05
5 *2669:D *3031:A 0
*RES
1 *2523:X *2669:D 11.2388 
*END

*D_NET *91 0.000806587
*CONN
*I *2670:D I *D sky130_fd_sc_hd__dfxtp_1
*I *2524:X O *D sky130_fd_sc_hd__mux2_1
*CAP
1 *2670:D 0.000213223
2 *2524:X 0.000213223
3 *2670:D *2454:A1 0
4 *2670:D *2524:A1 0
5 *2670:D *2718:CLK 7.34397e-05
6 *2670:D *332:80 2.75229e-05
7 *2670:D *346:69 0.000118527
8 *2670:D *346:71 0.000160651
*RES
1 *2524:X *2670:D 11.4937 
*END

*D_NET *92 0.000416396
*CONN
*I *2671:D I *D sky130_fd_sc_hd__dfxtp_1
*I *2525:X O *D sky130_fd_sc_hd__mux2_1
*CAP
1 *2671:D 0.000179593
2 *2525:X 0.000179593
3 *2671:D *2671:CLK 0
4 *2671:D *332:52 5.72091e-05
*RES
1 *2525:X *2671:D 10.3538 
*END

*D_NET *93 0.000401207
*CONN
*I *2672:D I *D sky130_fd_sc_hd__dfxtp_1
*I *2526:X O *D sky130_fd_sc_hd__mux2_1
*CAP
1 *2672:D 0.000156113
2 *2526:X 0.000156113
3 *2672:D *2906:A 2.46007e-05
4 *2672:D *390:10 1.22762e-05
5 *2656:D *2672:D 5.21046e-05
*RES
1 *2526:X *2672:D 9.84375 
*END

*D_NET *94 0.000969999
*CONN
*I *2673:D I *D sky130_fd_sc_hd__dfxtp_1
*I *2528:X O *D sky130_fd_sc_hd__mux2_1
*CAP
1 *2673:D 0.000144035
2 *2528:X 0.000144035
3 *2673:D *2657:CLK 4.66108e-05
4 *2673:D *340:10 1.7635e-05
5 *2673:D *340:16 0.000297134
6 *2673:D *648:117 0.000305145
7 *2673:D *666:106 1.54049e-05
*RES
1 *2528:X *2673:D 11.4637 
*END

*D_NET *95 0.000854127
*CONN
*I *2674:D I *D sky130_fd_sc_hd__dfxtp_1
*I *2529:X O *D sky130_fd_sc_hd__mux2_1
*CAP
1 *2674:D 0.000245161
2 *2529:X 0.000245161
3 *2674:D *2425:A0 6.63468e-05
4 *2674:D *2425:A1 9.53428e-06
5 *2674:D *331:102 0.000206123
6 *2674:D *633:22 8.18011e-05
*RES
1 *2529:X *2674:D 12.0787 
*END

*D_NET *96 0.000987245
*CONN
*I *2675:D I *D sky130_fd_sc_hd__dfxtp_1
*I *2530:X O *D sky130_fd_sc_hd__mux2_1
*CAP
1 *2675:D 0.000115561
2 *2530:X 0.000115561
3 *2675:D *2433:A0 2.31329e-05
4 *2675:D *2530:A1 0.000241633
5 *2675:D *3000:A 9.30787e-05
6 *2675:D *650:66 4.94404e-05
7 *28:17 *2675:D 0.000348838
*RES
1 *2530:X *2675:D 11.5688 
*END

*D_NET *97 0.000616607
*CONN
*I *2676:D I *D sky130_fd_sc_hd__dfxtp_1
*I *2531:X O *D sky130_fd_sc_hd__mux2_1
*CAP
1 *2676:D 9.51724e-05
2 *2531:X 9.51724e-05
3 *2676:D *2531:A1 7.63204e-05
4 *2676:D *329:107 0.000139245
5 *2676:D *331:110 0.000164137
6 *2676:D *370:12 4.65607e-05
*RES
1 *2531:X *2676:D 10.3538 
*END

*D_NET *98 0.00121814
*CONN
*I *2677:D I *D sky130_fd_sc_hd__dfxtp_1
*I *2532:X O *D sky130_fd_sc_hd__mux2_1
*CAP
1 *2677:D 0.000147403
2 *2532:X 0.000147403
3 *2677:D *331:102 0.000148975
4 *2677:D *333:122 0.000336999
5 *2677:D *443:10 0.00031503
6 *2677:D *642:113 0.000122331
*RES
1 *2532:X *2677:D 13.2638 
*END

*D_NET *99 0.000840669
*CONN
*I *2678:D I *D sky130_fd_sc_hd__dfxtp_1
*I *2533:X O *D sky130_fd_sc_hd__mux2_1
*CAP
1 *2678:D 0.000236975
2 *2533:X 0.000236975
3 *2678:D *2451:A1 7.88397e-05
4 *2678:D *2453:S0 7.88393e-05
5 *2678:D *2515:A1 6.5525e-05
6 *2678:D *2678:CLK 1.43717e-05
7 *2678:D *354:38 0
8 *2678:D *428:10 2.97004e-06
9 *2678:D *645:121 5.51158e-05
10 *2678:D *656:32 7.10578e-05
*RES
1 *2533:X *2678:D 12.4087 
*END

*D_NET *100 0.000952726
*CONN
*I *2679:D I *D sky130_fd_sc_hd__dfxtp_1
*I *2534:X O *D sky130_fd_sc_hd__mux2_1
*CAP
1 *2679:D 0.000177235
2 *2534:X 0.000177235
3 *2679:D *646:48 0.000394207
4 *2679:D *654:32 0.000127315
5 *2679:D *654:64 7.67345e-05
*RES
1 *2534:X *2679:D 8.52875 
*END

*D_NET *101 0.000313453
*CONN
*I *2680:D I *D sky130_fd_sc_hd__dfxtp_1
*I *2535:X O *D sky130_fd_sc_hd__mux2_1
*CAP
1 *2680:D 0.000104737
2 *2535:X 0.000104737
3 *2680:D *2463:A0 2.67022e-05
4 *2680:D *2535:A1 1.4399e-05
5 *2680:D *2908:A 1.43717e-05
6 *2680:D *339:40 6.50844e-06
7 *2680:D *637:104 0
8 *2680:D *639:111 4.19967e-05
*RES
1 *2535:X *2680:D 9.16875 
*END

*D_NET *102 0.000647478
*CONN
*I *2681:D I *D sky130_fd_sc_hd__dfxtp_1
*I *2537:X O *D sky130_fd_sc_hd__mux2_1
*CAP
1 *2681:D 0.000148758
2 *2537:X 0.000148758
3 *2681:D *2421:A3 0.000117825
4 *2681:D *2421:S0 8.89673e-05
5 *2681:D *2421:S1 3.2291e-05
6 *2681:D *2681:CLK 2.26916e-05
7 *2681:D *264:20 8.26536e-05
8 *2681:D *334:12 0
9 *2681:D *342:16 5.53249e-06
*RES
1 *2537:X *2681:D 11.2087 
*END

*D_NET *103 0.000969016
*CONN
*I *2682:D I *D sky130_fd_sc_hd__dfxtp_1
*I *2538:X O *D sky130_fd_sc_hd__mux2_1
*CAP
1 *2682:D 0.000193842
2 *2538:X 0.000193842
3 *2682:D *2987:A 0.000120655
4 *2682:D *340:16 0.00028733
5 *2682:D *361:12 1.43717e-05
6 *2682:D *664:54 0.000158974
*RES
1 *2538:X *2682:D 11.8988 
*END

*D_NET *104 0.000985128
*CONN
*I *2683:D I *D sky130_fd_sc_hd__dfxtp_1
*I *2539:X O *D sky130_fd_sc_hd__mux2_1
*CAP
1 *2683:D 0.000242257
2 *2539:X 0.000242257
3 *2683:D *334:74 0
4 *2683:D *356:39 0.000500614
*RES
1 *2539:X *2683:D 8.43875 
*END

*D_NET *105 0.000476626
*CONN
*I *2684:D I *D sky130_fd_sc_hd__dfxtp_1
*I *2540:X O *D sky130_fd_sc_hd__mux2_1
*CAP
1 *2684:D 0.000228968
2 *2540:X 0.000228968
3 *2684:D *2790:D 0
4 *2684:D *386:14 1.869e-05
5 *2684:D *490:10 0
*RES
1 *2540:X *2684:D 10.5337 
*END

*D_NET *106 0.000475308
*CONN
*I *2685:D I *D sky130_fd_sc_hd__dfxtp_1
*I *2541:X O *D sky130_fd_sc_hd__mux2_1
*CAP
1 *2685:D 0.000137786
2 *2541:X 0.000137786
3 *2685:D *2541:A0 3.31103e-05
4 *2685:D *2850:A 0.000139933
5 *2685:D *2896:A 2.66935e-05
6 *2685:D *657:32 0
*RES
1 *2541:X *2685:D 9.76875 
*END

*D_NET *107 0.000330918
*CONN
*I *2686:D I *D sky130_fd_sc_hd__dfxtp_1
*I *2542:X O *D sky130_fd_sc_hd__mux2_1
*CAP
1 *2686:D 0.000147025
2 *2542:X 0.000147025
3 *2686:D *334:80 3.68682e-05
*RES
1 *2542:X *2686:D 9.49875 
*END

*D_NET *108 0.000915618
*CONN
*I *2687:D I *D sky130_fd_sc_hd__dfxtp_1
*I *2543:X O *D sky130_fd_sc_hd__mux2_1
*CAP
1 *2687:D 0.000357932
2 *2543:X 0.000357932
3 *2687:D *2459:A1 2.67022e-05
4 *2687:D *2459:S0 7.42989e-06
5 *2687:D *2687:CLK 9.1497e-05
6 *2687:D *332:42 2.5195e-05
7 *2687:D *653:56 4.89295e-05
*RES
1 *2543:X *2687:D 13.6088 
*END

*D_NET *109 0.000850502
*CONN
*I *2688:D I *D sky130_fd_sc_hd__dfxtp_1
*I *2544:X O *D sky130_fd_sc_hd__mux2_1
*CAP
1 *2688:D 0.000291208
2 *2544:X 0.000291208
3 *2688:D *2465:A3 5.39961e-05
4 *2688:D *2465:S1 0.000100221
5 *2688:D *2466:A1 4.82319e-06
6 *2688:D *2552:S 0
7 *2688:D *2794:D 0
8 *2688:D *2916:A 2.97291e-05
9 *2688:D *353:22 8.84839e-06
10 *2688:D *651:65 7.04675e-05
*RES
1 *2544:X *2688:D 12.3638 
*END

*D_NET *110 0.000332537
*CONN
*I *2689:D I *D sky130_fd_sc_hd__dfxtp_1
*I *2547:X O *D sky130_fd_sc_hd__mux2_1
*CAP
1 *2689:D 9.73403e-05
2 *2547:X 9.73403e-05
3 *2689:D *327:53 4.94404e-05
4 *2689:D *336:65 0
5 *2689:D *646:82 8.84163e-05
*RES
1 *2547:X *2689:D 9.15375 
*END

*D_NET *111 0.00033291
*CONN
*I *2690:D I *D sky130_fd_sc_hd__dfxtp_1
*I *2548:X O *D sky130_fd_sc_hd__mux2_1
*CAP
1 *2690:D 0.000124517
2 *2548:X 0.000124517
3 *2690:D *2548:A1 5.51158e-05
4 *2690:D *2557:A0 1.4389e-05
5 *2690:D *2690:CLK 1.43717e-05
6 *2690:D *337:28 0
*RES
1 *2548:X *2690:D 9.42375 
*END

*D_NET *112 0.000529394
*CONN
*I *2691:D I *D sky130_fd_sc_hd__dfxtp_1
*I *2549:X O *D sky130_fd_sc_hd__mux2_1
*CAP
1 *2691:D 0.000154406
2 *2549:X 0.000154406
3 *2691:D *2549:A0 7.89767e-05
4 *2691:D *332:52 0.000141606
*RES
1 *2549:X *2691:D 10.3538 
*END

*D_NET *113 0.000697162
*CONN
*I *2692:D I *D sky130_fd_sc_hd__dfxtp_1
*I *2550:X O *D sky130_fd_sc_hd__mux2_1
*CAP
1 *2692:D 0.000323122
2 *2550:X 0.000323122
3 *2692:D *2467:S 0
4 *2692:D *2624:CLK 0
5 *2692:D *2692:CLK 1.43717e-05
6 *2692:D *2804:A 3.00381e-05
7 *2692:D *641:40 6.50844e-06
*RES
1 *2550:X *2692:D 11.2388 
*END

*D_NET *114 0.000804575
*CONN
*I *2693:D I *D sky130_fd_sc_hd__dfxtp_1
*I *2551:X O *D sky130_fd_sc_hd__mux2_1
*CAP
1 *2693:D 0.000318815
2 *2551:X 0.000318815
3 *2693:D *2551:A0 0
4 *2693:D *2701:CLK 0
5 *2693:D *329:107 0
6 *2693:D *347:12 0.000166946
*RES
1 *2551:X *2693:D 12.6488 
*END

*D_NET *115 0.000798475
*CONN
*I *2694:D I *D sky130_fd_sc_hd__dfxtp_1
*I *2552:X O *D sky130_fd_sc_hd__mux2_1
*CAP
1 *2694:D 0.000142325
2 *2552:X 0.000142325
3 *2694:D *2561:A1 7.21296e-06
4 *2694:D *332:80 0.000162325
5 *2694:D *346:37 0.000141606
6 *2694:D *346:39 0.000202681
*RES
1 *2552:X *2694:D 10.9537 
*END

*D_NET *116 0.000557541
*CONN
*I *2695:D I *D sky130_fd_sc_hd__dfxtp_1
*I *2553:X O *D sky130_fd_sc_hd__mux2_1
*CAP
1 *2695:D 0.000150097
2 *2553:X 0.000150097
3 *2695:D *332:52 5.20968e-05
4 *2695:D *357:30 0.00020525
*RES
1 *2553:X *2695:D 10.1888 
*END

*D_NET *117 0.000636278
*CONN
*I *2696:D I *D sky130_fd_sc_hd__dfxtp_1
*I *2554:X O *D sky130_fd_sc_hd__mux2_1
*CAP
1 *2696:D 0.000144714
2 *2554:X 0.000144714
3 *2696:D *2704:CLK 0
4 *2696:D *2729:CLK 0.00020525
5 *2696:D *336:81 0.000141599
6 *2696:D *353:39 0
*RES
1 *2554:X *2696:D 10.6987 
*END

*D_NET *118 0.000388221
*CONN
*I *2697:D I *D sky130_fd_sc_hd__dfxtp_1
*I *2556:X O *D sky130_fd_sc_hd__mux2_1
*CAP
1 *2697:D 8.40723e-05
2 *2556:X 8.40723e-05
3 *2697:D *327:53 9.54399e-05
4 *2697:D *358:61 0.000124637
*RES
1 *2556:X *2697:D 9.15375 
*END

*D_NET *119 0.000404628
*CONN
*I *2698:D I *D sky130_fd_sc_hd__dfxtp_1
*I *2557:X O *D sky130_fd_sc_hd__mux2_1
*CAP
1 *2698:D 5.74042e-05
2 *2557:X 5.74042e-05
3 *2698:D *2535:S 0.000117832
4 *2698:D *2698:CLK 3.19516e-05
5 *2698:D *337:30 6.28843e-05
6 *2698:D *642:64 7.7152e-05
*RES
1 *2557:X *2698:D 9.3 
*END

*D_NET *120 0.000939033
*CONN
*I *2699:D I *D sky130_fd_sc_hd__dfxtp_1
*I *2558:X O *D sky130_fd_sc_hd__mux2_1
*CAP
1 *2699:D 0.00020562
2 *2558:X 0.00020562
3 *2699:D *2558:A1 8.31173e-05
4 *2699:D *2699:CLK 5.37091e-05
5 *2699:D *356:117 0.000390967
*RES
1 *2558:X *2699:D 8.43875 
*END

*D_NET *121 0.00128486
*CONN
*I *2700:D I *D sky130_fd_sc_hd__dfxtp_1
*I *2559:X O *D sky130_fd_sc_hd__mux2_1
*CAP
1 *2700:D 0.000218128
2 *2559:X 0.000218128
3 *2700:D *2605:S 0.000432511
4 *2700:D *634:98 0.000276441
5 *2700:D *639:105 1.47256e-05
6 *2700:D *645:18 8.53113e-06
7 *2700:D *661:16 2.49909e-05
8 *2700:D *661:47 9.14049e-05
*RES
1 *2559:X *2700:D 13.0538 
*END

*D_NET *122 0.000482674
*CONN
*I *2701:D I *D sky130_fd_sc_hd__dfxtp_1
*I *2560:X O *D sky130_fd_sc_hd__mux2_1
*CAP
1 *2701:D 0.000179557
2 *2560:X 0.000179557
3 *2701:D *2443:A0 3.26909e-05
4 *2701:D *2551:A0 5.53249e-06
5 *2701:D *2701:CLK 0
6 *2701:D *639:73 8.53364e-05
*RES
1 *2560:X *2701:D 10.5337 
*END

*D_NET *123 0.000576772
*CONN
*I *2702:D I *D sky130_fd_sc_hd__dfxtp_1
*I *2561:X O *D sky130_fd_sc_hd__mux2_1
*CAP
1 *2702:D 0.000217586
2 *2561:X 0.000217586
3 *2702:D *2702:CLK 0
4 *2702:D *332:80 0.000141599
*RES
1 *2561:X *2702:D 11.0437 
*END

*D_NET *124 0.000372166
*CONN
*I *2703:D I *D sky130_fd_sc_hd__dfxtp_1
*I *2562:X O *D sky130_fd_sc_hd__mux2_1
*CAP
1 *2703:D 0.000167645
2 *2562:X 0.000167645
3 *2703:D *332:52 3.68769e-05
4 *2703:D *357:43 0
*RES
1 *2562:X *2703:D 9.84375 
*END

*D_NET *125 0.000487106
*CONN
*I *2704:D I *D sky130_fd_sc_hd__dfxtp_1
*I *2563:X O *D sky130_fd_sc_hd__mux2_1
*CAP
1 *2704:D 0.000172753
2 *2563:X 0.000172753
3 *2704:D *2704:CLK 0
4 *2704:D *618:14 0.000141599
*RES
1 *2563:X *2704:D 10.3538 
*END

*D_NET *126 0.000540345
*CONN
*I *2705:D I *D sky130_fd_sc_hd__dfxtp_1
*I *2565:X O *D sky130_fd_sc_hd__mux2_1
*CAP
1 *2705:D 0.000129359
2 *2565:X 0.000129359
3 *2705:D *2520:S 8.09021e-06
4 *2705:D *2565:A0 7.23533e-05
5 *2705:D *337:28 9.5433e-05
6 *2705:D *337:83 8.65905e-05
7 *2705:D *666:86 1.91597e-05
*RES
1 *2565:X *2705:D 9.60375 
*END

*D_NET *127 0.00103316
*CONN
*I *2706:D I *D sky130_fd_sc_hd__dfxtp_1
*I *2566:X O *D sky130_fd_sc_hd__mux2_1
*CAP
1 *2706:D 0.000263745
2 *2566:X 0.000263745
3 *2706:D *2424:S0 0.000505668
*RES
1 *2566:X *2706:D 8.18375 
*END

*D_NET *128 0.000427567
*CONN
*I *2707:D I *D sky130_fd_sc_hd__dfxtp_1
*I *2567:X O *D sky130_fd_sc_hd__mux2_1
*CAP
1 *2707:D 0.000139768
2 *2567:X 0.000139768
3 *2707:D *339:40 7.89689e-05
4 *2707:D *663:43 0
5 *28:17 *2707:D 6.90626e-05
*RES
1 *2567:X *2707:D 10.0087 
*END

*D_NET *129 0.00035231
*CONN
*I *2708:D I *D sky130_fd_sc_hd__dfxtp_1
*I *2568:X O *D sky130_fd_sc_hd__mux2_1
*CAP
1 *2708:D 8.74646e-05
2 *2568:X 8.74646e-05
3 *2708:D *2533:S 8.84163e-05
4 *2708:D *2852:A 5.20968e-05
5 *2708:D *3033:A 3.68682e-05
*RES
1 *2568:X *2708:D 9.15375 
*END

*D_NET *130 0.000486266
*CONN
*I *2709:D I *D sky130_fd_sc_hd__dfxtp_1
*I *2569:X O *D sky130_fd_sc_hd__mux2_1
*CAP
1 *2709:D 0.000178812
2 *2569:X 0.000178812
3 *2709:D *2447:S0 0
4 *2709:D *3031:A 0
5 *2709:D *347:129 0.000128642
*RES
1 *2569:X *2709:D 10.2638 
*END

*D_NET *131 0.000735342
*CONN
*I *2710:D I *D sky130_fd_sc_hd__dfxtp_1
*I *2570:X O *D sky130_fd_sc_hd__mux2_1
*CAP
1 *2710:D 0.000357117
2 *2570:X 0.000357117
3 *2710:D *436:8 2.11084e-05
*RES
1 *2570:X *2710:D 8.18375 
*END

*D_NET *132 0.00061236
*CONN
*I *2711:D I *D sky130_fd_sc_hd__dfxtp_1
*I *2571:X O *D sky130_fd_sc_hd__mux2_1
*CAP
1 *2711:D 0.000100768
2 *2571:X 0.000100768
3 *2711:D *2571:A1 3.39064e-05
4 *2711:D *357:12 0.000176153
5 *2711:D *646:48 0.000200765
*RES
1 *2571:X *2711:D 10.1888 
*END

*D_NET *133 0.000421508
*CONN
*I *2712:D I *D sky130_fd_sc_hd__dfxtp_1
*I *2572:X O *D sky130_fd_sc_hd__mux2_1
*CAP
1 *2712:D 0.000121667
2 *2572:X 0.000121667
3 *2712:D *2475:S 0
4 *2712:D *2597:S 5.20968e-05
5 *2712:D *353:102 0.000126078
*RES
1 *2572:X *2712:D 9.49875 
*END

*D_NET *134 0.000889202
*CONN
*I *2713:D I *D sky130_fd_sc_hd__dfxtp_1
*I *2574:X O *D sky130_fd_sc_hd__mux2_1
*CAP
1 *2713:D 0.000265487
2 *2574:X 0.000265487
3 *2713:D *2516:S 0.000165065
4 *2713:D *329:96 7.48667e-05
5 *2713:D *342:67 2.35512e-05
6 *2713:D *439:16 9.47454e-05
*RES
1 *2574:X *2713:D 12.7688 
*END

*D_NET *135 0.00186995
*CONN
*I *2714:D I *D sky130_fd_sc_hd__dfxtp_1
*I *2575:X O *D sky130_fd_sc_hd__mux2_1
*CAP
1 *2714:D 0.000396247
2 *2575:X 0.000396247
3 *2714:D *2426:A1 0.000143172
4 *2714:D *2658:CLK 0.000463119
5 *2714:D *2897:A 7.30547e-05
6 *2714:D *2958:A 0.000193801
7 *2714:D *325:34 4.92096e-05
8 *2714:D *432:6 8.65905e-05
9 *2714:D *642:54 6.85082e-05
*RES
1 *2575:X *2714:D 15.6337 
*END

*D_NET *136 0.000619712
*CONN
*I *2715:D I *D sky130_fd_sc_hd__dfxtp_1
*I *2576:X O *D sky130_fd_sc_hd__mux2_1
*CAP
1 *2715:D 0.000163724
2 *2576:X 0.000163724
3 *2715:D *2576:S 0.000123225
4 *2715:D *2707:CLK 1.43717e-05
5 *2715:D *2839:A 1.54049e-05
6 *2715:D *339:40 8.71001e-05
7 *2715:D *358:26 5.21627e-05
*RES
1 *2576:X *2715:D 10.3687 
*END

*D_NET *137 0.000667381
*CONN
*I *2716:D I *D sky130_fd_sc_hd__dfxtp_1
*I *2577:X O *D sky130_fd_sc_hd__mux2_1
*CAP
1 *2716:D 0.000140783
2 *2577:X 0.000140783
3 *2716:D *2676:CLK 0.000164382
4 *2716:D *3033:A 6.14689e-05
5 *2716:D *659:84 0.000159964
*RES
1 *2577:X *2716:D 10.6088 
*END

*D_NET *138 0.000724327
*CONN
*I *2717:D I *D sky130_fd_sc_hd__dfxtp_1
*I *2578:X O *D sky130_fd_sc_hd__mux2_1
*CAP
1 *2717:D 0.000160657
2 *2578:X 0.000160657
3 *2717:D *2447:S0 0.000138544
4 *2717:D *2717:CLK 1.43717e-05
5 *2717:D *333:122 6.50844e-06
6 *2717:D *338:44 9.37731e-05
7 *2717:D *347:51 4.24292e-06
8 *2717:D *347:55 1.0183e-05
9 *2717:D *347:129 0.000120655
10 *2717:D *435:6 1.47347e-05
*RES
1 *2578:X *2717:D 10.8188 
*END

*D_NET *139 0.000307635
*CONN
*I *2718:D I *D sky130_fd_sc_hd__dfxtp_1
*I *2579:X O *D sky130_fd_sc_hd__mux2_1
*CAP
1 *2718:D 7.53116e-05
2 *2579:X 7.53116e-05
3 *2718:D *2848:A 0.000141606
4 *2718:D *641:50 1.54049e-05
5 *2718:D *655:62 0
*RES
1 *2579:X *2718:D 8.97375 
*END

*D_NET *140 0.000266128
*CONN
*I *2719:D I *D sky130_fd_sc_hd__dfxtp_1
*I *2580:X O *D sky130_fd_sc_hd__mux2_1
*CAP
1 *2719:D 0.000107402
2 *2580:X 0.000107402
3 *2719:D *2460:A2 3.51254e-06
4 *2719:D *2571:A0 2.67022e-05
5 *2719:D *2580:A1 0
6 *2719:D *334:66 0
7 *2719:D *341:42 2.11084e-05
*RES
1 *2580:X *2719:D 8.91375 
*END

*D_NET *141 0.000968793
*CONN
*I *2720:D I *D sky130_fd_sc_hd__dfxtp_1
*I *2581:X O *D sky130_fd_sc_hd__mux2_1
*CAP
1 *2720:D 0.00041778
2 *2581:X 0.00041778
3 *2720:D *2475:S 9.37731e-05
4 *2720:D *2597:S 0
5 *2720:D *645:72 3.94592e-05
*RES
1 *2581:X *2720:D 13.0538 
*END

*D_NET *142 0.00070025
*CONN
*I *2722:D I *D sky130_fd_sc_hd__dfxtp_1
*I *2583:X O *D sky130_fd_sc_hd__mux2_1
*CAP
1 *2722:D 0.000183204
2 *2583:X 0.000183204
3 *2722:D *2592:A0 9.20132e-05
4 *2722:D *2747:D 9.47454e-05
5 *2722:D *2870:A 4.92062e-05
6 *2722:D *471:8 4.65607e-05
7 *2722:D *670:80 5.13155e-05
*RES
1 *2583:X *2722:D 11.2388 
*END

*D_NET *143 0.00184091
*CONN
*I *2723:D I *D sky130_fd_sc_hd__dfxtp_1
*I *2584:X O *D sky130_fd_sc_hd__mux2_1
*CAP
1 *2723:D 0.000300887
2 *2584:X 0.000300887
3 *2723:D *2424:A2 0.000355657
4 *2723:D *2593:A1 7.00889e-06
5 *2723:D *2855:A 6.95945e-05
6 *2723:D *340:24 9.0754e-05
7 *2723:D *361:10 9.71067e-05
8 *2723:D *456:10 4.82863e-05
9 *2723:D *642:64 0.000318241
10 *2723:D *664:10 0.000108365
11 *2723:D *664:28 0.000144122
*RES
1 *2584:X *2723:D 17.0287 
*END

*D_NET *144 0.00178301
*CONN
*I *2724:D I *D sky130_fd_sc_hd__dfxtp_1
*I *2585:X O *D sky130_fd_sc_hd__mux2_1
*CAP
1 *2724:D 0.000561567
2 *2585:X 0.000561567
3 *2724:D *2432:A2 6.90889e-06
4 *2724:D *2432:A3 2.96897e-05
5 *2724:D *2432:S1 5.98345e-05
6 *2724:D *2436:A2 1.78403e-05
7 *2724:D *2558:A0 0.000137988
8 *2724:D *2724:CLK 7.71334e-05
9 *2724:D *2950:A 0
10 *2724:D *3030:A 8.696e-05
11 *2724:D *337:97 0
12 *2724:D *337:107 0
13 *2724:D *342:36 0.000243525
*RES
1 *2585:X *2724:D 21.055 
*END

*D_NET *145 0.00134568
*CONN
*I *2725:D I *D sky130_fd_sc_hd__dfxtp_1
*I *2586:X O *D sky130_fd_sc_hd__mux2_1
*CAP
1 *2725:D 0.000479988
2 *2586:X 0.000479988
3 *2725:D *2438:A1 5.05521e-05
4 *2725:D *2550:S 0.000129574
5 *2725:D *2954:A 0.000153482
6 *2725:D *329:107 0
7 *2725:D *342:77 5.20968e-05
*RES
1 *2586:X *2725:D 15.3638 
*END

*D_NET *146 0.00172125
*CONN
*I *2726:D I *D sky130_fd_sc_hd__dfxtp_1
*I *2587:X O *D sky130_fd_sc_hd__mux2_1
*CAP
1 *2726:D 0.000548561
2 *2587:X 0.000548561
3 *2726:D *2444:S1 4.70343e-05
4 *2726:D *2587:S 8.40213e-05
5 *2726:D *2726:CLK 4.99619e-05
6 *2726:D *2797:A 0.000116853
7 *2726:D *2826:A 0.000273878
8 *2726:D *459:10 5.23816e-05
*RES
1 *2587:X *2726:D 17.115 
*END

*D_NET *147 0.000347232
*CONN
*I *2727:D I *D sky130_fd_sc_hd__dfxtp_1
*I *2588:X O *D sky130_fd_sc_hd__mux2_1
*CAP
1 *2727:D 0.000119582
2 *2588:X 0.000119582
3 *2727:D *2465:S1 8.08439e-05
4 *2727:D *476:8 8.84839e-06
5 *2727:D *655:92 1.83756e-05
*RES
1 *2588:X *2727:D 9.42375 
*END

*D_NET *148 0.000302129
*CONN
*I *2728:D I *D sky130_fd_sc_hd__dfxtp_1
*I *2589:X O *D sky130_fd_sc_hd__mux2_1
*CAP
1 *2728:D 7.73275e-05
2 *2589:X 7.73275e-05
3 *2728:D *2562:S 5.13155e-05
4 *2728:D *2905:A 0
5 *2728:D *357:26 2.27187e-05
6 *2728:D *477:8 7.34397e-05
*RES
1 *2589:X *2728:D 9.00375 
*END

*D_NET *149 0.00124023
*CONN
*I *2729:D I *D sky130_fd_sc_hd__dfxtp_1
*I *2590:X O *D sky130_fd_sc_hd__mux2_1
*CAP
1 *2729:D 0.000339777
2 *2590:X 0.000339777
3 *2729:D *2462:A1 0.000135959
4 *2729:D *2462:S0 8.52845e-05
5 *2729:D *2616:S 0.000139933
6 *2729:D *3035:A 0.000199498
*RES
1 *2590:X *2729:D 13.5638 
*END

*D_NET *150 0.0017805
*CONN
*I *2747:D I *D sky130_fd_sc_hd__dfxtp_1
*I *2592:X O *D sky130_fd_sc_hd__mux2_1
*CAP
1 *2747:D 0.000431893
2 *2592:X 0.000431893
3 *2747:D *2418:A2 1.67456e-05
4 *2747:D *2418:A3 7.09921e-05
5 *2747:D *2418:S0 3.89851e-05
6 *2747:D *2619:RESET_B 0.000118946
7 *2747:D *2870:A 7.23602e-05
8 *2747:D *2875:A 5.74445e-05
9 *2747:D *337:83 0.000106187
10 *2747:D *358:10 0.000167098
11 *2747:D *358:14 0.00012672
12 *2747:D *643:116 3.83997e-05
13 *2747:D *670:80 8.09021e-06
14 *2722:D *2747:D 9.47454e-05
*RES
1 *2592:X *2747:D 17.9137 
*END

*D_NET *151 0.00160503
*CONN
*I *2748:D I *D sky130_fd_sc_hd__dfxtp_1
*I *2593:X O *D sky130_fd_sc_hd__mux2_1
*CAP
1 *2748:D 0.000147405
2 *2593:X 0.000147405
3 *2748:D *2424:A0 7.23602e-05
4 *2748:D *2483:S 0.000587403
5 *2748:D *2706:CLK 6.55406e-05
6 *2748:D *2931:A 0.000121341
7 *2748:D *340:24 0
8 *2748:D *341:105 1.44259e-05
9 *2748:D *360:33 0.000449143
*RES
1 *2593:X *2748:D 14.4038 
*END

*D_NET *152 0.00153686
*CONN
*I *2749:D I *D sky130_fd_sc_hd__dfxtp_1
*I *2594:X O *D sky130_fd_sc_hd__mux2_1
*CAP
1 *2749:D 0.000279807
2 *2594:X 0.000279807
3 *2749:D *340:100 0.000152317
4 *2749:D *356:107 0.000419464
5 *2749:D *449:10 0.000117825
6 *2749:D *646:27 0.000197329
7 *2749:D *646:42 9.03138e-05
*RES
1 *2594:X *2749:D 14.5538 
*END

*D_NET *153 0.00122354
*CONN
*I *2750:D I *D sky130_fd_sc_hd__dfxtp_1
*I *2595:X O *D sky130_fd_sc_hd__mux2_1
*CAP
1 *2750:D 0.000181172
2 *2595:X 0.000181172
3 *2750:D *2442:A2 0.00046031
4 *2750:D *2442:A3 3.23391e-05
5 *2750:D *337:30 3.18137e-05
6 *2750:D *450:12 7.23602e-05
7 *2750:D *634:98 0.000214402
8 *2750:D *637:90 4.9968e-05
*RES
1 *2595:X *2750:D 13.1138 
*END

*D_NET *154 0.000396389
*CONN
*I *2751:D I *D sky130_fd_sc_hd__dfxtp_1
*I *2596:X O *D sky130_fd_sc_hd__mux2_1
*CAP
1 *2751:D 0.000102096
2 *2596:X 0.000102096
3 *2751:D *2443:A0 0
4 *2751:D *2596:S 7.63125e-05
5 *2751:D *347:34 9.50342e-06
6 *2751:D *347:47 7.7152e-05
7 *2751:D *639:73 2.92279e-05
*RES
1 *2596:X *2751:D 9.555 
*END

*D_NET *155 0.00110993
*CONN
*I *2752:D I *D sky130_fd_sc_hd__dfxtp_1
*I *2597:X O *D sky130_fd_sc_hd__mux2_1
*CAP
1 *2752:D 0.000397702
2 *2597:X 0.000397702
3 *2752:D *2948:A 0.000121019
4 *2752:D *334:80 5.4256e-05
5 *2752:D *641:77 0.000139245
*RES
1 *2597:X *2752:D 14.1488 
*END

*D_NET *156 0.00026874
*CONN
*I *2753:D I *D sky130_fd_sc_hd__dfxtp_1
*I *2598:X O *D sky130_fd_sc_hd__mux2_1
*CAP
1 *2753:D 0.000124434
2 *2598:X 0.000124434
3 *2753:D *2753:CLK 1.9872e-05
*RES
1 *2598:X *2753:D 4.92875 
*END

*D_NET *157 0.000337582
*CONN
*I *2754:D I *D sky130_fd_sc_hd__dfxtp_1
*I *2599:X O *D sky130_fd_sc_hd__mux2_1
*CAP
1 *2754:D 9.51389e-05
2 *2599:X 9.51389e-05
3 *2754:D *2844:A 0.000147305
*RES
1 *2599:X *2754:D 4.92875 
*END

*D_NET *158 0.00105481
*CONN
*I *2779:D I *D sky130_fd_sc_hd__dfxtp_1
*I *2600:X O *D sky130_fd_sc_hd__mux2_1
*CAP
1 *2779:D 0.000402687
2 *2600:X 0.000402687
3 *2779:D *2633:CLK 0.000114492
4 *2779:D *327:53 0
5 *2779:D *666:28 0.000124167
6 *2625:D *2779:D 1.07797e-05
*RES
1 *2600:X *2779:D 13.9537 
*END

*D_NET *159 0.000317558
*CONN
*I *2780:D I *D sky130_fd_sc_hd__dfxtp_1
*I *2601:X O *D sky130_fd_sc_hd__mux2_1
*CAP
1 *2780:D 0.000158779
2 *2601:X 0.000158779
3 *2780:D *325:26 0
4 *2780:D *341:103 0
*RES
1 *2601:X *2780:D 9.49875 
*END

*D_NET *160 0.000942144
*CONN
*I *2781:D I *D sky130_fd_sc_hd__dfxtp_1
*I *2602:X O *D sky130_fd_sc_hd__mux2_1
*CAP
1 *2781:D 0.000407084
2 *2602:X 0.000407084
3 *2781:D *2457:S1 0
4 *2781:D *323:114 7.45881e-05
5 *2781:D *323:120 5.33874e-05
*RES
1 *2602:X *2781:D 13.5337 
*END

*D_NET *161 0.00114422
*CONN
*I *2782:D I *D sky130_fd_sc_hd__dfxtp_1
*I *2603:X O *D sky130_fd_sc_hd__mux2_1
*CAP
1 *2782:D 0.000116004
2 *2603:X 0.000116004
3 *2782:D *2535:S 0.000456931
4 *2782:D *2624:RESET_B 9.30717e-05
5 *2782:D *2782:CLK 0.00020076
6 *2782:D *345:22 1.07797e-05
7 *2782:D *355:75 0.000150668
*RES
1 *2603:X *2782:D 11.9137 
*END

*D_NET *162 0.000456001
*CONN
*I *2783:D I *D sky130_fd_sc_hd__dfxtp_1
*I *2604:X O *D sky130_fd_sc_hd__mux2_1
*CAP
1 *2783:D 4.68692e-05
2 *2604:X 4.68692e-05
3 *2783:D *2446:A2 9.78012e-05
4 *2783:D *2446:A3 1.54049e-05
5 *2783:D *2446:S1 0.000162325
6 *2783:D *2961:A 7.23602e-05
7 *2783:D *348:36 1.43717e-05
*RES
1 *2604:X *2783:D 9.22875 
*END

*D_NET *163 0.000543377
*CONN
*I *2784:D I *D sky130_fd_sc_hd__dfxtp_1
*I *2605:X O *D sky130_fd_sc_hd__mux2_1
*CAP
1 *2784:D 0.000254296
2 *2605:X 0.000254296
3 *2784:D *2605:S 0
4 *2784:D *339:44 0
5 *2784:D *655:75 3.47837e-05
*RES
1 *2605:X *2784:D 10.8787 
*END

*D_NET *164 0.000321328
*CONN
*I *2785:D I *D sky130_fd_sc_hd__dfxtp_1
*I *2606:X O *D sky130_fd_sc_hd__mux2_1
*CAP
1 *2785:D 9.34639e-05
2 *2606:X 9.34639e-05
3 *2785:D *2460:A1 9.54469e-05
4 *2631:D *2785:D 3.89528e-05
*RES
1 *2606:X *2785:D 9.15375 
*END

*D_NET *165 0.00104853
*CONN
*I *2786:D I *D sky130_fd_sc_hd__dfxtp_1
*I *2607:X O *D sky130_fd_sc_hd__mux2_1
*CAP
1 *2786:D 0.000270377
2 *2607:X 0.000270377
3 *2786:D *2464:S0 0.000160856
4 *2786:D *2607:A0 3.56353e-05
5 *2786:D *2839:A 0.000117825
6 *2786:D *2844:A 1.43717e-05
7 *2786:D *323:120 0.000110821
8 *2786:D *646:16 4.5783e-05
9 *2632:D *2786:D 2.24833e-05
*RES
1 *2607:X *2786:D 13.4438 
*END

*D_NET *166 0.000584572
*CONN
*I *2787:D I *D sky130_fd_sc_hd__dfxtp_1
*I *2609:X O *D sky130_fd_sc_hd__mux2_1
*CAP
1 *2787:D 0.000109514
2 *2609:X 0.000109514
3 *2787:D *2423:A1 0.000143266
4 *2787:D *2877:A 0.000139933
5 *2787:D *325:67 8.23457e-05
*RES
1 *2609:X *2787:D 9.76875 
*END

*D_NET *167 0.00159007
*CONN
*I *2788:D I *D sky130_fd_sc_hd__dfxtp_1
*I *2610:X O *D sky130_fd_sc_hd__mux2_1
*CAP
1 *2788:D 0.000269915
2 *2610:X 0.000269915
3 *2788:D *2520:A1 0.000161813
4 *2788:D *2957:A 0.000141626
5 *2788:D *336:10 0.000602689
6 *2788:D *342:67 0.000111513
7 *2788:D *342:77 3.25997e-05
*RES
1 *2610:X *2788:D 15.7087 
*END

*D_NET *168 0.000779978
*CONN
*I *2789:D I *D sky130_fd_sc_hd__dfxtp_1
*I *2611:X O *D sky130_fd_sc_hd__mux2_1
*CAP
1 *2789:D 0.000351223
2 *2611:X 0.000351223
3 *2789:D *2789:CLK 7.75325e-05
4 *2789:D *2884:A 0
5 *2789:D *2904:A 0
6 *2789:D *337:107 0
*RES
1 *2611:X *2789:D 13.0538 
*END

*D_NET *169 0.00103401
*CONN
*I *2790:D I *D sky130_fd_sc_hd__dfxtp_1
*I *2612:X O *D sky130_fd_sc_hd__mux2_1
*CAP
1 *2790:D 0.000352893
2 *2612:X 0.000352893
3 *2790:D *2441:S1 4.61658e-05
4 *2790:D *2442:A1 0
5 *2790:D *2540:A1 0.000128642
6 *2790:D *3033:A 0
7 *2790:D *334:93 0.000130317
8 *2790:D *659:29 2.30957e-05
9 *2684:D *2790:D 0
*RES
1 *2612:X *2790:D 13.5787 
*END

*D_NET *170 0.00101931
*CONN
*I *2791:D I *D sky130_fd_sc_hd__dfxtp_1
*I *2613:X O *D sky130_fd_sc_hd__mux2_1
*CAP
1 *2791:D 0.000265865
2 *2613:X 0.000265865
3 *2791:D *2504:S 4.66108e-05
4 *2791:D *2523:A0 7.63204e-05
5 *2791:D *2523:A1 0.000186092
6 *2791:D *2541:S 1.54049e-05
7 *2791:D *2791:CLK 7.75325e-05
8 *2791:D *3031:A 0
9 *2653:D *2791:D 8.56227e-05
*RES
1 *2613:X *2791:D 13.5037 
*END

*D_NET *171 0.00103879
*CONN
*I *2792:D I *D sky130_fd_sc_hd__dfxtp_1
*I *2614:X O *D sky130_fd_sc_hd__mux2_1
*CAP
1 *2792:D 0.000425614
2 *2614:X 0.000425614
3 *2792:D *2614:A1 0.000122337
4 *2792:D *492:12 6.52265e-05
*RES
1 *2614:X *2792:D 10.1637 
*END

*D_NET *172 0.0005498
*CONN
*I *2793:D I *D sky130_fd_sc_hd__dfxtp_1
*I *2615:X O *D sky130_fd_sc_hd__mux2_1
*CAP
1 *2793:D 0.0001872
2 *2615:X 0.0001872
3 *2793:D *2687:CLK 5.14454e-05
4 *2793:D *332:42 0.000123955
*RES
1 *2615:X *2793:D 9.94875 
*END

*D_NET *173 0.00184032
*CONN
*I *2794:D I *D sky130_fd_sc_hd__dfxtp_1
*I *2616:X O *D sky130_fd_sc_hd__mux2_1
*CAP
1 *2794:D 0.000643326
2 *2616:X 0.000643326
3 *2794:D *2465:S1 0
4 *2794:D *2544:A0 0.00042444
5 *2794:D *2544:S 3.6227e-05
6 *2794:D *494:14 9.3002e-05
7 *2688:D *2794:D 0
*RES
1 *2616:X *2794:D 18.4088 
*END

*D_NET *174 0.00127878
*CONN
*I *2381:A I *D sky130_fd_sc_hd__nand2_1
*I *2380:A I *D sky130_fd_sc_hd__nor2_1
*I *2290:Y O *D sky130_fd_sc_hd__inv_2
*CAP
1 *2381:A 1.15106e-05
2 *2380:A 6.49848e-05
3 *2290:Y 0.000297888
4 *174:8 0.000374384
5 *2380:A *2381:B 4.24643e-05
6 *2380:A *2388:D_N 4.66826e-05
7 *2381:A *2381:B 5.4155e-06
8 *2381:A *2386:A 0
9 *174:8 *2383:A 3.92516e-05
10 *174:8 *2386:A 0.000349592
11 *174:8 *2386:B 4.66108e-05
*RES
1 *2290:Y *174:8 6.895 
2 *174:8 *2380:A 3.1 
3 *174:8 *2381:A 1.96 
*END

*D_NET *175 0.0046275
*CONN
*I *2305:A I *D sky130_fd_sc_hd__or2_1
*I *2307:A I *D sky130_fd_sc_hd__xnor2_1
*I *2478:A I *D sky130_fd_sc_hd__nand2_4
*I *2468:A I *D sky130_fd_sc_hd__or3b_4
*I *2291:Y O *D sky130_fd_sc_hd__inv_2
*CAP
1 *2305:A 0.000194691
2 *2307:A 0.000120899
3 *2478:A 0
4 *2468:A 0.000204805
5 *2291:Y 4.24972e-05
6 *175:40 0.00072443
7 *175:16 0.000559784
8 *175:6 0.000806317
9 *2305:A *2305:B 0.000114024
10 *2305:A *188:16 0.000198939
11 *2307:A *2306:A 7.21296e-06
12 *2307:A *2307:B 0.000156842
13 *2307:A *2740:D 0.000204603
14 *2307:A *188:16 0.000162332
15 *2307:A *190:21 0
16 *2468:A *2368:B 0
17 *2468:A *2370:A 1.83756e-05
18 *2468:A *2370:B 8.65961e-05
19 *2468:A *2468:B 0.000163199
20 *2468:A *2743:D 0
21 *2468:A *249:16 1.34594e-05
22 *2468:A *322:10 6.02123e-05
23 *2468:A *324:12 2.97004e-06
24 *2468:A *326:12 0
25 *175:6 *2291:A 4.82863e-05
26 *175:16 *2291:A 7.35729e-05
27 *175:16 *2368:B 0.000196376
28 *175:16 *2368:C 2.11084e-05
29 *175:16 *2370:A 1.37328e-05
30 *175:16 *2370:B 2.66672e-05
31 *175:16 *249:16 0.000323027
32 *175:16 *324:12 5.99393e-05
33 *175:16 *730:29 2.26018e-05
*RES
1 *2291:Y *175:6 2.395 
2 *175:6 *175:16 8.01 
3 *175:16 *2468:A 10.025 
4 *175:16 *2478:A 1.6 
5 *175:6 *175:40 5.64 
6 *175:40 *2307:A 9.785 
7 *175:40 *2305:A 5.5 
*END

*D_NET *176 0.0021828
*CONN
*I *2308:A1 I *D sky130_fd_sc_hd__a21o_1
*I *2325:A1 I *D sky130_fd_sc_hd__a211o_1
*I *2322:A I *D sky130_fd_sc_hd__nand3_1
*I *2324:A1_N I *D sky130_fd_sc_hd__a2bb2o_1
*I *2292:Y O *D sky130_fd_sc_hd__inv_2
*CAP
1 *2308:A1 0
2 *2325:A1 9.27715e-05
3 *2322:A 4.57952e-05
4 *2324:A1_N 0
5 *2292:Y 0.000408322
6 *176:12 4.57952e-05
7 *176:10 0.000180384
8 *176:6 0.000495935
9 *2322:A *2324:B1 0
10 *2322:A *190:30 0.000132759
11 *2322:A *191:12 7.10578e-05
12 *2325:A1 *2324:B2 9.29751e-06
13 *2325:A1 *2325:A2 8.78813e-05
14 *2325:A1 *2325:B1 0.00011852
15 *2325:A1 *2325:C1 4.82919e-05
16 *2325:A1 *2740:RESET_B 2.04147e-05
17 *176:6 *2306:A 8.65961e-05
18 *176:6 *2306:B 4.21973e-05
19 *176:6 *2308:A2 0.000124007
20 *176:10 *2308:B1 8.97408e-05
21 *176:10 *2323:A2 0
22 *176:10 *2324:B2 4.18603e-06
23 *176:10 *2740:RESET_B 7.8848e-05
24 *176:10 *194:12 0
*RES
1 *2292:Y *176:6 7.57 
2 *176:6 *176:10 4.4 
3 *176:10 *176:12 2 
4 *176:12 *2324:A1_N 1.6 
5 *176:12 *2322:A 3.1 
6 *176:10 *2325:A1 6.195 
7 *176:6 *2308:A1 1.6 
*END

*D_NET *177 0.00182371
*CONN
*I *2317:B1 I *D sky130_fd_sc_hd__a21o_1
*I *2328:A1 I *D sky130_fd_sc_hd__a32o_1
*I *2293:Y O *D sky130_fd_sc_hd__inv_2
*CAP
1 *2317:B1 0
2 *2328:A1 0.000212241
3 *2293:Y 0.000358119
4 *177:10 0.00057036
5 *2328:A1 *2317:A1 9.42876e-05
6 *2328:A1 *2328:A2 0.00015502
7 *2328:A1 *2328:B1 1.61831e-05
8 *2328:A1 *2329:B 2.7441e-05
9 *177:10 *2329:A 4.99619e-05
10 *177:10 *2329:B 0.000197438
11 *177:10 *2741:D 0.000142661
*RES
1 *2293:Y *177:10 9.07 
2 *177:10 *2328:A1 5.695 
3 *177:10 *2317:B1 1.6 
*END

*D_NET *178 0.00132023
*CONN
*I *2327:A1 I *D sky130_fd_sc_hd__a32o_1
*I *2319:B1 I *D sky130_fd_sc_hd__a21o_1
*I *2294:Y O *D sky130_fd_sc_hd__inv_2
*CAP
1 *2327:A1 0.0001924
2 *2319:B1 0
3 *2294:Y 0.00038291
4 *178:12 0.000575311
5 *2327:A1 *2319:A1 2.30292e-05
6 *2327:A1 *2319:A2 0.0001249
7 *2327:A1 *2327:A2 2.16833e-05
*RES
1 *2294:Y *178:12 10.76 
2 *178:12 *2319:B1 1.6 
3 *178:12 *2327:A1 5.185 
*END

*D_NET *179 0.000862005
*CONN
*I *2326:A1 I *D sky130_fd_sc_hd__a32o_1
*I *2321:B1 I *D sky130_fd_sc_hd__a21o_1
*I *2295:Y O *D sky130_fd_sc_hd__inv_2
*CAP
1 *2326:A1 0.000193773
2 *2321:B1 0
3 *2295:Y 0.000148211
4 *179:12 0.000341984
5 *2326:A1 *2321:A2 0.0001249
6 *2326:A1 *2326:A2 4.76044e-05
7 *179:12 *2326:B1 0
8 *179:12 *195:12 5.53249e-06
*RES
1 *2295:Y *179:12 7.43 
2 *179:12 *2321:B1 1.6 
3 *179:12 *2326:A1 4.825 
*END

*D_NET *180 0.00112457
*CONN
*I *2323:B1 I *D sky130_fd_sc_hd__a21o_1
*I *2324:B2 I *D sky130_fd_sc_hd__a2bb2o_1
*I *2296:Y O *D sky130_fd_sc_hd__inv_2
*CAP
1 *2323:B1 2.08101e-05
2 *2324:B2 0.00016953
3 *2296:Y 4.83303e-05
4 *180:6 0.00023867
5 *2324:B2 *2323:A2 3.65658e-05
6 *2324:B2 *2324:B1 4.99619e-05
7 *2324:B2 *2325:A2 0.000141606
8 *2324:B2 *2325:C1 0.000115779
9 *2324:B2 *2326:B1 1.08758e-05
10 *2324:B2 *2326:B2 0.000104116
11 *180:6 *2325:C1 9.91257e-05
12 *180:6 *2326:B1 7.57202e-05
13 *2325:A1 *2324:B2 9.29751e-06
14 *176:10 *2324:B2 4.18603e-06
*RES
1 *2296:Y *180:6 3.085 
2 *180:6 *2324:B2 9.77 
3 *180:6 *2323:B1 1.96 
*END

*D_NET *181 0.000976331
*CONN
*I *2325:C1 I *D sky130_fd_sc_hd__a211o_1
*I *2297:Y O *D sky130_fd_sc_hd__inv_2
*CAP
1 *2325:C1 0.000356567
2 *2297:Y 0.000356567
3 *2324:B2 *2325:C1 0.000115779
4 *2325:A1 *2325:C1 4.82919e-05
5 *180:6 *2325:C1 9.91257e-05
*RES
1 *2297:Y *2325:C1 9.53 
*END

*D_NET *182 0.00119585
*CONN
*I *2362:A1 I *D sky130_fd_sc_hd__a32o_1
*I *2352:B1 I *D sky130_fd_sc_hd__a21o_1
*I *2298:Y O *D sky130_fd_sc_hd__inv_2
*CAP
1 *2362:A1 0.000307272
2 *2352:B1 5.22115e-05
3 *2298:Y 2.92427e-05
4 *182:6 0.000388726
5 *2352:B1 *2362:B1 8.65905e-05
6 *2362:A1 *2352:A1 0
7 *2362:A1 *2352:A2 3.45438e-05
8 *2362:A1 *2362:B1 0.000297263
*RES
1 *2298:Y *182:6 2.05 
2 *182:6 *2352:B1 2.74 
3 *182:6 *2362:A1 6.13 
*END

*D_NET *183 0.00236562
*CONN
*I *2301:B I *D sky130_fd_sc_hd__nand2_1
*I *2312:B I *D sky130_fd_sc_hd__nor2_1
*I *2300:B I *D sky130_fd_sc_hd__and2_1
*I *2302:B I *D sky130_fd_sc_hd__xor2_2
*I *2299:Y O *D sky130_fd_sc_hd__xnor2_2
*CAP
1 *2301:B 0.000136972
2 *2312:B 0
3 *2300:B 0
4 *2302:B 0
5 *2299:Y 0.000299812
6 *183:28 0.000180725
7 *183:21 0.000381878
8 *183:10 0.000637937
9 *2301:B *2301:A 4.99619e-05
10 *2301:B *732:34 4.84704e-05
11 *183:10 *2389:A 0
12 *183:10 *676:54 0.00023344
13 *183:10 *732:25 0
14 *183:21 *2309:A 0
15 *183:21 *2389:A 0
16 *183:21 *184:10 3.00381e-05
17 *183:21 *732:25 0.000239813
18 *183:28 *732:25 7.66083e-05
19 *183:28 *732:34 4.99619e-05
*RES
1 *2299:Y *183:10 9.3 
2 *183:10 *2302:B 2 
3 *183:10 *183:21 8.36 
4 *183:21 *2300:B 1.6 
5 *183:21 *183:28 1.14 
6 *183:28 *2312:B 1.6 
7 *183:28 *2301:B 4.15 
*END

*D_NET *184 0.00098146
*CONN
*I *2318:A1 I *D sky130_fd_sc_hd__o211ai_1
*I *2313:C1 I *D sky130_fd_sc_hd__a211o_1
*I *2300:X O *D sky130_fd_sc_hd__and2_1
*CAP
1 *2318:A1 9.43999e-05
2 *2313:C1 3.93755e-05
3 *2300:X 0.000151124
4 *184:10 0.000284899
5 *2313:C1 *2313:A1 9.63179e-05
6 *2313:C1 *2313:B1 3.70488e-05
7 *2318:A1 *2313:A2 0.000133517
8 *2318:A1 *2318:C1 5.3023e-05
9 *2318:A1 *195:36 1.71013e-05
10 *2318:A1 *202:12 2.75229e-05
11 *184:10 *2313:A2 1.70935e-05
12 *184:10 *196:8 0
13 *183:21 *184:10 3.00381e-05
*RES
1 *2300:X *184:10 5.685 
2 *184:10 *2313:C1 4.755 
3 *184:10 *2318:A1 6.195 
*END

*D_NET *185 0.000563198
*CONN
*I *2315:A I *D sky130_fd_sc_hd__nand3_1
*I *2316:A1 I *D sky130_fd_sc_hd__a21o_1
*I *2301:Y O *D sky130_fd_sc_hd__nand2_1
*CAP
1 *2315:A 9.53908e-05
2 *2316:A1 2.88696e-05
3 *2301:Y 3.69892e-05
4 *185:10 0.00016125
5 *2315:A *2313:B1 0
6 *2315:A *2315:B 1.34594e-05
7 *2315:A *2315:C 7.57202e-05
8 *2315:A *2316:B1 4.20934e-05
9 *2316:A1 *2315:B 1.83756e-05
10 *185:10 *196:8 3.89528e-05
11 *185:10 *198:27 5.20968e-05
*RES
1 *2301:Y *185:10 6.725 
2 *185:10 *2316:A1 2.05 
3 *185:10 *2315:A 3.55 
*END

*D_NET *186 0.0013217
*CONN
*I *2303:B I *D sky130_fd_sc_hd__nand2_1
*I *2309:B I *D sky130_fd_sc_hd__or2_1
*I *2304:B I *D sky130_fd_sc_hd__xnor2_2
*I *2302:X O *D sky130_fd_sc_hd__xor2_2
*CAP
1 *2303:B 9.21139e-05
2 *2309:B 0
3 *2304:B 2.70973e-05
4 *2302:X 0.00018357
5 *186:16 0.00010919
6 *186:12 0.000357776
7 *2303:B *2303:A 5.59676e-05
8 *2304:B *2303:A 8.8266e-05
9 *186:12 *2309:A 0.000317507
10 *186:12 *2386:A 2.75229e-05
11 *186:12 *732:25 0
12 *186:16 *2303:A 6.26945e-05
*RES
1 *2302:X *186:12 9.725 
2 *186:12 *186:16 1.5 
3 *186:16 *2304:B 2.395 
4 *186:16 *2309:B 1.6 
5 *186:12 *2303:B 3.445 
*END

*D_NET *187 0.0013577
*CONN
*I *2313:A1 I *D sky130_fd_sc_hd__a211o_1
*I *2318:C1 I *D sky130_fd_sc_hd__o211ai_1
*I *2310:A I *D sky130_fd_sc_hd__nand2_1
*I *2303:Y O *D sky130_fd_sc_hd__nand2_1
*CAP
1 *2313:A1 0.000108334
2 *2318:C1 7.73491e-05
3 *2310:A 3.06019e-05
4 *2303:Y 7.24588e-05
5 *187:21 0.0004532
6 *187:10 0.000370578
7 *2313:A1 *2313:B1 2.55657e-05
8 *2313:A1 *2316:A2 1.37328e-05
9 *2318:C1 *195:36 9.50342e-06
10 *187:10 *2310:B 4.70343e-05
11 *2313:C1 *2313:A1 9.63179e-05
12 *2318:A1 *2318:C1 5.3023e-05
*RES
1 *2303:Y *187:10 6.98 
2 *187:10 *2310:A 2.05 
3 *187:10 *187:21 3.825 
4 *187:21 *2318:C1 7.235 
5 *187:21 *2313:A1 3.7 
*END

*D_NET *188 0.00199152
*CONN
*I *2305:B I *D sky130_fd_sc_hd__or2_1
*I *2307:B I *D sky130_fd_sc_hd__xnor2_1
*I *2306:B I *D sky130_fd_sc_hd__xor2_1
*I *2304:Y O *D sky130_fd_sc_hd__xnor2_2
*CAP
1 *2305:B 5.76736e-05
2 *2307:B 7.45347e-05
3 *2306:B 5.66272e-05
4 *2304:Y 0.000182385
5 *188:16 0.000286302
6 *188:10 0.000395198
7 *2306:B *2306:A 4.82919e-05
8 *2307:B *2308:A2 0
9 *2307:B *190:21 0
10 *188:10 *2306:A 0.000139844
11 *188:10 *2740:RESET_B 0
12 *188:16 *2306:A 7.63282e-05
13 *188:16 *2308:A2 0
14 *2305:A *2305:B 0.000114024
15 *2305:A *188:16 0.000198939
16 *2307:A *2307:B 0.000156842
17 *2307:A *188:16 0.000162332
18 *176:6 *2306:B 4.21973e-05
*RES
1 *2304:Y *188:10 9.53 
2 *188:10 *188:16 5.72 
3 *188:16 *2306:B 4.74 
4 *188:16 *2307:B 5.49 
5 *188:10 *2305:B 2.74 
*END

*D_NET *189 0.000945959
*CONN
*I *2320:A I *D sky130_fd_sc_hd__nand3_1
*I *2311:A1 I *D sky130_fd_sc_hd__a21o_1
*I *2305:X O *D sky130_fd_sc_hd__or2_1
*CAP
1 *2320:A 0.000127415
2 *2311:A1 0
3 *2305:X 0.000245448
4 *189:12 0.000372863
5 *2320:A *2320:B 2.10034e-05
6 *2320:A *2320:C 8.65495e-05
7 *2320:A *192:15 4.05674e-06
8 *2320:A *195:6 4.99619e-05
9 *189:12 *2740:RESET_B 0
10 *189:12 *194:12 3.86607e-05
*RES
1 *2305:X *189:12 8.645 
2 *189:12 *2311:A1 1.6 
3 *189:12 *2320:A 4.15 
*END

*D_NET *190 0.00156013
*CONN
*I *2325:A2 I *D sky130_fd_sc_hd__a211o_1
*I *2324:A2_N I *D sky130_fd_sc_hd__a2bb2o_1
*I *2322:B I *D sky130_fd_sc_hd__nand3_1
*I *2308:A2 I *D sky130_fd_sc_hd__a21o_1
*I *2306:X O *D sky130_fd_sc_hd__xor2_1
*CAP
1 *2325:A2 7.34127e-05
2 *2324:A2_N 0
3 *2322:B 0
4 *2308:A2 9.01238e-05
5 *2306:X 0
6 *190:30 0.000187199
7 *190:21 0.000196058
8 *190:6 0.000172396
9 *2308:A2 *2740:RESET_B 7.70828e-05
10 *2325:A2 *2323:A2 1.01661e-05
11 *2325:A2 *2324:B1 5.83121e-06
12 *2325:A2 *191:12 2.75145e-05
13 *190:21 *2740:RESET_B 0.000162325
14 *190:30 *2325:B1 4.99619e-05
15 *190:30 *2326:B2 0
16 *190:30 *191:8 0
17 *190:30 *191:12 2.18022e-05
18 *2307:A *190:21 0
19 *2307:B *2308:A2 0
20 *2307:B *190:21 0
21 *2322:A *190:30 0.000132759
22 *2324:B2 *2325:A2 0.000141606
23 *2325:A1 *2325:A2 8.78813e-05
24 *176:6 *2308:A2 0.000124007
25 *188:16 *2308:A2 0
*RES
1 *2306:X *190:6 3.6 
2 *190:6 *2308:A2 5.61 
3 *190:6 *190:21 3.89 
4 *190:21 *2322:B 1.6 
5 *190:21 *190:30 2.19 
6 *190:30 *2324:A2_N 1.6 
7 *190:30 *2325:A2 7.94 
*END

*D_NET *191 0.00146433
*CONN
*I *2322:C I *D sky130_fd_sc_hd__nand3_1
*I *2324:B1 I *D sky130_fd_sc_hd__a2bb2o_1
*I *2308:B1 I *D sky130_fd_sc_hd__a21o_1
*I *2307:Y O *D sky130_fd_sc_hd__xnor2_1
*CAP
1 *2322:C 0
2 *2324:B1 5.10072e-05
3 *2308:B1 8.82454e-05
4 *2307:Y 0.00012137
5 *191:12 0.000311215
6 *191:8 0.000293332
7 *2308:B1 *2320:B 0
8 *2308:B1 *2323:A1 0
9 *2308:B1 *2323:A2 1.0183e-05
10 *2308:B1 *194:12 0
11 *2324:B1 *2323:A2 0.000112349
12 *2324:B1 *2326:A2 0
13 *2324:B1 *2326:B2 1.34503e-05
14 *191:12 *2323:A2 0.000197269
15 *2322:A *2324:B1 0
16 *2322:A *191:12 7.10578e-05
17 *2324:B2 *2324:B1 4.99619e-05
18 *2325:A2 *2324:B1 5.83121e-06
19 *2325:A2 *191:12 2.75145e-05
20 *176:10 *2308:B1 8.97408e-05
21 *190:30 *191:8 0
22 *190:30 *191:12 2.18022e-05
*RES
1 *2307:Y *191:8 3.1 
2 *191:8 *191:12 3.735 
3 *191:12 *2308:B1 7.49 
4 *191:12 *2324:B1 3.1 
5 *191:8 *2322:C 1.6 
*END

*D_NET *192 0.00139024
*CONN
*I *2320:B I *D sky130_fd_sc_hd__nand3_1
*I *2323:A1 I *D sky130_fd_sc_hd__a21o_1
*I *2311:A2 I *D sky130_fd_sc_hd__a21o_1
*I *2308:X O *D sky130_fd_sc_hd__a21o_1
*CAP
1 *2320:B 0.000251323
2 *2323:A1 0.000134586
3 *2311:A2 4.44225e-05
4 *2308:X 4.08925e-05
5 *192:15 0.000424414
6 *192:6 0.00012382
7 *2311:A2 *2320:C 1.37328e-05
8 *2320:B *2320:C 5.05437e-05
9 *2320:B *2327:B2 1.73877e-05
10 *2320:B *194:12 1.17114e-05
11 *2320:B *195:12 8.66107e-06
12 *2320:B *204:10 8.53113e-06
13 *2323:A1 *2323:A2 0.00018305
14 *2323:A1 *2326:B1 5.21046e-05
15 *2323:A1 *204:10 0
16 *2308:B1 *2320:B 0
17 *2308:B1 *2323:A1 0
18 *2320:A *2320:B 2.10034e-05
19 *2320:A *192:15 4.05674e-06
*RES
1 *2308:X *192:6 2.05 
2 *192:6 *2311:A2 2.47 
3 *192:6 *192:15 0.45 
4 *192:15 *2323:A1 8.51 
5 *192:15 *2320:B 9.11 
*END

*D_NET *193 0.000382458
*CONN
*I *2310:B I *D sky130_fd_sc_hd__nand2_1
*I *2309:X O *D sky130_fd_sc_hd__or2_1
*CAP
1 *2310:B 0.000123579
2 *2309:X 0.000123579
3 *2310:B *2303:A 8.8266e-05
4 *187:10 *2310:B 4.70343e-05
*RES
1 *2309:X *2310:B 9.375 
*END

*D_NET *194 0.00101575
*CONN
*I *2320:C I *D sky130_fd_sc_hd__nand3_1
*I *2311:B1 I *D sky130_fd_sc_hd__a21o_1
*I *2310:Y O *D sky130_fd_sc_hd__nand2_1
*CAP
1 *2320:C 9.67507e-05
2 *2311:B1 0
3 *2310:Y 0.000253384
4 *194:12 0.000350134
5 *2320:C *2327:B2 4.99619e-05
6 *2320:C *195:6 6.43251e-05
7 *194:12 *195:12 0
8 *2308:B1 *194:12 0
9 *2311:A2 *2320:C 1.37328e-05
10 *2320:A *2320:C 8.65495e-05
11 *2320:B *2320:C 5.05437e-05
12 *2320:B *194:12 1.17114e-05
13 *176:10 *194:12 0
14 *189:12 *194:12 3.86607e-05
*RES
1 *2310:Y *194:12 9.47 
2 *194:12 *2311:B1 1.6 
3 *194:12 *2320:C 4.6 
*END

*D_NET *195 0.00250803
*CONN
*I *2313:A2 I *D sky130_fd_sc_hd__a211o_1
*I *2318:B1 I *D sky130_fd_sc_hd__o211ai_1
*I *2321:A1 I *D sky130_fd_sc_hd__a21o_1
*I *2326:A2 I *D sky130_fd_sc_hd__a32o_1
*I *2311:X O *D sky130_fd_sc_hd__a21o_1
*CAP
1 *2313:A2 0.000143193
2 *2318:B1 0
3 *2321:A1 0
4 *2326:A2 0.00011996
5 *2311:X 0.000133266
6 *195:36 0.000397171
7 *195:12 0.000279162
8 *195:6 0.000546446
9 *2313:A2 *2318:A2 7.43407e-05
10 *2313:A2 *196:8 4.18603e-06
11 *2313:A2 *197:34 6.28765e-05
12 *2313:A2 *202:12 4.16353e-05
13 *2326:A2 *2321:A2 0.0001249
14 *2326:A2 *2326:B2 0
15 *195:6 *2327:B2 1.34503e-05
16 *195:12 *2327:B1 0
17 *195:12 *2327:B2 6.55406e-05
18 *195:12 *204:10 0
19 *195:36 *2327:B1 8.65905e-05
20 *195:36 *2327:B2 6.20088e-05
21 *195:36 *197:34 0
22 *2318:A1 *2313:A2 0.000133517
23 *2318:A1 *195:36 1.71013e-05
24 *2318:C1 *195:36 9.50342e-06
25 *2320:A *195:6 4.99619e-05
26 *2320:B *195:12 8.66107e-06
27 *2320:C *195:6 6.43251e-05
28 *2324:B1 *2326:A2 0
29 *2326:A1 *2326:A2 4.76044e-05
30 *179:12 *195:12 5.53249e-06
31 *184:10 *2313:A2 1.70935e-05
32 *194:12 *195:12 0
*RES
1 *2311:X *195:6 3.43 
2 *195:6 *195:12 6.91 
3 *195:12 *2326:A2 4.15 
4 *195:12 *2321:A1 1.6 
5 *195:6 *195:36 7.81 
6 *195:36 *2318:B1 1.6 
7 *195:36 *2313:A2 9.23 
*END

*D_NET *196 0.00131342
*CONN
*I *2318:A2 I *D sky130_fd_sc_hd__o211ai_1
*I *2313:B1 I *D sky130_fd_sc_hd__a211o_1
*I *2312:Y O *D sky130_fd_sc_hd__nor2_1
*CAP
1 *2318:A2 0.000261062
2 *2313:B1 0.000163792
3 *2312:Y 7.72838e-05
4 *196:8 0.000502139
5 *2313:B1 *2316:A2 5.22918e-05
6 *2318:A2 *197:34 7.23533e-05
7 *2318:A2 *200:12 0
8 *2318:A2 *202:12 4.40325e-06
9 *196:8 *198:27 0
10 *2313:A1 *2313:B1 2.55657e-05
11 *2313:A2 *2318:A2 7.43407e-05
12 *2313:A2 *196:8 4.18603e-06
13 *2313:C1 *2313:B1 3.70488e-05
14 *2315:A *2313:B1 0
15 *184:10 *196:8 0
16 *185:10 *196:8 3.89528e-05
*RES
1 *2312:Y *196:8 4.98 
2 *196:8 *2313:B1 6.6 
3 *196:8 *2318:A2 7.065 
*END

*D_NET *197 0.00222239
*CONN
*I *2319:A1 I *D sky130_fd_sc_hd__a21o_1
*I *2327:A2 I *D sky130_fd_sc_hd__a32o_1
*I *2315:B I *D sky130_fd_sc_hd__nand3_1
*I *2316:A2 I *D sky130_fd_sc_hd__a21o_1
*I *2313:X O *D sky130_fd_sc_hd__a211o_1
*CAP
1 *2319:A1 5.73496e-05
2 *2327:A2 4.90994e-05
3 *2315:B 0.000312171
4 *2316:A2 4.56478e-05
5 *2313:X 0
6 *197:34 0.000223493
7 *197:6 0.000375594
8 *197:4 0.00013482
9 *2315:B *2315:C 0.000287265
10 *2315:B *2316:B1 4.82863e-05
11 *2315:B *200:12 4.99619e-05
12 *2316:A2 *2316:B1 1.37328e-05
13 *2319:A1 *2319:A2 8.65961e-05
14 *2327:A2 *2319:A2 4.66108e-05
15 *197:34 *2328:B2 0.000120186
16 *197:34 *200:12 0
17 *197:34 *202:12 9.37731e-05
18 *2313:A1 *2316:A2 1.37328e-05
19 *2313:A2 *197:34 6.28765e-05
20 *2313:B1 *2316:A2 5.22918e-05
21 *2315:A *2315:B 1.34594e-05
22 *2316:A1 *2315:B 1.83756e-05
23 *2318:A2 *197:34 7.23533e-05
24 *2327:A1 *2319:A1 2.30292e-05
25 *2327:A1 *2327:A2 2.16833e-05
26 *195:36 *197:34 0
*RES
1 *2313:X *197:4 1.6 
2 *197:4 *197:6 0.36 
3 *197:6 *2316:A2 3.115 
4 *197:6 *2315:B 7.855 
5 *197:4 *197:34 7.165 
6 *197:34 *2327:A2 2.395 
7 *197:34 *2319:A1 2.74 
*END

*D_NET *198 0.00488514
*CONN
*I *2315:C I *D sky130_fd_sc_hd__nand3_1
*I *2316:B1 I *D sky130_fd_sc_hd__a21o_1
*I *2386:A I *D sky130_fd_sc_hd__xnor2_1
*I *2314:X O *D sky130_fd_sc_hd__xor2_2
*CAP
1 *2315:C 3.98998e-05
2 *2316:B1 2.37891e-05
3 *2386:A 0.00104499
4 *2314:X 0.000193623
5 *198:27 0.000479871
6 *198:8 0.0016548
7 *2386:A *2290:A 0.000122325
8 *2386:A *2302:A 0.000160635
9 *2386:A *2383:A 0.000113247
10 *2386:A *2387:B 1.47347e-05
11 *198:8 *2376:A 0.000140912
12 *198:8 *2389:A 0
13 *198:8 *2741:CLK 0
14 *198:8 *2758:RESET_B 0
15 *198:27 *2389:A 0
16 *198:27 *2741:CLK 0
17 *2315:A *2315:C 7.57202e-05
18 *2315:A *2316:B1 4.20934e-05
19 *2315:B *2315:C 0.000287265
20 *2315:B *2316:B1 4.82863e-05
21 *2316:A2 *2316:B1 1.37328e-05
22 *2381:A *2386:A 0
23 *174:8 *2386:A 0.000349592
24 *185:10 *198:27 5.20968e-05
25 *186:12 *2386:A 2.75229e-05
26 *196:8 *198:27 0
*RES
1 *2314:X *198:8 7.02 
2 *198:8 *2386:A 21.09 
3 *198:8 *198:27 8.735 
4 *198:27 *2316:B1 2.41 
5 *198:27 *2315:C 3.79 
*END

*D_NET *199 0.000745342
*CONN
*I *2317:A1 I *D sky130_fd_sc_hd__a21o_1
*I *2328:A2 I *D sky130_fd_sc_hd__a32o_1
*I *2315:Y O *D sky130_fd_sc_hd__nand3_1
*CAP
1 *2317:A1 1.72856e-05
2 *2328:A2 3.91252e-05
3 *2315:Y 7.21432e-05
4 *199:10 0.000128554
5 *2317:A1 *2317:A2 4.82919e-05
6 *2317:A1 *2329:B 2.30292e-05
7 *2328:A2 *2317:A2 8.49205e-05
8 *2328:A2 *2328:B1 2.16833e-05
9 *199:10 *200:12 6.10014e-05
10 *2328:A1 *2317:A1 9.42876e-05
11 *2328:A1 *2328:A2 0.00015502
*RES
1 *2315:Y *199:10 6.98 
2 *199:10 *2328:A2 3.1 
3 *199:10 *2317:A1 2.755 
*END

*D_NET *200 0.000652551
*CONN
*I *2317:A2 I *D sky130_fd_sc_hd__a21o_1
*I *2328:A3 I *D sky130_fd_sc_hd__a32o_1
*I *2316:X O *D sky130_fd_sc_hd__a21o_1
*CAP
1 *2317:A2 2.99532e-05
2 *2328:A3 0
3 *2316:X 0.000125107
4 *200:12 0.000155061
5 *2317:A2 *2328:B1 4.82919e-05
6 *2317:A2 *2329:B 4.99619e-05
7 *200:12 *2328:B2 0
8 *2315:B *200:12 4.99619e-05
9 *2317:A1 *2317:A2 4.82919e-05
10 *2318:A2 *200:12 0
11 *2328:A2 *2317:A2 8.49205e-05
12 *197:34 *200:12 0
13 *199:10 *200:12 6.10014e-05
*RES
1 *2316:X *200:12 7.685 
2 *200:12 *2328:A3 1.6 
3 *200:12 *2317:A2 2.74 
*END

*D_NET *201 8.68287e-05
*CONN
*I *2329:A I *D sky130_fd_sc_hd__and2_1
*I *2317:X O *D sky130_fd_sc_hd__a21o_1
*CAP
1 *2329:A 1.84334e-05
2 *2317:X 1.84334e-05
3 *177:10 *2329:A 4.99619e-05
*RES
1 *2317:X *2329:A 3.65 
*END

*D_NET *202 0.000988131
*CONN
*I *2319:A2 I *D sky130_fd_sc_hd__a21o_1
*I *2327:A3 I *D sky130_fd_sc_hd__a32o_1
*I *2318:Y O *D sky130_fd_sc_hd__o211ai_1
*CAP
1 *2319:A2 2.32275e-05
2 *2327:A3 0
3 *2318:Y 0.000258117
4 *202:12 0.000281345
5 *202:12 *2327:B1 0
6 *2313:A2 *202:12 4.16353e-05
7 *2318:A1 *202:12 2.75229e-05
8 *2318:A2 *202:12 4.40325e-06
9 *2319:A1 *2319:A2 8.65961e-05
10 *2327:A1 *2319:A2 0.0001249
11 *2327:A2 *2319:A2 4.66108e-05
12 *197:34 *202:12 9.37731e-05
*RES
1 *2318:Y *202:12 9.155 
2 *202:12 *2327:A3 1.6 
3 *202:12 *2319:A2 2.74 
*END

*D_NET *203 0.000421837
*CONN
*I *2328:B1 I *D sky130_fd_sc_hd__a32o_1
*I *2319:X O *D sky130_fd_sc_hd__a21o_1
*CAP
1 *2328:B1 0.000167839
2 *2319:X 0.000167839
3 *2328:B1 *2328:B2 0
4 *2317:A2 *2328:B1 4.82919e-05
5 *2328:A1 *2328:B1 1.61831e-05
6 *2328:A2 *2328:B1 2.16833e-05
*RES
1 *2319:X *2328:B1 9.9075 
*END

*D_NET *204 0.000511686
*CONN
*I *2321:A2 I *D sky130_fd_sc_hd__a21o_1
*I *2326:A3 I *D sky130_fd_sc_hd__a32o_1
*I *2320:Y O *D sky130_fd_sc_hd__nand3_1
*CAP
1 *2321:A2 1.86282e-05
2 *2326:A3 0
3 *2320:Y 8.77811e-05
4 *204:10 0.000106409
5 *204:10 *2327:B2 4.05358e-05
6 *2320:B *204:10 8.53113e-06
7 *2323:A1 *204:10 0
8 *2326:A1 *2321:A2 0.0001249
9 *2326:A2 *2321:A2 0.0001249
10 *195:12 *204:10 0
*RES
1 *2320:Y *204:10 7.235 
2 *204:10 *2326:A3 1.6 
3 *204:10 *2321:A2 2.74 
*END

*D_NET *205 0.000486345
*CONN
*I *2327:B1 I *D sky130_fd_sc_hd__a32o_1
*I *2321:X O *D sky130_fd_sc_hd__a21o_1
*CAP
1 *2327:B1 0.000174601
2 *2321:X 0.000174601
3 *2327:B1 *2327:B2 5.05521e-05
4 *195:12 *2327:B1 0
5 *195:36 *2327:B1 8.65905e-05
6 *202:12 *2327:B1 0
*RES
1 *2321:X *2327:B1 10.4025 
*END

*D_NET *206 0.00125537
*CONN
*I *2323:A2 I *D sky130_fd_sc_hd__a21o_1
*I *2322:Y O *D sky130_fd_sc_hd__nand3_1
*CAP
1 *2323:A2 0.000305171
2 *2322:Y 0.000305171
3 *2323:A2 *2296:A 0
4 *2323:A2 *2326:B2 9.54469e-05
5 *2308:B1 *2323:A2 1.0183e-05
6 *2323:A1 *2323:A2 0.00018305
7 *2324:B1 *2323:A2 0.000112349
8 *2324:B2 *2323:A2 3.65658e-05
9 *2325:A2 *2323:A2 1.01661e-05
10 *176:10 *2323:A2 0
11 *191:12 *2323:A2 0.000197269
*RES
1 *2322:Y *2323:A2 12.72 
*END

*D_NET *207 0.000399575
*CONN
*I *2326:B1 I *D sky130_fd_sc_hd__a32o_1
*I *2323:X O *D sky130_fd_sc_hd__a21o_1
*CAP
1 *2326:B1 0.000130437
2 *2323:X 0.000130437
3 *2323:A1 *2326:B1 5.21046e-05
4 *2324:B2 *2326:B1 1.08758e-05
5 *179:12 *2326:B1 0
6 *180:6 *2326:B1 7.57202e-05
*RES
1 *2323:X *2326:B1 9.3225 
*END

*D_NET *208 0.000365305
*CONN
*I *2325:B1 I *D sky130_fd_sc_hd__a211o_1
*I *2324:X O *D sky130_fd_sc_hd__a2bb2o_1
*CAP
1 *2325:B1 7.23635e-05
2 *2324:X 7.23635e-05
3 *2325:B1 *2740:RESET_B 5.20968e-05
4 *2325:A1 *2325:B1 0.00011852
5 *190:30 *2325:B1 4.99619e-05
*RES
1 *2324:X *2325:B1 9.03 
*END

*D_NET *209 0.000424742
*CONN
*I *2326:B2 I *D sky130_fd_sc_hd__a32o_1
*I *2325:X O *D sky130_fd_sc_hd__a211o_1
*CAP
1 *2326:B2 0.000105864
2 *2325:X 0.000105864
3 *2323:A2 *2326:B2 9.54469e-05
4 *2324:B1 *2326:B2 1.34503e-05
5 *2324:B2 *2326:B2 0.000104116
6 *2326:A2 *2326:B2 0
7 *190:30 *2326:B2 0
*RES
1 *2325:X *2326:B2 9.48 
*END

*D_NET *210 0.00067572
*CONN
*I *2327:B2 I *D sky130_fd_sc_hd__a32o_1
*I *2326:X O *D sky130_fd_sc_hd__a32o_1
*CAP
1 *2327:B2 0.000188141
2 *2326:X 0.000188141
3 *2320:B *2327:B2 1.73877e-05
4 *2320:C *2327:B2 4.99619e-05
5 *2327:B1 *2327:B2 5.05521e-05
6 *195:6 *2327:B2 1.34503e-05
7 *195:12 *2327:B2 6.55406e-05
8 *195:36 *2327:B2 6.20088e-05
9 *204:10 *2327:B2 4.05358e-05
*RES
1 *2326:X *2327:B2 11.445 
*END

*D_NET *211 0.000232567
*CONN
*I *2328:B2 I *D sky130_fd_sc_hd__a32o_1
*I *2327:X O *D sky130_fd_sc_hd__a32o_1
*CAP
1 *2328:B2 5.61903e-05
2 *2327:X 5.61903e-05
3 *2328:B1 *2328:B2 0
4 *197:34 *2328:B2 0.000120186
5 *200:12 *2328:B2 0
*RES
1 *2327:X *2328:B2 8.58 
*END

*D_NET *212 0.00065823
*CONN
*I *2329:B I *D sky130_fd_sc_hd__and2_1
*I *2328:X O *D sky130_fd_sc_hd__a32o_1
*CAP
1 *2329:B 0.00018018
2 *2328:X 0.00018018
3 *2317:A1 *2329:B 2.30292e-05
4 *2317:A2 *2329:B 4.99619e-05
5 *2328:A1 *2329:B 2.7441e-05
6 *177:10 *2329:B 0.000197438
*RES
1 *2328:X *2329:B 6.77 
*END

*D_NET *213 0.0027547
*CONN
*I *2334:B I *D sky130_fd_sc_hd__xor2_2
*I *2331:B I *D sky130_fd_sc_hd__or2_1
*I *2332:B I *D sky130_fd_sc_hd__nand2_1
*I *2330:Y O *D sky130_fd_sc_hd__xnor2_2
*CAP
1 *2334:B 0
2 *2331:B 6.95994e-05
3 *2332:B 2.08101e-05
4 *2330:Y 0.000457331
5 *213:16 0.000362255
6 *213:10 0.000729176
7 *2331:B *2331:A 4.99619e-05
8 *213:10 *2330:A 8.65961e-05
9 *213:10 *2336:A 0
10 *213:10 *2346:A 6.90876e-05
11 *213:10 *2735:D 1.94805e-05
12 *213:10 *217:8 3.25831e-05
13 *213:10 *229:6 0.00023468
14 *213:10 *668:55 0
15 *213:10 *708:25 1.12578e-05
16 *213:10 *708:34 0.000347029
17 *213:10 *708:42 3.09233e-05
18 *213:16 *2336:A 0
19 *213:16 *217:8 0.000233925
*RES
1 *2330:Y *213:10 13.32 
2 *213:10 *213:16 6.83 
3 *213:16 *2332:B 1.96 
4 *213:16 *2331:B 2.74 
5 *213:10 *2334:B 2 
*END

*D_NET *214 0.00103035
*CONN
*I *2348:A1 I *D sky130_fd_sc_hd__a21o_1
*I *2347:A I *D sky130_fd_sc_hd__nand3_1
*I *2333:A I *D sky130_fd_sc_hd__and2_1
*I *2331:X O *D sky130_fd_sc_hd__or2_1
*CAP
1 *2348:A1 0.000195224
2 *2347:A 0
3 *2333:A 0.000122724
4 *2331:X 3.07456e-05
5 *214:8 0.000171085
6 *214:6 0.000274331
7 *2333:A *2333:B 0
8 *2333:A *2347:C 0
9 *2333:A *227:42 7.65526e-05
10 *2333:A *668:55 0
11 *2348:A1 *2348:A2 2.50679e-05
12 *2348:A1 *2348:B1 1.91597e-05
13 *2348:A1 *2730:SET_B 0
14 *2348:A1 *228:10 1.1561e-05
15 *2348:A1 *669:14 9.65788e-05
16 *2348:A1 *673:16 1.90931e-06
17 *214:8 *2348:A2 5.4155e-06
18 *214:8 *2348:B1 0
*RES
1 *2331:X *214:6 2.05 
2 *214:6 *214:8 0.87 
3 *214:8 *2333:A 7.94 
4 *214:8 *2347:A 1.6 
5 *214:6 *2348:A1 8.3 
*END

*D_NET *215 0.000423845
*CONN
*I *2333:B I *D sky130_fd_sc_hd__and2_1
*I *2332:Y O *D sky130_fd_sc_hd__nand2_1
*CAP
1 *2333:B 0.000111847
2 *2332:Y 0.000111847
3 *2333:B *2736:RESET_B 7.35813e-05
4 *2333:B *668:16 0.00012657
5 *2333:B *668:55 0
6 *2333:A *2333:B 0
*RES
1 *2332:Y *2333:B 9.72 
*END

*D_NET *216 0.0014618
*CONN
*I *2344:B1 I *D sky130_fd_sc_hd__o21ai_2
*I *2351:A I *D sky130_fd_sc_hd__or3_1
*I *2333:X O *D sky130_fd_sc_hd__and2_1
*CAP
1 *2344:B1 0.000130087
2 *2351:A 0.000142273
3 *2333:X 0.000205733
4 *216:8 0.000478093
5 *2344:B1 *2344:A1 3.83194e-05
6 *2344:B1 *2344:A2 0.0001249
7 *2344:B1 *218:6 2.49909e-05
8 *2351:A *2342:A 2.75229e-05
9 *2351:A *2342:B 0
10 *2351:A *2344:A2 1.73877e-05
11 *2351:A *2351:C 4.99619e-05
12 *2351:A *2363:A2 3.12325e-05
13 *2351:A *217:14 0
14 *2351:A *218:12 0.000116853
15 *216:8 *2363:A2 7.44453e-05
16 *216:8 *217:14 0
17 *216:8 *227:42 0
18 *216:8 *668:10 0
*RES
1 *2333:X *216:8 6.765 
2 *216:8 *2351:A 6.795 
3 *216:8 *2344:B1 5.775 
*END

*D_NET *217 0.00202313
*CONN
*I *2336:B I *D sky130_fd_sc_hd__xnor2_2
*I *2341:B I *D sky130_fd_sc_hd__and2_1
*I *2335:B I *D sky130_fd_sc_hd__nor2_1
*I *2334:X O *D sky130_fd_sc_hd__xor2_2
*CAP
1 *2336:B 3.89094e-05
2 *2341:B 0.00012295
3 *2335:B 0
4 *2334:X 0.000142071
5 *217:14 0.000402302
6 *217:8 0.000460332
7 *2336:B *2736:RESET_B 0.000119631
8 *2336:B *668:20 0.000119631
9 *2341:B *2335:A 9.09329e-05
10 *2341:B *2342:B 9.27255e-06
11 *2341:B *218:6 2.30292e-05
12 *217:8 *2336:A 0
13 *217:8 *668:55 0.000157241
14 *217:14 *2336:A 0
15 *217:14 *218:6 4.99619e-05
16 *217:14 *668:55 2.03578e-05
17 *2351:A *217:14 0
18 *213:10 *217:8 3.25831e-05
19 *213:16 *217:8 0.000233925
20 *216:8 *217:14 0
*RES
1 *2334:X *217:8 8.04 
2 *217:8 *217:14 6.635 
3 *217:14 *2335:B 1.6 
4 *217:14 *2341:B 4.15 
5 *217:8 *2336:B 5.43 
*END

*D_NET *218 0.00197064
*CONN
*I *2344:A1 I *D sky130_fd_sc_hd__o21ai_2
*I *2351:B I *D sky130_fd_sc_hd__or3_1
*I *2342:A I *D sky130_fd_sc_hd__or2_1
*I *2335:Y O *D sky130_fd_sc_hd__nor2_1
*CAP
1 *2344:A1 0.000124603
2 *2351:B 0
3 *2342:A 0.000249385
4 *2335:Y 0.000233028
5 *218:12 0.000282908
6 *218:6 0.000391155
7 *2342:A *225:12 6.55712e-05
8 *2342:A *234:8 0
9 *2344:A1 *2344:A2 0.000198945
10 *218:6 *2342:B 2.75145e-05
11 *218:12 *2363:A2 0.000116853
12 *2341:B *218:6 2.30292e-05
13 *2344:B1 *2344:A1 3.83194e-05
14 *2344:B1 *218:6 2.49909e-05
15 *2351:A *2342:A 2.75229e-05
16 *2351:A *218:12 0.000116853
17 *217:14 *218:6 4.99619e-05
*RES
1 *2335:Y *218:6 5.5 
2 *218:6 *218:12 5.38 
3 *218:12 *2342:A 5.44 
4 *218:12 *2351:B 1.6 
5 *218:6 *2344:A1 4.12 
*END

*D_NET *219 0.00214187
*CONN
*I *2338:B I *D sky130_fd_sc_hd__xnor2_1
*I *2337:B I *D sky130_fd_sc_hd__and2b_1
*I *2339:B I *D sky130_fd_sc_hd__xor2_1
*I *2336:Y O *D sky130_fd_sc_hd__xnor2_2
*CAP
1 *2338:B 0
2 *2337:B 0.000211954
3 *2339:B 0
4 *2336:Y 0.000315908
5 *219:14 0.000373959
6 *219:8 0.000477913
7 *2337:B *2337:A_N 8.82557e-05
8 *2337:B *222:12 8.65905e-05
9 *2337:B *642:137 2.30292e-05
10 *219:8 *2338:A 0.000284826
11 *219:8 *640:55 0.000191166
12 *219:14 *221:14 0
13 *219:14 *642:137 8.8266e-05
*RES
1 *2336:Y *219:8 11.865 
2 *219:8 *219:14 4.685 
3 *219:14 *2339:B 1.6 
4 *219:14 *2337:B 5.17 
5 *219:8 *2338:B 3.6 
*END

*D_NET *220 0.000923767
*CONN
*I *2343:A1 I *D sky130_fd_sc_hd__o21ba_1
*I *2353:A I *D sky130_fd_sc_hd__nor3b_1
*I *2337:X O *D sky130_fd_sc_hd__and2b_1
*CAP
1 *2343:A1 0
2 *2353:A 0.000232868
3 *2337:X 9.11029e-05
4 *220:8 0.000323971
5 *2353:A *2353:B 1.61831e-05
6 *2353:A *2353:C_N 0.000162311
7 *2353:A *2355:B1 0
8 *2353:A *223:14 4.82919e-05
9 *2353:A *223:23 4.90396e-05
10 *220:8 *223:23 0
*RES
1 *2337:X *220:8 3.1 
2 *220:8 *2353:A 5.875 
3 *220:8 *2343:A1 1.6 
*END

*D_NET *221 0.00223153
*CONN
*I *2340:A2 I *D sky130_fd_sc_hd__a21oi_1
*I *2359:B I *D sky130_fd_sc_hd__xor2_1
*I *2356:B I *D sky130_fd_sc_hd__and3_1
*I *2338:Y O *D sky130_fd_sc_hd__xnor2_1
*CAP
1 *2340:A2 0
2 *2359:B 2.28335e-05
3 *2356:B 0.000301203
4 *2338:Y 0.000342836
5 *221:18 0.00038673
6 *221:14 0.000405528
7 *2356:B *2360:A3 2.30292e-05
8 *2356:B *223:14 0.000356395
9 *2359:B *2340:B1 4.99619e-05
10 *2359:B *2356:C 1.61831e-05
11 *2359:B *223:14 8.8266e-05
12 *221:14 *3032:A 0.000163199
13 *221:14 *222:12 5.4256e-05
14 *221:14 *648:20 0
15 *221:18 *2340:A1 2.11084e-05
16 *219:14 *221:14 0
*RES
1 *2338:Y *221:14 10.955 
2 *221:14 *221:18 1.155 
3 *221:18 *2356:B 6.115 
4 *221:18 *2359:B 2.74 
5 *221:14 *2340:A2 1.6 
*END

*D_NET *222 0.00125688
*CONN
*I *2356:C I *D sky130_fd_sc_hd__and3_1
*I *2340:B1 I *D sky130_fd_sc_hd__a21oi_1
*I *2339:X O *D sky130_fd_sc_hd__xor2_1
*CAP
1 *2356:C 0.000246721
2 *2340:B1 5.24062e-05
3 *2339:X 8.23338e-05
4 *222:12 0.000381461
5 *2340:B1 *2356:A 0
6 *2356:C *2356:A 0.00011964
7 *2356:C *2360:A3 3.09995e-05
8 *2356:C *223:14 9.27255e-06
9 *222:12 *2337:A_N 4.99619e-05
10 *222:12 *648:20 7.70938e-05
11 *2337:B *222:12 8.65905e-05
12 *2359:B *2340:B1 4.99619e-05
13 *2359:B *2356:C 1.61831e-05
14 *221:14 *222:12 5.4256e-05
*RES
1 *2339:X *222:12 8.03 
2 *222:12 *2340:B1 2.665 
3 *222:12 *2356:C 4.87 
*END

*D_NET *223 0.00259368
*CONN
*I *2353:B I *D sky130_fd_sc_hd__nor3b_1
*I *2358:A1 I *D sky130_fd_sc_hd__o21a_1
*I *2357:B I *D sky130_fd_sc_hd__or3_1
*I *2343:A2 I *D sky130_fd_sc_hd__o21ba_1
*I *2340:Y O *D sky130_fd_sc_hd__a21oi_1
*CAP
1 *2353:B 6.9558e-05
2 *2358:A1 0
3 *2357:B 0.000188026
4 *2343:A2 0
5 *2340:Y 0.000217634
6 *223:27 0.000298226
7 *223:23 0.000300291
8 *223:14 0.000338168
9 *2353:B *2353:C_N 6.77501e-05
10 *2353:B *226:6 0.00012657
11 *2353:B *226:36 4.37196e-05
12 *2357:B *2357:A 0
13 *2357:B *2357:C 0.000106928
14 *2357:B *2360:B1 0
15 *2357:B *678:12 1.33293e-05
16 *223:14 *2356:A 9.21168e-05
17 *223:14 *2360:A3 8.65905e-05
18 *223:14 *648:20 0
19 *223:23 *2353:C_N 2.49909e-05
20 *223:27 *2360:B1 0
21 *223:27 *225:12 5.23362e-05
22 *2353:A *2353:B 1.61831e-05
23 *2353:A *223:14 4.82919e-05
24 *2353:A *223:23 4.90396e-05
25 *2356:B *223:14 0.000356395
26 *2356:C *223:14 9.27255e-06
27 *2359:B *223:14 8.8266e-05
28 *220:8 *223:23 0
*RES
1 *2340:Y *223:14 11.66 
2 *223:14 *2343:A2 1.6 
3 *223:14 *223:23 2.1 
4 *223:23 *223:27 4.4 
5 *223:27 *2357:B 6.375 
6 *223:27 *2358:A1 3.6 
7 *223:23 *2353:B 3.79 
*END

*D_NET *224 0.000443203
*CONN
*I *2342:B I *D sky130_fd_sc_hd__or2_1
*I *2341:X O *D sky130_fd_sc_hd__and2_1
*CAP
1 *2342:B 0.000188189
2 *2341:X 0.000188189
3 *2342:B *2335:A 3.00381e-05
4 *2341:B *2342:B 9.27255e-06
5 *2351:A *2342:B 0
6 *218:6 *2342:B 2.75145e-05
*RES
1 *2341:X *2342:B 9.975 
*END

*D_NET *225 0.00107782
*CONN
*I *2353:C_N I *D sky130_fd_sc_hd__nor3b_1
*I *2343:B1_N I *D sky130_fd_sc_hd__o21ba_1
*I *2342:X O *D sky130_fd_sc_hd__or2_1
*CAP
1 *2353:C_N 3.31676e-05
2 *2343:B1_N 0
3 *2342:X 0.000319264
4 *225:12 0.000352431
5 *225:12 *226:10 0
6 *225:12 *648:20 0
7 *2342:A *225:12 6.55712e-05
8 *2353:A *2353:C_N 0.000162311
9 *2353:B *2353:C_N 6.77501e-05
10 *223:23 *2353:C_N 2.49909e-05
11 *223:27 *225:12 5.23362e-05
*RES
1 *2342:X *225:12 10.415 
2 *225:12 *2343:B1_N 1.6 
3 *225:12 *2353:C_N 3.085 
*END

*D_NET *226 0.00292131
*CONN
*I *2354:B I *D sky130_fd_sc_hd__or3_1
*I *2355:A1 I *D sky130_fd_sc_hd__o21a_1
*I *2344:A2 I *D sky130_fd_sc_hd__o21ai_2
*I *2351:C I *D sky130_fd_sc_hd__or3_1
*I *2343:X O *D sky130_fd_sc_hd__o21ba_1
*CAP
1 *2354:B 7.18528e-05
2 *2355:A1 5.323e-05
3 *2344:A2 0.000213561
4 *2351:C 3.92875e-05
5 *2343:X 7.91278e-05
6 *226:36 0.000307242
7 *226:10 0.000470514
8 *226:6 0.000478953
9 *2344:A2 *2362:A2 0
10 *2344:A2 *2363:A2 0.000139245
11 *2344:A2 *227:8 0
12 *2351:C *2363:A2 1.34503e-05
13 *2354:B *2354:C 8.57024e-05
14 *2354:B *236:6 3.74161e-05
15 *2354:B *627:8 9.53428e-06
16 *2355:A1 *2354:C 3.66286e-05
17 *2355:A1 *2355:B1 8.65905e-05
18 *2355:A1 *2361:A2 2.59981e-05
19 *2355:A1 *236:6 4.82919e-05
20 *226:10 *2361:A1 0
21 *226:10 *2362:A2 0
22 *226:10 *2362:B2 0
23 *226:36 *236:6 0.000163199
24 *2344:A1 *2344:A2 0.000198945
25 *2344:B1 *2344:A2 0.0001249
26 *2351:A *2344:A2 1.73877e-05
27 *2351:A *2351:C 4.99619e-05
28 *2353:B *226:6 0.00012657
29 *2353:B *226:36 4.37196e-05
30 *225:12 *226:10 0
*RES
1 *2343:X *226:6 2.74 
2 *226:6 *226:10 5.42 
3 *226:10 *2351:C 4.395 
4 *226:10 *2344:A2 8.52 
5 *226:6 *226:36 2.985 
6 *226:36 *2355:A1 7.01 
7 *226:36 *2354:B 3.1 
*END

*D_NET *227 0.00240781
*CONN
*I *2348:A2 I *D sky130_fd_sc_hd__a21o_1
*I *2347:B I *D sky130_fd_sc_hd__nand3_1
*I *2352:A1 I *D sky130_fd_sc_hd__a21o_1
*I *2362:A2 I *D sky130_fd_sc_hd__a32o_1
*I *2344:Y O *D sky130_fd_sc_hd__o21ai_2
*CAP
1 *2348:A2 6.56877e-05
2 *2347:B 0
3 *2352:A1 0.00018656
4 *2362:A2 0.000101819
5 *2344:Y 0
6 *227:42 0.000326205
7 *227:8 0.000426744
8 *227:6 0.000398882
9 *2348:A2 *2348:B1 4.66108e-05
10 *2348:A2 *230:14 5.51926e-05
11 *2352:A1 *2352:A2 4.93614e-05
12 *2352:A1 *2362:B1 2.30292e-05
13 *2352:A1 *2362:B2 0.000163204
14 *2352:A1 *234:8 2.75229e-05
15 *2362:A2 *2352:A2 3.66286e-05
16 *2362:A2 *2362:B2 2.7881e-05
17 *2362:A2 *234:8 4.82919e-05
18 *227:8 *2363:A2 0
19 *227:42 *2347:C 4.43871e-06
20 *227:42 *2363:A2 0
21 *227:42 *668:10 0.000139238
22 *227:42 *669:14 0.000173478
23 *2333:A *227:42 7.65526e-05
24 *2344:A2 *2362:A2 0
25 *2344:A2 *227:8 0
26 *2348:A1 *2348:A2 2.50679e-05
27 *2362:A1 *2352:A1 0
28 *214:8 *2348:A2 5.4155e-06
29 *216:8 *227:42 0
30 *226:10 *2362:A2 0
*RES
1 *2344:Y *227:6 3.6 
2 *227:6 *227:8 2.145 
3 *227:8 *2362:A2 5.265 
4 *227:8 *2352:A1 7.29 
5 *227:6 *227:42 8.015 
6 *227:42 *2347:B 1.6 
7 *227:42 *2348:A2 3.205 
*END

*D_NET *228 0.001124
*CONN
*I *2348:B1 I *D sky130_fd_sc_hd__a21o_1
*I *2347:C I *D sky130_fd_sc_hd__nand3_1
*I *2345:X O *D sky130_fd_sc_hd__xor2_1
*CAP
1 *2348:B1 5.96634e-05
2 *2347:C 3.08824e-05
3 *2345:X 0.000289514
4 *228:10 0.00038006
5 *2347:C *637:174 0
6 *2347:C *669:14 5.16348e-05
7 *2348:B1 *230:14 5.60307e-05
8 *2348:B1 *669:14 0.000122331
9 *228:10 *2345:A 1.26548e-05
10 *228:10 *2345:B 8.53113e-06
11 *228:10 *637:174 0
12 *228:10 *669:14 3.09233e-05
13 *228:10 *673:16 0
14 *2333:A *2347:C 0
15 *2348:A1 *2348:B1 1.91597e-05
16 *2348:A1 *228:10 1.1561e-05
17 *2348:A2 *2348:B1 4.66108e-05
18 *214:8 *2348:B1 0
19 *227:42 *2347:C 4.43871e-06
*RES
1 *2345:X *228:10 8.58 
2 *228:10 *2347:C 4.215 
3 *228:10 *2348:B1 5.445 
*END

*D_NET *229 0.00144148
*CONN
*I *2407:B2 I *D sky130_fd_sc_hd__o221a_1
*I *2406:A1 I *D sky130_fd_sc_hd__a21oi_1
*I *2346:Y O *D sky130_fd_sc_hd__xnor2_1
*CAP
1 *2407:B2 4.28774e-05
2 *2406:A1 9.16617e-05
3 *2346:Y 0.000271073
4 *229:6 0.000405612
5 *2406:A1 *668:79 0.000119762
6 *2407:B2 *273:10 9.50342e-06
7 *2407:B2 *273:14 0.000116165
8 *2407:B2 *668:79 3.86607e-05
9 *2407:B2 *708:42 1.73877e-05
10 *229:6 *668:79 7.49327e-05
11 *229:6 *708:34 1.91597e-05
12 *213:10 *229:6 0.00023468
*RES
1 *2346:Y *229:6 5.155 
2 *229:6 *2406:A1 2.74 
3 *229:6 *2407:B2 6.98 
*END

*D_NET *230 0.00179635
*CONN
*I *2349:B I *D sky130_fd_sc_hd__and3b_1
*I *2350:A1 I *D sky130_fd_sc_hd__a21bo_1
*I *2347:Y O *D sky130_fd_sc_hd__nand3_1
*CAP
1 *2349:B 0.000188728
2 *2350:A1 3.5856e-05
3 *2347:Y 0.000298853
4 *230:14 0.000523437
5 *2349:B *2350:B1_N 2.96334e-05
6 *2349:B *2363:B1 0.00011964
7 *2350:A1 *231:12 7.63883e-05
8 *2350:A1 *678:10 0
9 *230:14 *2730:SET_B 0.000112123
10 *230:14 *231:12 0.000287022
11 *230:14 *669:14 1.34503e-05
12 *230:14 *678:10 0
13 *2348:A2 *230:14 5.51926e-05
14 *2348:B1 *230:14 5.60307e-05
*RES
1 *2347:Y *230:14 9.405 
2 *230:14 *2350:A1 4.47 
3 *230:14 *2349:B 6.12 
*END

*D_NET *231 0.00145371
*CONN
*I *2350:A2 I *D sky130_fd_sc_hd__a21bo_1
*I *2349:C I *D sky130_fd_sc_hd__and3b_1
*I *2348:X O *D sky130_fd_sc_hd__a21o_1
*CAP
1 *2350:A2 0
2 *2349:C 0.00016908
3 *2348:X 0.000181592
4 *231:12 0.000350672
5 *2349:C *2350:B1_N 0.000124895
6 *2349:C *2363:B1 0.000115146
7 *2349:C *669:28 0
8 *231:12 *2730:D 6.55328e-05
9 *231:12 *669:14 8.33871e-05
10 *2350:A1 *231:12 7.63883e-05
11 *230:14 *231:12 0.000287022
*RES
1 *2348:X *231:12 10.07 
2 *231:12 *2349:C 4.825 
3 *231:12 *2350:A2 1.6 
*END

*D_NET *232 0.00148652
*CONN
*I *2363:B1 I *D sky130_fd_sc_hd__a21oi_1
*I *2349:X O *D sky130_fd_sc_hd__and3b_1
*CAP
1 *2363:B1 0.000264707
2 *2349:X 0.000264707
3 *2363:B1 *2350:B1_N 4.99619e-05
4 *2363:B1 *2363:A1 0.000362926
5 *2363:B1 *2730:D 0.000114433
6 *2363:B1 *669:28 0.000195
7 *2349:B *2363:B1 0.00011964
8 *2349:C *2363:B1 0.000115146
*RES
1 *2349:X *2363:B1 11.63 
*END

*D_NET *233 0.000621916
*CONN
*I *2363:A1 I *D sky130_fd_sc_hd__a21oi_1
*I *2350:X O *D sky130_fd_sc_hd__a21bo_1
*CAP
1 *2363:A1 5.44906e-05
2 *2350:X 5.44906e-05
3 *2363:A1 *669:14 4.82863e-05
4 *2363:A1 *669:28 0.000101723
5 *2363:B1 *2363:A1 0.000362926
*RES
1 *2350:X *2363:A1 5.72 
*END

*D_NET *234 0.000744583
*CONN
*I *2352:A2 I *D sky130_fd_sc_hd__a21o_1
*I *2362:A3 I *D sky130_fd_sc_hd__a32o_1
*I *2351:X O *D sky130_fd_sc_hd__or3_1
*CAP
1 *2352:A2 4.3462e-05
2 *2362:A3 0
3 *2351:X 8.47896e-05
4 *234:8 0.000128252
5 *2352:A2 *2362:B1 0.000107418
6 *2352:A2 *2362:B2 0.000163204
7 *234:8 *2363:A2 2.11084e-05
8 *2342:A *234:8 0
9 *2352:A1 *2352:A2 4.93614e-05
10 *2352:A1 *234:8 2.75229e-05
11 *2362:A1 *2352:A2 3.45438e-05
12 *2362:A2 *2352:A2 3.66286e-05
13 *2362:A2 *234:8 4.82919e-05
*RES
1 *2351:X *234:8 3.355 
2 *234:8 *2362:A3 1.6 
3 *234:8 *2352:A2 3.775 
*END

*D_NET *235 0.000620521
*CONN
*I *2362:B1 I *D sky130_fd_sc_hd__a32o_1
*I *2352:X O *D sky130_fd_sc_hd__a21o_1
*CAP
1 *2362:B1 5.31102e-05
2 *2352:X 5.31102e-05
3 *2352:A1 *2362:B1 2.30292e-05
4 *2352:A2 *2362:B1 0.000107418
5 *2352:B1 *2362:B1 8.65905e-05
6 *2362:A1 *2362:B1 0.000297263
*RES
1 *2352:X *2362:B1 5.8925 
*END

*D_NET *236 0.00062031
*CONN
*I *2354:C I *D sky130_fd_sc_hd__or3_1
*I *2355:A2 I *D sky130_fd_sc_hd__o21a_1
*I *2353:Y O *D sky130_fd_sc_hd__nor3b_1
*CAP
1 *2354:C 3.00684e-05
2 *2355:A2 0
3 *2353:Y 5.57629e-05
4 *236:6 8.58313e-05
5 *2354:C *2355:B1 5.43807e-05
6 *236:6 *2355:B1 2.30292e-05
7 *2354:B *2354:C 8.57024e-05
8 *2354:B *236:6 3.74161e-05
9 *2355:A1 *2354:C 3.66286e-05
10 *2355:A1 *236:6 4.82919e-05
11 *226:36 *236:6 0.000163199
*RES
1 *2353:Y *236:6 3.43 
2 *236:6 *2355:A2 1.6 
3 *236:6 *2354:C 2.755 
*END

*D_NET *237 0.000739467
*CONN
*I *2361:B1 I *D sky130_fd_sc_hd__o21ai_1
*I *2354:X O *D sky130_fd_sc_hd__or3_1
*CAP
1 *2361:B1 0.000186968
2 *2354:X 0.000186968
3 *2361:B1 *2361:A1 0
4 *2361:B1 *2361:A2 0
5 *2361:B1 *3032:A 0.000331634
6 *2361:B1 *678:10 3.38982e-05
*RES
1 *2354:X *2361:B1 11.445 
*END

*D_NET *238 0.000302049
*CONN
*I *2361:A1 I *D sky130_fd_sc_hd__o21ai_1
*I *2355:X O *D sky130_fd_sc_hd__o21a_1
*CAP
1 *2361:A1 0.000137267
2 *2355:X 0.000137267
3 *2361:A1 *2361:A2 0
4 *2361:A1 *3032:A 2.75145e-05
5 *2361:B1 *2361:A1 0
6 *226:10 *2361:A1 0
*RES
1 *2355:X *2361:A1 9.285 
*END

*D_NET *239 0.000663897
*CONN
*I *2358:A2 I *D sky130_fd_sc_hd__o21a_1
*I *2357:C I *D sky130_fd_sc_hd__or3_1
*I *2356:X O *D sky130_fd_sc_hd__and3_1
*CAP
1 *2358:A2 0
2 *2357:C 8.80253e-05
3 *2356:X 8.76972e-05
4 *239:8 0.000175723
5 *2357:C *2357:A 4.61658e-05
6 *2357:C *678:12 8.8266e-05
7 *239:8 *2358:B1 4.00541e-06
8 *239:8 *2360:A3 6.70865e-05
9 *2357:B *2357:C 0.000106928
*RES
1 *2356:X *239:8 3.1 
2 *239:8 *2357:C 8.03 
3 *239:8 *2358:A2 1.6 
*END

*D_NET *240 0.000311448
*CONN
*I *2360:B1 I *D sky130_fd_sc_hd__o31a_1
*I *2357:X O *D sky130_fd_sc_hd__or3_1
*CAP
1 *2360:B1 0.000147031
2 *2357:X 0.000147031
3 *2360:B1 *2357:A 0
4 *2360:B1 *678:12 1.7386e-05
5 *2357:B *2360:B1 0
6 *223:27 *2360:B1 0
*RES
1 *2357:X *2360:B1 9.285 
*END

*D_NET *241 0.000383055
*CONN
*I *2360:A2 I *D sky130_fd_sc_hd__o31a_1
*I *2358:X O *D sky130_fd_sc_hd__o21a_1
*CAP
1 *2360:A2 4.3588e-05
2 *2358:X 4.3588e-05
3 *2360:A2 *2360:A3 9.52646e-05
4 *2360:A2 *606:6 0.000200615
*RES
1 *2358:X *2360:A2 5.03 
*END

*D_NET *242 0.00110601
*CONN
*I *2360:A3 I *D sky130_fd_sc_hd__o31a_1
*I *2359:X O *D sky130_fd_sc_hd__xor2_1
*CAP
1 *2360:A3 0.000346655
2 *2359:X 0.000346655
3 *2360:A3 *2356:A 4.99619e-05
4 *2360:A3 *2358:B1 4.99619e-05
5 *2360:A3 *606:6 9.80943e-06
6 *2356:B *2360:A3 2.30292e-05
7 *2356:C *2360:A3 3.09995e-05
8 *2360:A2 *2360:A3 9.52646e-05
9 *223:14 *2360:A3 8.65905e-05
10 *239:8 *2360:A3 6.70865e-05
*RES
1 *2359:X *2360:A3 9.905 
*END

*D_NET *243 0.000938537
*CONN
*I *2361:A2 I *D sky130_fd_sc_hd__o21ai_1
*I *2360:X O *D sky130_fd_sc_hd__o31a_1
*CAP
1 *2361:A2 0.000356353
2 *2360:X 0.000356353
3 *2361:A2 *3032:A 0.000199833
4 *2361:A2 *678:10 0
5 *2355:A1 *2361:A2 2.59981e-05
6 *2361:A1 *2361:A2 0
7 *2361:B1 *2361:A2 0
*RES
1 *2360:X *2361:A2 11.94 
*END

*D_NET *244 0.000652067
*CONN
*I *2362:B2 I *D sky130_fd_sc_hd__a32o_1
*I *2361:Y O *D sky130_fd_sc_hd__o21ai_1
*CAP
1 *2362:B2 0.000148889
2 *2361:Y 0.000148889
3 *2362:B2 *3032:A 0
4 *2352:A1 *2362:B2 0.000163204
5 *2352:A2 *2362:B2 0.000163204
6 *2362:A2 *2362:B2 2.7881e-05
7 *226:10 *2362:B2 0
*RES
1 *2361:Y *2362:B2 10.575 
*END

*D_NET *245 0.000924954
*CONN
*I *2363:A2 I *D sky130_fd_sc_hd__a21oi_1
*I *2362:X O *D sky130_fd_sc_hd__a32o_1
*CAP
1 *2363:A2 0.00026431
2 *2362:X 0.00026431
3 *2344:A2 *2363:A2 0.000139245
4 *2351:A *2363:A2 3.12325e-05
5 *2351:C *2363:A2 1.34503e-05
6 *216:8 *2363:A2 7.44453e-05
7 *218:12 *2363:A2 0.000116853
8 *227:8 *2363:A2 0
9 *227:42 *2363:A2 0
10 *234:8 *2363:A2 2.11084e-05
*RES
1 *2362:X *2363:A2 12.105 
*END

*D_NET *246 0.00417844
*CONN
*I *2488:C_N I *D sky130_fd_sc_hd__or3b_4
*I *2468:C_N I *D sky130_fd_sc_hd__or3b_4
*I *2368:C I *D sky130_fd_sc_hd__and3_2
*I *2366:B I *D sky130_fd_sc_hd__and2_1
*I *2365:B I *D sky130_fd_sc_hd__nor2_1
*I *2364:X O *D sky130_fd_sc_hd__and2b_1
*CAP
1 *2488:C_N 0
2 *2468:C_N 1.57664e-05
3 *2368:C 0.000194182
4 *2366:B 0.000218533
5 *2365:B 9.05129e-05
6 *2364:X 0.000131223
7 *246:61 0.000434072
8 *246:40 0.00074244
9 *246:23 0.000595993
10 *246:8 0.000469243
11 *2365:B *247:12 0.00012657
12 *2365:B *677:31 7.35813e-05
13 *2366:B *2367:A 6.38806e-05
14 *2366:B *2367:B 1.85674e-05
15 *2366:B *2740:CLK 9.77941e-05
16 *2366:B *248:19 8.40213e-05
17 *2368:C *2379:B 7.18452e-06
18 *2368:C *2382:B 2.78732e-05
19 *2368:C *250:10 2.97004e-06
20 *2368:C *730:29 9.0283e-05
21 *2368:C *744:12 4.04834e-05
22 *2468:C_N *2468:B 4.99619e-05
23 *246:8 *2740:D 0
24 *246:23 *2740:D 0.000115474
25 *246:40 *2367:A 7.36484e-05
26 *246:40 *2382:B 5.84378e-05
27 *246:61 *2468:B 7.59904e-05
28 *246:61 *250:10 0.000158965
29 *246:61 *730:19 9.96764e-05
30 *175:16 *2368:C 2.11084e-05
*RES
1 *2364:X *246:8 5.745 
2 *246:8 *2365:B 6.12 
3 *246:8 *246:23 5.21 
4 *246:23 *2366:B 5.29 
5 *246:23 *246:40 4.91 
6 *246:40 *2368:C 7.26 
7 *246:40 *246:61 7.55 
8 *246:61 *2468:C_N 2.05 
9 *246:61 *2488:C_N 1.6 
*END

*D_NET *247 0.00227093
*CONN
*I *2367:A I *D sky130_fd_sc_hd__nor2_1
*I *2382:B I *D sky130_fd_sc_hd__xnor2_1
*I *2365:Y O *D sky130_fd_sc_hd__nor2_1
*CAP
1 *2367:A 0.000328389
2 *2382:B 7.36909e-05
3 *2365:Y 0.000145979
4 *247:12 0.000548059
5 *2367:A *2367:B 5.39673e-05
6 *2367:A *2740:CLK 0.000169472
7 *2367:A *248:19 2.7441e-05
8 *2367:A *350:71 1.73877e-05
9 *2382:B *250:10 1.52184e-05
10 *2382:B *350:71 4.71081e-05
11 *247:12 *2365:A 1.85674e-05
12 *247:12 *2742:RESET_B 2.45989e-05
13 *247:12 *677:31 0.0001411
14 *247:12 *729:8 0.000279498
15 *247:12 *729:48 3.00381e-05
16 *2365:B *247:12 0.00012657
17 *2366:B *2367:A 6.38806e-05
18 *2368:C *2382:B 2.78732e-05
19 *246:40 *2367:A 7.36484e-05
20 *246:40 *2382:B 5.84378e-05
*RES
1 *2365:Y *247:12 9 
2 *247:12 *2382:B 5.49 
3 *247:12 *2367:A 10.26 
*END

*D_NET *248 0.00244877
*CONN
*I *2369:B I *D sky130_fd_sc_hd__nor2_1
*I *2478:B I *D sky130_fd_sc_hd__nand2_4
*I *2367:B I *D sky130_fd_sc_hd__nor2_1
*I *2366:X O *D sky130_fd_sc_hd__and2_1
*CAP
1 *2369:B 0.000232449
2 *2478:B 3.66377e-05
3 *2367:B 4.20345e-05
4 *2366:X 0
5 *248:19 0.000487677
6 *248:4 0.000260625
7 *2369:B *2369:A 0.0001167
8 *2369:B *730:19 5.74791e-05
9 *2369:B *730:45 8.65961e-05
10 *2478:B *2368:B 0.000140912
11 *2478:B *350:71 0.000139245
12 *248:19 *2366:A 0.000179015
13 *248:19 *2368:B 2.14129e-05
14 *248:19 *2740:CLK 8.28738e-05
15 *248:19 *350:71 0.000245907
16 *248:19 *729:10 0.00013521
17 *2366:B *2367:B 1.85674e-05
18 *2366:B *248:19 8.40213e-05
19 *2367:A *2367:B 5.39673e-05
20 *2367:A *248:19 2.7441e-05
*RES
1 *2366:X *248:4 1.6 
2 *248:4 *2367:B 2.665 
3 *248:4 *248:19 7.415 
4 *248:19 *2478:B 5.235 
5 *248:19 *2369:B 7.515 
*END

*D_NET *249 0.00408651
*CONN
*I *2499:B I *D sky130_fd_sc_hd__nand3b_4
*I *2372:B I *D sky130_fd_sc_hd__and2_1
*I *2371:B I *D sky130_fd_sc_hd__nor2_1
*I *2573:C_N I *D sky130_fd_sc_hd__or3b_4
*I *2370:A I *D sky130_fd_sc_hd__nor2_1
*I *2368:X O *D sky130_fd_sc_hd__and3_2
*CAP
1 *2499:B 0
2 *2372:B 0
3 *2371:B 0
4 *2573:C_N 8.62395e-05
5 *2370:A 0.000105425
6 *2368:X 0.000216783
7 *249:39 0.000109595
8 *249:37 0.000205235
9 *249:29 0.000422438
10 *249:16 0.000562767
11 *2370:A *2370:B 1.87448e-05
12 *2573:C_N *2573:B 1.22505e-05
13 *2573:C_N *252:10 3.18219e-05
14 *2573:C_N *252:12 1.22676e-05
15 *2573:C_N *323:20 5.87974e-05
16 *2573:C_N *636:46 5.53249e-06
17 *249:16 *2291:A 0
18 *249:16 *2370:B 0.000108761
19 *249:16 *324:12 4.82919e-05
20 *249:16 *326:12 4.9968e-05
21 *249:29 *2498:B 4.62396e-05
22 *249:29 *259:23 0
23 *249:29 *322:10 0.000109338
24 *249:29 *324:12 0.000268195
25 *249:29 *326:25 0.000181383
26 *249:29 *326:29 0.000188834
27 *249:37 *2479:A 0.000198939
28 *249:37 *259:23 0
29 *249:37 *326:29 0.000157595
30 *249:37 *633:123 0.000307043
31 *249:37 *636:46 3.39151e-05
32 *249:39 *2479:A 4.82919e-05
33 *249:39 *251:10 0.000123225
34 *2468:A *2370:A 1.83756e-05
35 *2468:A *249:16 1.34594e-05
36 *175:16 *2370:A 1.37328e-05
37 *175:16 *249:16 0.000323027
*RES
1 *2368:X *249:16 10.235 
2 *249:16 *2370:A 3.265 
3 *249:16 *249:29 9.5 
4 *249:29 *249:37 7.37 
5 *249:37 *249:39 1.14 
6 *249:39 *2573:C_N 7.49 
7 *249:39 *2371:B 1.6 
8 *249:37 *2372:B 1.6 
9 *249:29 *2499:B 3.6 
*END

*D_NET *250 0.00305899
*CONN
*I *2370:B I *D sky130_fd_sc_hd__nor2_1
*I *2379:B I *D sky130_fd_sc_hd__xnor2_1
*I *2369:Y O *D sky130_fd_sc_hd__nor2_1
*CAP
1 *2370:B 0.000325778
2 *2379:B 0.000221757
3 *2369:Y 0.000169937
4 *250:10 0.000717472
5 *2370:B *2743:D 4.82863e-05
6 *2370:B *324:12 0.000122331
7 *2379:B *2303:A 4.66108e-05
8 *2379:B *350:71 0.000402736
9 *2379:B *744:12 0
10 *250:10 *2369:A 0.000200615
11 *250:10 *350:71 0.000174526
12 *250:10 *730:19 4.82919e-05
13 *250:10 *730:29 0.000117832
14 *250:10 *730:45 3.7712e-05
15 *2368:C *2379:B 7.18452e-06
16 *2368:C *250:10 2.97004e-06
17 *2370:A *2370:B 1.87448e-05
18 *2382:B *250:10 1.52184e-05
19 *2468:A *2370:B 8.65961e-05
20 *175:16 *2370:B 2.66672e-05
21 *246:61 *250:10 0.000158965
22 *249:16 *2370:B 0.000108761
*RES
1 *2369:Y *250:10 8.61 
2 *250:10 *2379:B 8.745 
3 *250:10 *2370:B 9.24 
*END

*D_NET *251 0.00127114
*CONN
*I *2373:A I *D sky130_fd_sc_hd__nor2_1
*I *2377:B I *D sky130_fd_sc_hd__xnor2_1
*I *2371:Y O *D sky130_fd_sc_hd__nor2_1
*CAP
1 *2373:A 0
2 *2377:B 6.49952e-05
3 *2371:Y 0.00023215
4 *251:10 0.000297145
5 *2377:B *2744:D 6.47516e-05
6 *2377:B *2756:D 1.26626e-05
7 *2377:B *350:54 2.25075e-05
8 *2377:B *635:101 0.000159957
9 *251:10 *2372:A 2.49909e-05
10 *251:10 *2479:A 2.16833e-05
11 *251:10 *2756:D 7.36562e-05
12 *251:10 *252:10 8.57024e-05
13 *251:10 *350:54 4.62396e-05
14 *251:10 *633:123 4.14782e-05
15 *249:39 *251:10 0.000123225
*RES
1 *2371:Y *251:10 8.445 
2 *251:10 *2377:B 5.745 
3 *251:10 *2373:A 3.6 
*END

*D_NET *252 0.0044226
*CONN
*I *2385:B I *D sky130_fd_sc_hd__nand2_1
*I *2373:B I *D sky130_fd_sc_hd__nor2_1
*I *2374:B I *D sky130_fd_sc_hd__nor2_1
*I *2546:B I *D sky130_fd_sc_hd__nand2b_4
*I *2372:X O *D sky130_fd_sc_hd__and2_1
*CAP
1 *2385:B 8.61596e-05
2 *2373:B 1.32298e-05
3 *2374:B 0.000509315
4 *2546:B 3.66508e-05
5 *2372:X 0.000154377
6 *252:36 0.000188084
7 *252:12 0.000634171
8 *252:10 0.000331277
9 *2373:B *2508:A 4.00541e-06
10 *2374:B *2374:A 0.000204234
11 *2374:B *350:43 0.000194694
12 *2374:B *350:54 7.3151e-05
13 *2374:B *636:8 4.4675e-05
14 *2374:B *746:6 2.96334e-05
15 *2385:B *2385:A 0.000198939
16 *2385:B *2829:A 8.8266e-05
17 *2385:B *260:12 0.000201384
18 *2385:B *635:6 4.66108e-05
19 *2385:B *635:8 6.77392e-05
20 *2546:B *2527:A 0.000140905
21 *2546:B *350:30 9.50342e-06
22 *2546:B *350:43 0.000129735
23 *252:10 *2479:A 2.96426e-05
24 *252:10 *2573:B 8.5242e-05
25 *252:12 *2527:A 2.30797e-05
26 *252:12 *2573:B 3.09233e-05
27 *252:12 *323:20 0
28 *252:12 *326:29 7.46363e-05
29 *252:12 *339:12 9.68709e-05
30 *252:12 *350:43 3.09233e-05
31 *252:36 *2508:B 4.66108e-05
32 *252:36 *260:12 0.000344459
33 *252:36 *330:10 2.75145e-05
34 *252:36 *339:12 2.75145e-05
35 *252:36 *635:8 4.08514e-05
36 *252:36 *635:14 4.77948e-05
37 *2573:C_N *252:10 3.18219e-05
38 *2573:C_N *252:12 1.22676e-05
39 *251:10 *252:10 8.57024e-05
*RES
1 *2372:X *252:10 6.21 
2 *252:10 *252:12 2.91 
3 *252:12 *2546:B 5.235 
4 *252:12 *2374:B 12 
5 *252:10 *252:36 5.21 
6 *252:36 *2373:B 1.96 
7 *252:36 *2385:B 5.275 
*END

*D_NET *253 0.00244608
*CONN
*I *2375:B I *D sky130_fd_sc_hd__xnor2_1
*I *2414:A_N I *D sky130_fd_sc_hd__and2b_1
*I *2374:Y O *D sky130_fd_sc_hd__nor2_1
*CAP
1 *2375:B 0.000599981
2 *2414:A_N 5.31164e-05
3 *2374:Y 0.000209546
4 *253:6 0.000862643
5 *2375:B *2378:B 7.49327e-05
6 *2375:B *2415:A 0.000184866
7 *2375:B *2827:A 1.83847e-05
8 *2414:A_N *2378:B 6.02202e-05
9 *2414:A_N *677:31 6.02202e-05
10 *253:6 *2378:B 0.000198945
11 *253:6 *746:6 0.000123225
*RES
1 *2374:Y *253:6 4.465 
2 *253:6 *2414:A_N 6.98 
3 *253:6 *2375:B 10.36 
*END

*D_NET *254 0.00295047
*CONN
*I *2389:A I *D sky130_fd_sc_hd__nor2_1
*I *2376:Y O *D sky130_fd_sc_hd__xnor2_1
*CAP
1 *2389:A 0.00144599
2 *2376:Y 0.00144599
3 *2389:A *2376:A 0
4 *2389:A *2387:A 5.84828e-05
5 *2389:A *2776:D 0
6 *2389:A *732:25 0
7 *183:10 *2389:A 0
8 *183:21 *2389:A 0
9 *198:8 *2389:A 0
10 *198:27 *2389:A 0
*RES
1 *2376:Y *2389:A 27.675 
*END

*D_NET *255 0.000238062
*CONN
*I *2388:A I *D sky130_fd_sc_hd__or4b_1
*I *2378:X O *D sky130_fd_sc_hd__xor2_1
*CAP
1 *2388:A 8.48478e-05
2 *2378:X 8.48478e-05
3 *2388:A *2388:C 6.83659e-05
*RES
1 *2378:X *2388:A 4.7 
*END

*D_NET *256 0.000427044
*CONN
*I *2388:B I *D sky130_fd_sc_hd__or4b_1
*I *2380:Y O *D sky130_fd_sc_hd__nor2_1
*CAP
1 *2388:B 0.000133029
2 *2380:Y 0.000133029
3 *2388:B *2388:D_N 3.86607e-05
4 *2388:B *327:99 0
5 *2388:B *633:123 0.000122325
*RES
1 *2380:Y *2388:B 9.21 
*END

*D_NET *257 0.000473097
*CONN
*I *2388:D_N I *D sky130_fd_sc_hd__or4b_1
*I *2381:Y O *D sky130_fd_sc_hd__nand2_1
*CAP
1 *2388:D_N 0.000125442
2 *2381:Y 0.000125442
3 *2388:D_N *2755:D 0.00013687
4 *2388:D_N *327:99 0
5 *2380:A *2388:D_N 4.66826e-05
6 *2388:B *2388:D_N 3.86607e-05
*RES
1 *2381:Y *2388:D_N 9.63 
*END

*D_NET *258 0.000352447
*CONN
*I *2387:A I *D sky130_fd_sc_hd__nand2_1
*I *2383:Y O *D sky130_fd_sc_hd__xnor2_1
*CAP
1 *2387:A 0.000146982
2 *2383:Y 0.000146982
3 *2389:A *2387:A 5.84828e-05
*RES
1 *2383:Y *2387:A 5.75 
*END

*D_NET *259 0.00340492
*CONN
*I *2469:A I *D sky130_fd_sc_hd__nor2_4
*I *2489:A I *D sky130_fd_sc_hd__nor2_4
*I *2479:A I *D sky130_fd_sc_hd__nor2_4
*I *2384:Y O *D sky130_fd_sc_hd__nand2_2
*CAP
1 *2469:A 9.06956e-05
2 *2489:A 8.80443e-05
3 *2479:A 0.000152527
4 *2384:Y 0.000122993
5 *259:23 0.000264872
6 *259:8 0.000361652
7 *2469:A *323:10 4.54719e-05
8 *2469:A *323:20 0.000137578
9 *2469:A *324:12 0
10 *2479:A *323:20 0.00015356
11 *2479:A *636:46 3.90349e-05
12 *2489:A *2489:B 0.000232111
13 *2489:A *327:26 8.67385e-05
14 *259:8 *2384:B 8.65961e-05
15 *259:8 *2498:B 4.60584e-05
16 *259:8 *2681:CLK 0.000608344
17 *259:8 *635:63 0.000123197
18 *259:8 *636:82 0.000211144
19 *259:23 *2498:B 5.12942e-05
20 *259:23 *323:20 0.000204456
21 *249:29 *259:23 0
22 *249:37 *2479:A 0.000198939
23 *249:37 *259:23 0
24 *249:39 *2479:A 4.82919e-05
25 *251:10 *2479:A 2.16833e-05
26 *252:10 *2479:A 2.96426e-05
*RES
1 *2384:Y *259:8 9.225 
2 *259:8 *2479:A 7.68 
3 *259:8 *259:23 2.4 
4 *259:23 *2489:A 6.135 
5 *259:23 *2469:A 5.745 
*END

*D_NET *260 0.0135342
*CONN
*I *2827:A I *D sky130_fd_sc_hd__buf_4
*I *2606:S I *D sky130_fd_sc_hd__mux2_1
*I *2385:Y O *D sky130_fd_sc_hd__nand2_1
*CAP
1 *2827:A 0.000660441
2 *2606:S 0.00121731
3 *2385:Y 0
4 *260:12 0.00395846
5 *260:4 0.00340159
6 *2606:S *2459:S1 7.9642e-06
7 *2606:S *2460:A1 0.000207896
8 *2606:S *2460:A2 0.000131883
9 *2606:S *2460:S0 7.20784e-06
10 *2606:S *2460:S1 7.67345e-05
11 *2606:S *2606:A0 4.15227e-05
12 *2606:S *334:66 0.000103192
13 *2606:S *342:36 0
14 *2827:A *2740:RESET_B 0
15 *2827:A *2745:D 1.83756e-05
16 *2827:A *2829:A 0.000307391
17 *2827:A *363:10 0.00013818
18 *2827:A *364:8 0
19 *2827:A *633:93 2.20732e-05
20 *2827:A *633:99 6.72792e-05
21 *260:12 *2422:S1 0.000111015
22 *260:12 *2460:S0 0.000726109
23 *260:12 *2460:S1 2.75145e-05
24 *260:12 *2461:A1 0.000844089
25 *260:12 *2573:B 4.80285e-05
26 *260:12 *2829:A 0.00012657
27 *260:12 *334:41 0.000564901
28 *260:12 *635:14 7.67415e-06
29 *260:12 *635:18 2.39856e-05
30 *2375:B *2827:A 1.83847e-05
31 *2385:B *260:12 0.000201384
32 *2631:D *2606:S 0.000122557
33 *252:36 *260:12 0.000344459
*RES
1 *2385:Y *260:4 1.6 
2 *260:4 *260:12 40.95 
3 *260:12 *2606:S 23.15 
4 *260:4 *2827:A 15.275 
*END

*D_NET *261 0.000436457
*CONN
*I *2387:B I *D sky130_fd_sc_hd__nand2_1
*I *2386:Y O *D sky130_fd_sc_hd__xnor2_1
*CAP
1 *2387:B 0.000129473
2 *2386:Y 0.000129473
3 *2387:B *2306:A 0.000116165
4 *2387:B *2383:A 4.66108e-05
5 *2387:B *2740:RESET_B 0
6 *2386:A *2387:B 1.47347e-05
*RES
1 *2386:Y *2387:B 9.375 
*END

*D_NET *262 0.00112801
*CONN
*I *2388:C I *D sky130_fd_sc_hd__or4b_1
*I *2387:Y O *D sky130_fd_sc_hd__nand2_1
*CAP
1 *2388:C 0.000321142
2 *2387:Y 0.000321142
3 *2388:C *2306:A 8.45475e-05
4 *2388:C *2378:A 7.00889e-06
5 *2388:C *2389:B 4.82919e-05
6 *2388:C *363:10 0.000181383
7 *2388:C *633:123 9.61248e-05
8 *2388:A *2388:C 6.83659e-05
*RES
1 *2387:Y *2388:C 13.59 
*END

*D_NET *263 0.00072801
*CONN
*I *2389:B I *D sky130_fd_sc_hd__nor2_1
*I *2388:X O *D sky130_fd_sc_hd__or4b_1
*CAP
1 *2389:B 0.000194173
2 *2388:X 0.000194173
3 *2389:B *2306:A 0
4 *2389:B *677:31 0.000291372
5 *2388:C *2389:B 4.82919e-05
*RES
1 *2388:X *2389:B 11.07 
*END

*D_NET *264 0.0194937
*CONN
*I *2828:A I *D sky130_fd_sc_hd__clkbuf_4
*I *2461:S I *D sky130_fd_sc_hd__mux2_1
*I *2423:S I *D sky130_fd_sc_hd__mux2_1
*I *2390:X O *D sky130_fd_sc_hd__and2b_2
*CAP
1 *2828:A 0
2 *2461:S 0.000921506
3 *2423:S 7.60501e-05
4 *2390:X 0.000115127
5 *264:20 0.00297691
6 *264:18 0.00582095
7 *264:10 0.00395672
8 *2423:S *2857:A 2.75145e-05
9 *2461:S *2617:CLK 0.000212609
10 *2461:S *2617:RESET_B 0.000104649
11 *2461:S *540:10 5.92191e-05
12 *264:10 *2431:A0 3.03775e-05
13 *264:10 *2867:A 0.000136905
14 *264:10 *739:10 7.01908e-05
15 *264:18 *2431:A1 0
16 *264:18 *2575:S 0
17 *264:18 *2578:S 0
18 *264:18 *2855:A 0
19 *264:18 *2867:A 1.92979e-05
20 *264:18 *637:16 0.000866714
21 *264:18 *637:30 0.000618947
22 *264:18 *642:37 0
23 *264:18 *739:10 1.00941e-05
24 *264:20 *2419:A2 0
25 *264:20 *2419:S0 0.00017245
26 *264:20 *2421:A3 0.000220078
27 *264:20 *2421:S0 0
28 *264:20 *2421:S1 6.28765e-05
29 *264:20 *2422:A2 0.00037851
30 *264:20 *2423:A1 0
31 *264:20 *2428:A0 0.00015829
32 *264:20 *2428:A1 6.11586e-05
33 *264:20 *2428:S0 0.000103817
34 *264:20 *2574:S 1.00941e-05
35 *264:20 *2609:A1 4.19884e-05
36 *264:20 *2811:A 4.61701e-06
37 *264:20 *2858:A 0.000200845
38 *264:20 *2877:A 3.26822e-05
39 *264:20 *2898:A 0
40 *264:20 *2953:A 8.48111e-05
41 *264:20 *2965:A 2.05641e-05
42 *264:20 *2999:A 0.000336076
43 *264:20 *329:107 0.000504936
44 *264:20 *336:10 0.000331031
45 *264:20 *342:67 0
46 *264:20 *384:10 0
47 *264:20 *439:16 0.000114492
48 *264:20 *540:10 2.86623e-05
49 *264:20 *637:30 0
50 *264:20 *644:82 0
51 *264:20 *664:43 0
52 *264:20 *664:54 0
53 *264:20 *667:14 7.16181e-05
54 empty *264:18 0.000258979
55 *2617:D *2461:S 0.000188719
56 *2681:D *264:20 8.26536e-05
*RES
1 *2390:X *264:10 6.03 
2 *264:10 *264:18 9.60263 
3 *264:18 *264:20 45.3675 
4 *264:20 *2423:S 4.74 
5 *264:20 *2461:S 16.5 
6 *264:10 *2828:A 3.6 
*END

*D_NET *265 0.000796851
*CONN
*I *2404:B I *D sky130_fd_sc_hd__xnor2_1
*I *2393:A I *D sky130_fd_sc_hd__nor2_1
*I *2391:Y O *D sky130_fd_sc_hd__nor2_1
*CAP
1 *2404:B 9.47958e-06
2 *2393:A 9.15231e-05
3 *2391:Y 2.23845e-05
4 *265:6 0.000123387
5 *2393:A *2392:B 4.82919e-05
6 *2393:A *642:99 1.1561e-05
7 *2393:A *642:101 8.97642e-05
8 *2393:A *668:26 0.000179008
9 *2404:B *650:30 2.16917e-05
10 *2404:B *669:28 4.82919e-05
11 *265:6 *2391:B 4.82863e-05
12 *265:6 *650:30 1.91597e-05
13 *265:6 *669:28 8.40213e-05
*RES
1 *2391:Y *265:6 2.395 
2 *265:6 *2393:A 8.195 
3 *265:6 *2404:B 2.05 
*END

*D_NET *266 0.000550513
*CONN
*I *2393:B I *D sky130_fd_sc_hd__nor2_1
*I *2392:X O *D sky130_fd_sc_hd__and2_1
*CAP
1 *2393:B 0.000152569
2 *2392:X 0.000152569
3 *2393:B *2392:B 4.21973e-05
4 *2393:B *2840:A 0.000203178
*RES
1 *2392:X *2393:B 6.08 
*END

*D_NET *267 0.00098826
*CONN
*I *2396:A I *D sky130_fd_sc_hd__nor2_1
*I *2400:B I *D sky130_fd_sc_hd__xnor2_1
*I *2394:Y O *D sky130_fd_sc_hd__a21oi_1
*CAP
1 *2396:A 0
2 *2400:B 7.9986e-05
3 *2394:Y 0.000131728
4 *267:12 0.000211714
5 *2400:B *2396:B 7.89968e-05
6 *2400:B *640:20 0.00019637
7 *267:12 *363:10 0.000134546
8 *267:12 *551:26 1.31371e-05
9 *267:12 *634:40 3.64998e-06
10 *267:12 *669:87 0.000138133
*RES
1 *2394:Y *267:12 8.03 
2 *267:12 *2400:B 3.79 
3 *267:12 *2396:A 1.6 
*END

*D_NET *268 0.00528362
*CONN
*I *2403:C I *D sky130_fd_sc_hd__and3_1
*I *2398:B I *D sky130_fd_sc_hd__and2_1
*I *2408:A2 I *D sky130_fd_sc_hd__a21oi_1
*I *2397:B I *D sky130_fd_sc_hd__nor2_1
*I *2396:B I *D sky130_fd_sc_hd__nor2_1
*I *2395:X O *D sky130_fd_sc_hd__and3_1
*CAP
1 *2403:C 0.000516482
2 *2398:B 3.87615e-05
3 *2408:A2 0.000297796
4 *2397:B 5.01151e-05
5 *2396:B 0.00025735
6 *2395:X 0
7 *268:27 0.000583286
8 *268:21 0.000433517
9 *268:6 0.000448877
10 *268:4 0.000548629
11 *2396:B *2835:A 4.99619e-05
12 *2396:B *640:20 1.61831e-05
13 *2396:B *642:6 0.000149759
14 *2396:B *642:12 0.000232999
15 *2397:B *2837:A 2.7881e-05
16 *2397:B *639:8 4.82863e-05
17 *2397:B *672:40 2.59981e-05
18 *2398:B *2395:B 0
19 *2398:B *2411:B 5.16418e-05
20 *2398:B *639:59 2.09708e-05
21 *2403:C *2395:C 1.70906e-05
22 *2403:C *2403:B 1.26934e-06
23 *2403:C *2835:A 9.18506e-05
24 *2408:A2 *2408:A1 6.32842e-05
25 *2408:A2 *2408:B1 3.17194e-05
26 *2408:A2 *637:157 0.000234674
27 *2408:A2 *639:6 0.00048088
28 *2408:A2 *639:8 4.82919e-05
29 *268:6 *2835:A 2.30292e-05
30 *268:21 *2395:B 0
31 *268:21 *639:59 0.000127605
32 *268:27 *2399:A 4.82919e-05
33 *268:27 *269:6 0.000222123
34 *268:27 *639:8 1.60203e-05
35 *2400:B *2396:B 7.89968e-05
*RES
1 *2395:X *268:4 1.6 
2 *268:4 *268:6 0.45 
3 *268:6 *2396:B 7.255 
4 *268:6 *268:21 4.91 
5 *268:21 *268:27 5.225 
6 *268:27 *2397:B 6.665 
7 *268:27 *2408:A2 8.53 
8 *268:21 *2398:B 4.47 
9 *268:4 *2403:C 7.285 
*END

*D_NET *269 0.00207185
*CONN
*I *2411:B I *D sky130_fd_sc_hd__xnor2_1
*I *2399:A I *D sky130_fd_sc_hd__nor2_1
*I *2397:Y O *D sky130_fd_sc_hd__nor2_1
*CAP
1 *2411:B 0.000126405
2 *2399:A 0.000192399
3 *2397:Y 4.73858e-05
4 *269:6 0.00036619
5 *2399:A *2399:B 0.000161529
6 *2399:A *2733:CLK 2.95708e-05
7 *2399:A *2737:D 0.000157637
8 *2399:A *363:10 0
9 *2399:A *639:10 0.00010978
10 *2399:A *639:26 0.000235568
11 *2411:B *2395:B 3.77799e-05
12 *2411:B *644:27 4.79067e-05
13 *2411:B *648:78 5.53249e-06
14 *269:6 *639:8 0.000183819
15 *269:6 *639:10 4.82919e-05
16 *2398:B *2411:B 5.16418e-05
17 *268:27 *2399:A 4.82919e-05
18 *268:27 *269:6 0.000222123
*RES
1 *2397:Y *269:6 3.775 
2 *269:6 *2399:A 10.7 
3 *269:6 *2411:B 8.255 
*END

*D_NET *270 0.000670786
*CONN
*I *2399:B I *D sky130_fd_sc_hd__nor2_1
*I *2398:X O *D sky130_fd_sc_hd__and2_1
*CAP
1 *2399:B 0.000186238
2 *2398:X 0.000186238
3 *2399:B *2737:D 0.000136781
4 *2399:B *639:59 0
5 *2399:A *2399:B 0.000161529
*RES
1 *2398:X *2399:B 10.32 
*END

*D_NET *271 0.00064806
*CONN
*I *2407:A1 I *D sky130_fd_sc_hd__o221a_1
*I *2401:X O *D sky130_fd_sc_hd__and2_1
*CAP
1 *2407:A1 0.000107396
2 *2401:X 0.000107396
3 *2407:A1 *2336:A 8.40213e-05
4 *2407:A1 *551:26 9.82645e-05
5 *2407:A1 *634:26 0.000250982
*RES
1 *2401:X *2407:A1 6.44 
*END

*D_NET *272 0.000524373
*CONN
*I *2407:A2 I *D sky130_fd_sc_hd__o221a_1
*I *2402:Y O *D sky130_fd_sc_hd__nor2_1
*CAP
1 *2407:A2 0.000190836
2 *2402:Y 0.000190836
3 *2407:A2 *2402:B 5.83121e-06
4 *2407:A2 *2416:A 8.22234e-06
5 *2407:A2 *273:6 8.22234e-06
6 *2407:A2 *273:10 6.02123e-05
7 *2407:A2 *708:42 6.02123e-05
*RES
1 *2402:Y *2407:A2 10.065 
*END

*D_NET *273 0.002839
*CONN
*I *2416:A I *D sky130_fd_sc_hd__nor2_1
*I *2407:B1 I *D sky130_fd_sc_hd__o221a_1
*I *2417:B I *D sky130_fd_sc_hd__xor2_1
*I *2406:A2 I *D sky130_fd_sc_hd__a21oi_1
*I *2403:X O *D sky130_fd_sc_hd__and3_1
*CAP
1 *2416:A 0.000367805
2 *2407:B1 0
3 *2417:B 6.30713e-05
4 *2406:A2 2.31656e-05
5 *2403:X 0.000160436
6 *273:14 0.000144344
7 *273:10 0.000174118
8 *273:6 0.000644252
9 *2406:A2 *668:79 4.66108e-05
10 *2416:A *2413:A 0.000311309
11 *2416:A *2416:B 4.66108e-05
12 *2416:A *2734:D 5.83121e-06
13 *2416:A *668:112 0.000169242
14 *2417:B *2407:C1 0
15 *2417:B *668:79 0.0001249
16 *273:6 *2402:A 2.75145e-05
17 *273:6 *2402:B 2.54522e-05
18 *273:10 *2334:A 0.000115782
19 *273:10 *2336:A 2.14129e-05
20 *273:10 *708:42 0
21 *273:14 *2336:A 0.000157602
22 *273:14 *668:79 7.21296e-06
23 *2407:A2 *2416:A 8.22234e-06
24 *2407:A2 *273:6 8.22234e-06
25 *2407:A2 *273:10 6.02123e-05
26 *2407:B2 *273:10 9.50342e-06
27 *2407:B2 *273:14 0.000116165
*RES
1 *2403:X *273:6 3.43 
2 *273:6 *273:10 4.91 
3 *273:10 *273:14 3.89 
4 *273:14 *2406:A2 2.05 
5 *273:14 *2417:B 3.1 
6 *273:10 *2407:B1 3.6 
7 *273:6 *2416:A 12.245 
*END

*D_NET *274 0.000936431
*CONN
*I *2406:B1 I *D sky130_fd_sc_hd__a21oi_1
*I *2405:X O *D sky130_fd_sc_hd__xor2_1
*CAP
1 *2406:B1 0.000272168
2 *2405:X 0.000272168
3 *2406:B1 *2334:A 0.000188283
4 *2406:B1 *2336:A 8.09021e-06
5 *2406:B1 *2407:C1 3.25831e-05
6 *2406:B1 *640:55 0.000163138
*RES
1 *2405:X *2406:B1 13.815 
*END

*D_NET *275 0.000637841
*CONN
*I *2407:C1 I *D sky130_fd_sc_hd__o221a_1
*I *2406:Y O *D sky130_fd_sc_hd__a21oi_1
*CAP
1 *2407:C1 0.000153085
2 *2406:Y 0.000153085
3 *2407:C1 *2334:A 0.000183043
4 *2407:C1 *2336:A 4.66108e-05
5 *2407:C1 *2402:B 4.43871e-06
6 *2407:C1 *551:26 4.66108e-05
7 *2407:C1 *640:55 0
8 *2407:C1 *668:79 1.83847e-05
9 *2406:B1 *2407:C1 3.25831e-05
10 *2417:B *2407:C1 0
*RES
1 *2406:Y *2407:C1 10.605 
*END

*D_NET *276 0.00221514
*CONN
*I *2413:A I *D sky130_fd_sc_hd__and3_1
*I *2407:X O *D sky130_fd_sc_hd__o221a_1
*CAP
1 *2413:A 0.000407761
2 *2407:X 0.000407761
3 *2413:A *2409:B 0.000428168
4 *2413:A *2413:B 0
5 *2413:A *2413:C 0.000278117
6 *2413:A *668:112 0.000141133
7 *2413:A *708:42 0.000240896
8 *2416:A *2413:A 0.000311309
*RES
1 *2407:X *2413:A 19.77 
*END

*D_NET *277 0.00170556
*CONN
*I *2416:B I *D sky130_fd_sc_hd__nor2_1
*I *2409:B I *D sky130_fd_sc_hd__xnor2_1
*I *2408:Y O *D sky130_fd_sc_hd__a21oi_1
*CAP
1 *2416:B 7.1869e-05
2 *2409:B 0.000184598
3 *2408:Y 0
4 *277:4 0.000256467
5 *2409:B *2413:B 0
6 *2409:B *2773:D 3.09233e-05
7 *2409:B *708:42 0.000560264
8 *2409:B *755:10 0
9 *2416:B *2408:B1 4.35648e-05
10 *2416:B *2734:D 1.47347e-05
11 *2416:B *637:174 6.83659e-05
12 *2413:A *2409:B 0.000428168
13 *2416:A *2416:B 4.66108e-05
*RES
1 *2408:Y *277:4 1.6 
2 *277:4 *2409:B 12.335 
3 *277:4 *2416:B 3.46 
*END

*D_NET *278 0.000439876
*CONN
*I *2413:B I *D sky130_fd_sc_hd__and3_1
*I *2410:Y O *D sky130_fd_sc_hd__xnor2_1
*CAP
1 *2413:B 0.000165373
2 *2410:Y 0.000165373
3 *2413:B *2330:A 7.45707e-05
4 *2413:B *722:8 3.45588e-05
5 *2409:B *2413:B 0
6 *2413:A *2413:B 0
*RES
1 *2410:Y *2413:B 10.14 
*END

*D_NET *279 0.00117039
*CONN
*I *2413:C I *D sky130_fd_sc_hd__and3_1
*I *2412:Y O *D sky130_fd_sc_hd__xnor2_1
*CAP
1 *2413:C 0.000426807
2 *2412:Y 0.000426807
3 *2413:C *2334:A 0
4 *2413:C *708:42 3.86607e-05
5 *2413:A *2413:C 0.000278117
*RES
1 *2412:Y *2413:C 12.72 
*END

*D_NET *280 0.00299055
*CONN
*I *2422:A2 I *D sky130_fd_sc_hd__mux4_1
*I *2418:X O *D sky130_fd_sc_hd__mux4_1
*CAP
1 *2422:A2 0.000370347
2 *2418:X 0.000370347
3 *2422:A2 *2422:A3 2.91399e-05
4 *2422:A2 *2422:S1 0.000226841
5 *2422:A2 *2534:S 0.000686627
6 *2422:A2 *2900:A 0.000277223
7 *2422:A2 *336:10 0.000137578
8 *2422:A2 *336:51 0.000276064
9 *2422:A2 *337:26 0.000237869
10 *2422:A2 *342:67 0
11 *264:20 *2422:A2 0.00037851
*RES
1 *2418:X *2422:A2 21.8025 
*END

*D_NET *281 0.00182145
*CONN
*I *2422:A0 I *D sky130_fd_sc_hd__mux4_1
*I *2419:X O *D sky130_fd_sc_hd__mux4_1
*CAP
1 *2422:A0 0.000616602
2 *2419:X 0.000616602
3 *2422:A0 *2510:A0 0
4 *2422:A0 *2516:S 1.67341e-05
5 *2422:A0 *2538:S 0.000374188
6 *2422:A0 *329:20 1.83756e-05
7 *2422:A0 *333:12 0
8 *2422:A0 *334:12 7.63125e-05
9 *2422:A0 *340:10 7.70424e-07
10 *2422:A0 *340:16 2.89259e-05
11 *2422:A0 *648:117 7.29422e-05
*RES
1 *2419:X *2422:A0 18.675 
*END

*D_NET *282 0.00233409
*CONN
*I *2422:A3 I *D sky130_fd_sc_hd__mux4_1
*I *2420:X O *D sky130_fd_sc_hd__mux4_1
*CAP
1 *2422:A3 0.000652098
2 *2420:X 0.000652098
3 *2422:A3 *2423:A1 6.38806e-05
4 *2422:A3 *2520:S 0
5 *2422:A3 *329:20 9.66021e-05
6 *2422:A3 *329:96 0.000113372
7 *2422:A3 *334:41 9.72473e-05
8 *2422:A3 *342:67 9.77596e-05
9 *2422:A3 *375:10 3.67779e-05
10 *2422:A3 *667:24 0.000222134
11 *2422:A3 *667:30 0.000272978
12 *2422:A2 *2422:A3 2.91399e-05
*RES
1 *2420:X *2422:A3 18.765 
*END

*D_NET *283 0.00181715
*CONN
*I *2422:A1 I *D sky130_fd_sc_hd__mux4_1
*I *2421:X O *D sky130_fd_sc_hd__mux4_1
*CAP
1 *2422:A1 0.000744882
2 *2421:X 0.000744882
3 *2422:A1 *2421:A0 1.83756e-05
4 *2422:A1 *2421:A2 0.000108192
5 *2422:A1 *332:12 3.92318e-05
6 *2422:A1 *334:12 0.000111625
7 *2422:A1 *479:10 0
8 *2422:A1 *667:24 4.99619e-05
*RES
1 *2421:X *2422:A1 17.28 
*END

*D_NET *284 0.0020806
*CONN
*I *2423:A1 I *D sky130_fd_sc_hd__mux2_1
*I *2422:X O *D sky130_fd_sc_hd__mux4_1
*CAP
1 *2423:A1 0.000629752
2 *2422:X 0.000629752
3 *2423:A1 *2421:S1 4.61658e-05
4 *2423:A1 *2500:A1 0
5 *2423:A1 *2858:A 5.50989e-05
6 *2423:A1 *2877:A 8.6099e-05
7 *2423:A1 *329:20 7.06865e-05
8 *2423:A1 *334:41 8.49205e-05
9 *2423:A1 *342:67 0.000268451
10 *2423:A1 *667:24 2.53191e-06
11 *2422:A3 *2423:A1 6.38806e-05
12 *2787:D *2423:A1 0.000143266
13 *264:20 *2423:A1 0
*RES
1 *2422:X *2423:A1 20.1 
*END

*D_NET *285 0.00488802
*CONN
*I *2426:A1 I *D sky130_fd_sc_hd__mux2_1
*I *2424:X O *D sky130_fd_sc_hd__mux4_1
*CAP
1 *2426:A1 0.00155165
2 *2424:X 0.00155165
3 *2426:A1 *2424:A3 0.000227064
4 *2426:A1 *2424:S0 0.00054384
5 *2426:A1 *2425:A3 7.59952e-05
6 *2426:A1 *2426:A0 6.95764e-05
7 *2426:A1 *2430:A0 2.75229e-05
8 *2426:A1 *2658:CLK 3.1226e-05
9 *2426:A1 *2897:A 5.55204e-05
10 *2426:A1 *345:128 0.00011852
11 *2426:A1 *424:8 9.05765e-05
12 *2426:A1 *432:6 4.82919e-05
13 *2426:A1 *640:20 1.37328e-05
14 *2426:A1 *642:37 0.000213316
15 *2658:D *2426:A1 0.00012637
16 *2714:D *2426:A1 0.000143172
*RES
1 *2424:X *2426:A1 32.235 
*END

*D_NET *286 0.00276275
*CONN
*I *2426:A0 I *D sky130_fd_sc_hd__mux2_1
*I *2425:X O *D sky130_fd_sc_hd__mux4_1
*CAP
1 *2426:A0 0.000973694
2 *2425:X 0.000973694
3 *2426:A0 *2425:A0 3.1835e-05
4 *2426:A0 *2425:A1 0.000417892
5 *2426:A0 *2425:A2 9.64638e-06
6 *2426:A0 *2425:A3 6.12675e-06
7 *2426:A0 *2425:S0 1.4399e-05
8 *2426:A0 *2425:S1 2.81216e-05
9 *2426:A0 *2529:A1 0.000176605
10 *2426:A0 *333:98 5.58088e-05
11 *2426:A0 *705:12 5.35181e-06
12 *2426:A1 *2426:A0 6.95764e-05
*RES
1 *2425:X *2426:A0 20.655 
*END

*D_NET *287 0.00223523
*CONN
*I *2430:A0 I *D sky130_fd_sc_hd__mux2_1
*I *2426:X O *D sky130_fd_sc_hd__mux2_1
*CAP
1 *2430:A0 0.000418019
2 *2426:X 0.000418019
3 *2430:A0 *2430:S 0.00010865
4 *2430:A0 *2431:A1 0.000417984
5 *2430:A0 *2770:CLK 0.000114433
6 *2430:A0 *2770:D 9.14049e-05
7 *2430:A0 *331:102 6.74418e-05
8 *2430:A0 *633:22 0.000236331
9 *2430:A0 *637:62 3.41459e-05
10 *2430:A0 *639:26 0.000203481
11 *2430:A0 *642:37 9.78012e-05
12 *2426:A1 *2430:A0 2.75229e-05
*RES
1 *2426:X *2430:A0 19.155 
*END

*D_NET *288 0.00173032
*CONN
*I *2429:A1 I *D sky130_fd_sc_hd__mux2_1
*I *2427:X O *D sky130_fd_sc_hd__mux4_1
*CAP
1 *2429:A1 0.00052218
2 *2427:X 0.00052218
3 *2429:A1 *2427:S1 0.000345934
4 *2429:A1 *325:34 0.000245886
5 *2429:A1 *644:27 7.23533e-05
6 *2429:A1 *664:82 2.17886e-05
*RES
1 *2427:X *2429:A1 15.39 
*END

*D_NET *289 0.00256376
*CONN
*I *2429:A0 I *D sky130_fd_sc_hd__mux2_1
*I *2428:X O *D sky130_fd_sc_hd__mux4_1
*CAP
1 *2429:A0 0.000709901
2 *2428:X 0.000709901
3 *2429:A0 *2610:A0 7.23602e-05
4 *2429:A0 *333:98 8.73389e-06
5 *2429:A0 *637:30 7.23602e-05
6 *2429:A0 *648:86 0.000990502
*RES
1 *2428:X *2429:A0 17.49 
*END

*D_NET *290 0.000362789
*CONN
*I *2430:A1 I *D sky130_fd_sc_hd__mux2_1
*I *2429:X O *D sky130_fd_sc_hd__mux2_1
*CAP
1 *2430:A1 0.000108429
2 *2429:X 0.000108429
3 *2430:A1 *325:34 4.11025e-05
4 *2430:A1 *333:58 0.000100391
5 *2430:A1 *345:152 0
6 *2430:A1 *648:78 4.43871e-06
*RES
1 *2429:X *2430:A1 9.03 
*END

*D_NET *291 0.00656208
*CONN
*I *2431:A1 I *D sky130_fd_sc_hd__mux2_1
*I *2430:X O *D sky130_fd_sc_hd__mux2_1
*CAP
1 *2431:A1 0.00263345
2 *2430:X 0.00263345
3 *2431:A1 *2430:S 1.76909e-05
4 *2431:A1 *2737:RESET_B 1.88595e-05
5 *2431:A1 *2862:A 6.15576e-06
6 *2431:A1 *333:98 3.19349e-05
7 *2431:A1 *637:16 0.000676384
8 *2431:A1 *739:10 1.88602e-05
9 empty *2431:A1 0.000107319
10 *2430:A0 *2431:A1 0.000417984
11 *264:18 *2431:A1 0
*RES
1 *2430:X *2431:A1 19.4993 
*END

*D_NET *292 0.00620487
*CONN
*I *2436:A2 I *D sky130_fd_sc_hd__mux4_1
*I *2432:X O *D sky130_fd_sc_hd__mux4_1
*CAP
1 *2436:A2 0.00220452
2 *2432:X 0.00220452
3 *2436:A2 *2432:A2 1.10377e-05
4 *2436:A2 *2432:S0 0.000121643
5 *2436:A2 *2432:S1 4.7003e-05
6 *2436:A2 *2434:A0 8.30645e-05
7 *2436:A2 *2436:S1 1.59999e-05
8 *2436:A2 *2482:A1 0.000242205
9 *2436:A2 *2627:CLK 2.04592e-05
10 *2436:A2 *2930:A 6.52111e-05
11 *2436:A2 *2951:A 0.000178084
12 *2436:A2 *3030:A 0.00030448
13 *2436:A2 *325:83 0.000113247
14 *2436:A2 *325:93 6.71882e-05
15 *2436:A2 *327:53 2.59981e-05
16 *2436:A2 *339:32 0.000112509
17 *2436:A2 *342:36 1.55796e-05
18 *2436:A2 *358:22 7.12228e-06
19 *2436:A2 *358:26 0.000111324
20 *2436:A2 *393:10 0.000116165
21 *2627:D *2436:A2 3.51254e-06
22 *2643:D *2436:A2 0.000116165
23 *2724:D *2436:A2 1.78403e-05
*RES
1 *2432:X *2436:A2 38.0475 
*END

*D_NET *293 0.00231918
*CONN
*I *2436:A0 I *D sky130_fd_sc_hd__mux4_1
*I *2433:X O *D sky130_fd_sc_hd__mux4_1
*CAP
1 *2436:A0 0.000556766
2 *2433:X 0.000556766
3 *2436:A0 *2707:CLK 0.000128374
4 *2436:A0 *2839:A 1.555e-05
5 *2436:A0 *3030:A 4.80285e-05
6 *2436:A0 *327:65 0.000649557
7 *2436:A0 *639:124 0.000364138
*RES
1 *2433:X *2436:A0 19.395 
*END

*D_NET *294 0.000534907
*CONN
*I *2436:A3 I *D sky130_fd_sc_hd__mux4_1
*I *2434:X O *D sky130_fd_sc_hd__mux4_1
*CAP
1 *2436:A3 0.000131802
2 *2434:X 0.000131802
3 *2436:A3 *2436:S1 0.000127118
4 *2436:A3 *327:65 9.47454e-05
5 *2436:A3 *663:16 4.94404e-05
*RES
1 *2434:X *2436:A3 10.275 
*END

*D_NET *295 0.0049704
*CONN
*I *2436:A1 I *D sky130_fd_sc_hd__mux4_1
*I *2435:X O *D sky130_fd_sc_hd__mux4_1
*CAP
1 *2436:A1 0.00137752
2 *2435:X 0.00137752
3 *2436:A1 *2435:A3 0.00022578
4 *2436:A1 *2435:S0 0.000122797
5 *2436:A1 *2435:S1 3.1562e-06
6 *2436:A1 *2457:S1 0.000331331
7 *2436:A1 *2472:A0 0.000238919
8 *2436:A1 *2879:A 8.65961e-05
9 *2436:A1 *639:124 0.000175863
10 *2436:A1 *643:39 0.000324794
11 *2436:A1 *643:41 0.000140197
12 *2436:A1 *646:16 0.000565923
*RES
1 *2435:X *2436:A1 32.145 
*END

*D_NET *296 0.000815472
*CONN
*I *2437:A1 I *D sky130_fd_sc_hd__mux2_1
*I *2436:X O *D sky130_fd_sc_hd__mux4_1
*CAP
1 *2437:A1 0.000354257
2 *2436:X 0.000354257
3 *2437:A1 *2437:S 6.28765e-05
4 *2437:A1 *345:72 4.40812e-05
*RES
1 *2436:X *2437:A1 11.79 
*END

*D_NET *297 0.0026946
*CONN
*I *2442:A2 I *D sky130_fd_sc_hd__mux4_1
*I *2438:X O *D sky130_fd_sc_hd__mux4_1
*CAP
1 *2442:A2 0.000609348
2 *2438:X 0.000609348
3 *2442:A2 *2438:A2 4.05674e-06
4 *2442:A2 *2442:A3 0.00013687
5 *2442:A2 *2560:S 0.000233004
6 *2442:A2 *2605:S 0.000155948
7 *2442:A2 *2750:CLK 0.00011381
8 *2442:A2 *342:77 0
9 *2442:A2 *634:98 0.000146716
10 *2442:A2 *639:105 2.20665e-05
11 *2442:A2 *641:18 0
12 *2442:A2 *641:40 0.000144527
13 *2442:A2 *641:143 0
14 *2442:A2 *661:31 5.85952e-05
15 *2750:D *2442:A2 0.00046031
*RES
1 *2438:X *2442:A2 23.5187 
*END

*D_NET *298 0.00147199
*CONN
*I *2442:A0 I *D sky130_fd_sc_hd__mux4_1
*I *2439:X O *D sky130_fd_sc_hd__mux4_1
*CAP
1 *2442:A0 0.000329874
2 *2439:X 0.000329874
3 *2442:A0 *2439:S0 2.25119e-05
4 *2442:A0 *2441:S0 0.000279184
5 *2442:A0 *2442:A1 0.000239107
6 *2442:A0 *2882:A 0.000116165
7 *2442:A0 *338:44 4.99619e-05
8 *2442:A0 *639:105 4.82919e-05
9 *2442:A0 *645:145 4.82919e-05
10 *2442:A0 *645:162 8.73147e-06
*RES
1 *2439:X *2442:A0 16.05 
*END

*D_NET *299 0.00369284
*CONN
*I *2442:A3 I *D sky130_fd_sc_hd__mux4_1
*I *2440:X O *D sky130_fd_sc_hd__mux4_1
*CAP
1 *2442:A3 0.00141507
2 *2440:X 0.00141507
3 *2442:A3 *2438:A1 7.45881e-05
4 *2442:A3 *2440:A0 9.66021e-05
5 *2442:A3 *2440:A2 1.30169e-05
6 *2442:A3 *2912:A 1.91597e-05
7 *2442:A3 *337:30 0
8 *2442:A3 *342:77 0
9 *2442:A3 *355:75 7.47366e-05
10 *2442:A3 *394:12 7.06865e-05
11 *2442:A3 *418:10 1.74351e-05
12 *2442:A3 *450:12 0.000116853
13 *2442:A3 *637:90 5.55284e-05
14 *2442:A3 *650:30 6.16141e-05
15 *2442:A3 *661:31 9.32656e-05
16 *2442:A2 *2442:A3 0.00013687
17 *2750:D *2442:A3 3.23391e-05
*RES
1 *2440:X *2442:A3 29.415 
*END

*D_NET *300 0.00360073
*CONN
*I *2442:A1 I *D sky130_fd_sc_hd__mux4_1
*I *2441:X O *D sky130_fd_sc_hd__mux4_1
*CAP
1 *2442:A1 0.000887821
2 *2441:X 0.000887821
3 *2442:A1 *2439:S0 4.92861e-05
4 *2442:A1 *2441:A2 0.000231836
5 *2442:A1 *2441:S0 0
6 *2442:A1 *2441:S1 0.000377744
7 *2442:A1 *2614:S 1.5781e-06
8 *2442:A1 *2882:A 0
9 *2442:A1 *2891:A 0.000323305
10 *2442:A1 *386:14 7.70828e-05
11 *2442:A1 *639:105 5.13315e-05
12 *2442:A1 *641:143 0.000389794
13 *2442:A1 *645:145 8.40269e-05
14 *2442:A0 *2442:A1 0.000239107
15 *2790:D *2442:A1 0
*RES
1 *2441:X *2442:A1 28.14 
*END

*D_NET *301 0.000387774
*CONN
*I *2443:A1 I *D sky130_fd_sc_hd__mux2_1
*I *2442:X O *D sky130_fd_sc_hd__mux4_1
*CAP
1 *2443:A1 0.000130964
2 *2442:X 0.000130964
3 *2443:A1 *2701:CLK 7.23602e-05
4 *2443:A1 *329:107 3.86607e-05
5 *2443:A1 *639:73 1.48249e-05
*RES
1 *2442:X *2443:A1 9.21 
*END

*D_NET *302 0.00171772
*CONN
*I *2448:A2 I *D sky130_fd_sc_hd__mux4_1
*I *2444:X O *D sky130_fd_sc_hd__mux4_1
*CAP
1 *2448:A2 0.000580909
2 *2444:X 0.000580909
3 *2448:A2 *2448:A3 0.000118513
4 *2448:A2 *2814:A 8.34281e-06
5 *2448:A2 *2964:A 0.000200165
6 *2448:A2 *333:108 0.000116853
7 *2448:A2 *634:78 0.000106197
8 *2448:A2 *639:59 5.83121e-06
*RES
1 *2444:X *2448:A2 15.4388 
*END

*D_NET *303 0.00159966
*CONN
*I *2448:A0 I *D sky130_fd_sc_hd__mux4_1
*I *2445:X O *D sky130_fd_sc_hd__mux4_1
*CAP
1 *2448:A0 0.000509955
2 *2445:X 0.000509955
3 *2448:A0 *2445:A2 4.66108e-05
4 *2448:A0 *2448:A1 4.82919e-05
5 *2448:A0 *2876:A 3.47837e-05
6 *2448:A0 *331:102 0
7 *2448:A0 *637:90 6.59822e-05
8 *2448:A0 *647:35 3.67779e-05
9 *2448:A0 *647:67 3.86607e-05
10 *2448:A0 *658:51 0.0001249
11 *2661:D *2448:A0 0.000183738
*RES
1 *2445:X *2448:A0 17.055 
*END

*D_NET *304 0.000999688
*CONN
*I *2448:A3 I *D sky130_fd_sc_hd__mux4_1
*I *2446:X O *D sky130_fd_sc_hd__mux4_1
*CAP
1 *2448:A3 0.000144215
2 *2446:X 0.000144215
3 *2448:A3 *331:102 0.000258509
4 *2448:A3 *333:108 1.97849e-05
5 *2448:A3 *639:59 0.000314452
6 *2448:A2 *2448:A3 0.000118513
*RES
1 *2446:X *2448:A3 12.66 
*END

*D_NET *305 0.00276903
*CONN
*I *2448:A1 I *D sky130_fd_sc_hd__mux4_1
*I *2447:X O *D sky130_fd_sc_hd__mux4_1
*CAP
1 *2448:A1 0.000750826
2 *2447:X 0.000750826
3 *2448:A1 *2578:A1 0.000310424
4 *2448:A1 *2578:S 0.000215332
5 *2448:A1 *2850:A 0.000258571
6 *2448:A1 *2876:A 9.37731e-05
7 *2448:A1 *637:90 0.000196381
8 *2448:A1 *647:35 3.86529e-05
9 *2448:A1 *647:67 2.15594e-05
10 *2448:A1 *658:51 8.43946e-05
11 *2448:A0 *2448:A1 4.82919e-05
12 *2661:D *2448:A1 0
*RES
1 *2447:X *2448:A1 24.69 
*END

*D_NET *306 0.000334872
*CONN
*I *2449:A1 I *D sky130_fd_sc_hd__mux2_1
*I *2448:X O *D sky130_fd_sc_hd__mux4_1
*CAP
1 *2449:A1 0.000106351
2 *2448:X 0.000106351
3 *2449:A1 *2494:A0 3.64998e-06
4 *2449:A1 *669:44 0.00011852
*RES
1 *2448:X *2449:A1 9.03 
*END

*D_NET *307 0.00407526
*CONN
*I *2454:A2 I *D sky130_fd_sc_hd__mux4_1
*I *2450:X O *D sky130_fd_sc_hd__mux4_1
*CAP
1 *2454:A2 0.00138806
2 *2450:X 0.00138806
3 *2454:A2 *2450:A2 0.000113175
4 *2454:A2 *2450:A3 3.29947e-05
5 *2454:A2 *2450:S0 0.000375728
6 *2454:A2 *2454:A0 4.66108e-05
7 *2454:A2 *2454:A1 0.0001947
8 *2454:A2 *2597:A1 4.80285e-05
9 *2454:A2 *2605:A0 0.000239248
10 *2454:A2 *468:8 1.83756e-05
11 *2454:A2 *641:77 1.3946e-05
12 *2454:A2 *645:18 3.25891e-06
13 *2454:A2 *645:30 9.09197e-05
14 *2454:A2 *655:75 0.000122161
*RES
1 *2450:X *2454:A2 25.1488 
*END

*D_NET *308 0.00172243
*CONN
*I *2454:A0 I *D sky130_fd_sc_hd__mux4_1
*I *2451:X O *D sky130_fd_sc_hd__mux4_1
*CAP
1 *2454:A0 0.000426795
2 *2451:X 0.000426795
3 *2454:A0 *2451:A2 5.92191e-05
4 *2454:A0 *2577:S 5.5813e-05
5 *2454:A0 *2579:S 3.64998e-06
6 *2454:A0 *2880:A 0.000164679
7 *2454:A0 *339:44 0
8 *2454:A0 *656:23 0.000158297
9 *2454:A0 *656:56 0.00038057
10 *2454:A2 *2454:A0 4.66108e-05
*RES
1 *2451:X *2454:A0 16.635 
*END

*D_NET *309 0.000675812
*CONN
*I *2454:A3 I *D sky130_fd_sc_hd__mux4_1
*I *2452:X O *D sky130_fd_sc_hd__mux4_1
*CAP
1 *2454:A3 0.000184842
2 *2452:X 0.000184842
3 *2454:A3 *2495:A1 2.75229e-05
4 *2454:A3 *354:19 0.000116165
5 *2454:A3 *637:104 0
6 *2454:A3 *639:111 2.58818e-05
7 *2454:A3 *645:121 5.39961e-05
8 *2646:D *2454:A3 8.25609e-05
*RES
1 *2452:X *2454:A3 11.07 
*END

*D_NET *310 0.00480949
*CONN
*I *2454:A1 I *D sky130_fd_sc_hd__mux4_1
*I *2453:X O *D sky130_fd_sc_hd__mux4_1
*CAP
1 *2454:A1 0.000979374
2 *2453:X 0.000979374
3 *2454:A1 *2450:S0 0.000120655
4 *2454:A1 *2505:A0 4.85087e-06
5 *2454:A1 *2505:S 0.000809573
6 *2454:A1 *2524:A1 0.000253528
7 *2454:A1 *2570:A0 0.000140912
8 *2454:A1 *2579:A0 0.000109355
9 *2454:A1 *2579:A1 6.55328e-05
10 *2454:A1 *2605:A1 5.92269e-05
11 *2454:A1 *2605:S 9.50342e-06
12 *2454:A1 *2848:A 0.0004262
13 *2454:A1 *2971:A 6.85211e-05
14 *2454:A1 *339:44 0.000324376
15 *2454:A1 *388:8 0.000166859
16 *2454:A1 *641:50 0
17 *2454:A1 *655:10 8.4954e-05
18 *2454:A2 *2454:A1 0.0001947
19 *2654:D *2454:A1 1.19928e-05
20 *2670:D *2454:A1 0
*RES
1 *2453:X *2454:A1 38.485 
*END

*D_NET *311 0.00129266
*CONN
*I *2455:A1 I *D sky130_fd_sc_hd__mux2_1
*I *2454:X O *D sky130_fd_sc_hd__mux4_1
*CAP
1 *2455:A1 0.000405764
2 *2454:X 0.000405764
3 *2455:A1 *2455:A0 2.75145e-05
4 *2455:A1 *2455:S 0.000248254
5 *2455:A1 *354:32 0
6 *2455:A1 *639:105 0.000205363
7 *2622:D *2455:A1 0
*RES
1 *2454:X *2455:A1 13.77 
*END

*D_NET *312 0.00259208
*CONN
*I *2460:A2 I *D sky130_fd_sc_hd__mux4_1
*I *2456:X O *D sky130_fd_sc_hd__mux4_1
*CAP
1 *2460:A2 0.000922295
2 *2456:X 0.000922295
3 *2460:A2 *2460:A0 0.00011852
4 *2460:A2 *2460:S0 0.000101523
5 *2460:A2 *2571:A0 3.1562e-06
6 *2460:A2 *2580:A1 2.20732e-05
7 *2460:A2 *2719:CLK 9.09288e-05
8 *2460:A2 *341:42 8.96017e-05
9 *2460:A2 *437:12 2.39856e-05
10 *2460:A2 *445:6 0.000162311
11 *2460:A2 *654:20 0
12 *2606:S *2460:A2 0.000131883
13 *2719:D *2460:A2 3.51254e-06
*RES
1 *2456:X *2460:A2 20.6138 
*END

*D_NET *313 0.00103675
*CONN
*I *2460:A0 I *D sky130_fd_sc_hd__mux4_1
*I *2457:X O *D sky130_fd_sc_hd__mux4_1
*CAP
1 *2460:A0 0.000372967
2 *2457:X 0.000372967
3 *2460:A0 *2457:A2 6.10014e-05
4 *2460:A0 *2457:A3 1.44259e-05
5 *2460:A0 *2457:S1 3.45679e-05
6 *2460:A0 *2580:S 5.64699e-05
7 *2460:A0 *323:114 0
8 *2460:A0 *341:42 5.83121e-06
9 *2460:A2 *2460:A0 0.00011852
*RES
1 *2457:X *2460:A0 13.14 
*END

*D_NET *314 0.0022622
*CONN
*I *2460:A3 I *D sky130_fd_sc_hd__mux4_1
*I *2458:X O *D sky130_fd_sc_hd__mux4_1
*CAP
1 *2460:A3 0.000802906
2 *2458:X 0.000802906
3 *2460:A3 *2458:A2 1.10377e-05
4 *2460:A3 *2476:A0 6.9117e-05
5 *2460:A3 *2606:A0 0.000212251
6 *2460:A3 *2606:A1 4.66108e-05
7 *2460:A3 *2846:A 2.19562e-06
8 *2460:A3 *325:83 0
9 *2460:A3 *654:14 6.55011e-05
10 *2460:A3 *654:16 6.11635e-05
11 *2460:A3 *654:20 0.00018851
*RES
1 *2458:X *2460:A3 19.32 
*END

*D_NET *315 0.00258491
*CONN
*I *2460:A1 I *D sky130_fd_sc_hd__mux4_1
*I *2459:X O *D sky130_fd_sc_hd__mux4_1
*CAP
1 *2460:A1 0.000606389
2 *2459:X 0.000606389
3 *2460:A1 *2459:S1 0.00023635
4 *2460:A1 *2606:A0 0.000197264
5 *2460:A1 *2606:A1 0.000506001
6 *2460:A1 *2846:A 3.79854e-05
7 *2460:A1 *323:114 9.11898e-05
8 *2460:A1 *334:66 0
9 *2606:S *2460:A1 0.000207896
10 *2631:D *2460:A1 0
11 *2785:D *2460:A1 9.54469e-05
*RES
1 *2459:X *2460:A1 21.315 
*END

*D_NET *316 0.00518774
*CONN
*I *2461:A1 I *D sky130_fd_sc_hd__mux2_1
*I *2460:X O *D sky130_fd_sc_hd__mux4_1
*CAP
1 *2461:A1 0.00105338
2 *2460:X 0.00105338
3 *2461:A1 *2420:S0 0.000483941
4 *2461:A1 *2617:CLK 7.57202e-05
5 *2461:A1 *2619:RESET_B 0.00103726
6 *2461:A1 *2623:CLK 8.49205e-05
7 *2461:A1 *670:80 0.000461971
8 *2633:D *2461:A1 9.30717e-05
9 *260:12 *2461:A1 0.000844089
*RES
1 *2460:X *2461:A1 32.04 
*END

*D_NET *317 0.00355619
*CONN
*I *2466:A2 I *D sky130_fd_sc_hd__mux4_1
*I *2462:X O *D sky130_fd_sc_hd__mux4_1
*CAP
1 *2466:A2 0.000734371
2 *2462:X 0.000734371
3 *2466:A2 *2436:S0 1.23883e-05
4 *2466:A2 *2462:S1 0.000283935
5 *2466:A2 *2463:A1 0.000116151
6 *2466:A2 *2466:A3 0
7 *2466:A2 *2477:A0 0.00043044
8 *2466:A2 *2487:A1 0.000467962
9 *2466:A2 *2517:S 1.54111e-05
10 *2466:A2 *2935:A 0.000225175
11 *2466:A2 *639:124 0
12 *2466:A2 *651:103 0.000535986
*RES
1 *2462:X *2466:A2 25.3725 
*END

*D_NET *318 0.00107693
*CONN
*I *2466:A0 I *D sky130_fd_sc_hd__mux4_1
*I *2463:X O *D sky130_fd_sc_hd__mux4_1
*CAP
1 *2466:A0 0.000361848
2 *2463:X 0.000361848
3 *2466:A0 *2463:A2 0.000176624
4 *2466:A0 *2466:A1 0.00011852
5 *2466:A0 *2485:S 0
6 *2466:A0 *446:8 9.79629e-06
7 *2466:A0 *652:63 4.82919e-05
*RES
1 *2463:X *2466:A0 12.585 
*END

*D_NET *319 0.00306912
*CONN
*I *2466:A3 I *D sky130_fd_sc_hd__mux4_1
*I *2464:X O *D sky130_fd_sc_hd__mux4_1
*CAP
1 *2466:A3 0.0010158
2 *2464:X 0.0010158
3 *2466:A3 *2436:S0 5.05521e-05
4 *2466:A3 *2463:A1 5.4256e-05
5 *2466:A3 *2464:A0 3.86529e-05
6 *2466:A3 *2464:A2 1.59999e-05
7 *2466:A3 *2464:S0 8.33886e-05
8 *2466:A3 *2466:S0 5.83121e-06
9 *2466:A3 *2485:S 3.17967e-05
10 *2466:A3 *2517:S 3.45679e-05
11 *2466:A3 *2935:A 8.69212e-05
12 *2466:A3 *2988:A 0.000116158
13 *2466:A3 *652:12 3.68682e-05
14 *2466:A3 *652:31 0.000415168
15 *2466:A3 *652:33 4.43871e-06
16 *2466:A2 *2466:A3 0
17 *2648:D *2466:A3 0
18 *28:17 *2466:A3 6.29218e-05
*RES
1 *2464:X *2466:A3 25.455 
*END

*D_NET *320 0.00454065
*CONN
*I *2466:A1 I *D sky130_fd_sc_hd__mux4_1
*I *2465:X O *D sky130_fd_sc_hd__mux4_1
*CAP
1 *2466:A1 0.00141634
2 *2465:X 0.00141634
3 *2466:A1 *2463:A2 0
4 *2466:A1 *2463:A3 4.54719e-05
5 *2466:A1 *2463:S0 1.01661e-05
6 *2466:A1 *2463:S1 0.000134425
7 *2466:A1 *2465:A0 0.000158536
8 *2466:A1 *2485:S 0
9 *2466:A1 *2552:S 7.23533e-05
10 *2466:A1 *2581:S 4.9968e-05
11 *2466:A1 *2803:A 3.45679e-05
12 *2466:A1 *2883:A 0.000254488
13 *2466:A1 *2955:A 3.6355e-05
14 *2466:A1 *339:44 7.23533e-05
15 *2466:A1 *345:52 0.000238566
16 *2466:A1 *353:22 0.000309184
17 *2466:A1 *353:26 8.5841e-05
18 *2466:A1 *382:12 8.23457e-05
19 *2466:A0 *2466:A1 0.00011852
20 *2688:D *2466:A1 4.82319e-06
*RES
1 *2465:X *2466:A1 35.815 
*END

*D_NET *321 0.000957306
*CONN
*I *2467:A1 I *D sky130_fd_sc_hd__mux2_1
*I *2466:X O *D sky130_fd_sc_hd__mux4_1
*CAP
1 *2467:A1 0.000279724
2 *2466:X 0.000279724
3 *2467:A1 *2467:S 2.67022e-05
4 *2467:A1 *2517:S 0.000344454
5 *2467:A1 *339:40 2.67022e-05
*RES
1 *2466:X *2467:A1 11.28 
*END

*D_NET *322 0.00623204
*CONN
*I *2469:B I *D sky130_fd_sc_hd__nor2_4
*I *2564:A I *D sky130_fd_sc_hd__nor2_4
*I *2555:A I *D sky130_fd_sc_hd__nor2_4
*I *2518:A I *D sky130_fd_sc_hd__nor2_4
*I *2468:X O *D sky130_fd_sc_hd__or3b_4
*CAP
1 *2469:B 3.45092e-05
2 *2564:A 0.000917454
3 *2555:A 0
4 *2518:A 5.34892e-05
5 *2468:X 0.000333162
6 *322:31 0.00132024
7 *322:18 0.00073386
8 *322:10 0.000645255
9 *2469:B *2536:A 8.49205e-05
10 *2469:B *323:80 6.71882e-05
11 *2469:B *326:12 3.57349e-05
12 *2564:A *2509:A 0
13 *2564:A *2564:B 0.000208441
14 *2564:A *2582:B 0
15 *2564:A *2657:CLK 0.000311294
16 *2564:A *2775:CLK 0.000115526
17 *2564:A *324:20 0
18 *2564:A *325:26 5.39961e-05
19 *2564:A *335:19 0
20 *2564:A *337:26 7.00889e-06
21 *2564:A *338:10 0.000196376
22 *2564:A *341:6 0.000123225
23 *2564:A *341:103 0
24 *2564:A *350:19 7.40446e-05
25 *2564:A *635:24 0
26 *322:10 *2468:B 2.75229e-05
27 *322:10 *2743:D 0
28 *322:10 *324:12 0
29 *322:10 *325:67 0
30 *322:10 *326:25 1.52184e-05
31 *322:18 *2518:B 2.49909e-05
32 *322:18 *325:67 0
33 *322:18 *326:25 8.34505e-05
34 *322:18 *326:29 4.43871e-06
35 *322:18 *328:8 1.16578e-05
36 *322:18 *328:10 0.000108761
37 *322:18 *332:12 0
38 *322:18 *342:16 3.47837e-05
39 *322:31 *2384:A 0.000159003
40 *322:31 *2591:B 1.52945e-05
41 *322:31 *325:26 0.000106651
42 *322:31 *325:67 9.54617e-05
43 *322:31 *327:26 5.39961e-05
44 *322:31 *335:19 5.53249e-06
45 *322:31 *479:10 0
46 *2468:A *322:10 6.02123e-05
47 *249:29 *322:10 0.000109338
*RES
1 *2468:X *322:10 9.51 
2 *322:10 *322:18 7.025 
3 *322:18 *2518:A 2.395 
4 *322:18 *322:31 12.265 
5 *322:31 *2555:A 1.6 
6 *322:31 *2564:A 20.645 
7 *322:10 *2469:B 4.74 
*END

*D_NET *323 0.0341267
*CONN
*I *2470:S I *D sky130_fd_sc_hd__mux2_1
*I *2476:S I *D sky130_fd_sc_hd__mux2_1
*I *2472:S I *D sky130_fd_sc_hd__mux2_1
*I *2477:S I *D sky130_fd_sc_hd__mux2_1
*I *2473:S I *D sky130_fd_sc_hd__mux2_1
*I *2475:S I *D sky130_fd_sc_hd__mux2_1
*I *2471:S I *D sky130_fd_sc_hd__mux2_1
*I *2474:S I *D sky130_fd_sc_hd__mux2_1
*I *2469:Y O *D sky130_fd_sc_hd__nor2_4
*CAP
1 *2470:S 2.14552e-05
2 *2476:S 0
3 *2472:S 0
4 *2477:S 2.08101e-05
5 *2473:S 0.000980845
6 *2475:S 0.000592225
7 *2471:S 0
8 *2474:S 0.00112902
9 *2469:Y 9.22433e-05
10 *323:126 0.00189831
11 *323:120 0.00118288
12 *323:114 0.00224894
13 *323:102 0.00217885
14 *323:86 0.000866456
15 *323:80 0.00192817
16 *323:20 0.00208854
17 *323:10 0.00290167
18 *2473:S *2436:S0 9.2741e-05
19 *2473:S *2495:S 0.000159957
20 *2473:S *2517:S 0.0003575
21 *2473:S *2624:CLK 0.000158297
22 *2473:S *2664:CLK 0.00018367
23 *2473:S *3035:A 0.000684934
24 *2473:S *430:8 8.65905e-05
25 *2474:S *2444:S1 0.000562694
26 *2474:S *2474:A1 4.92935e-05
27 *2474:S *2481:A1 4.66108e-05
28 *2474:S *345:128 0.000797595
29 *2474:S *345:152 0.00047359
30 *2474:S *408:6 0.000120655
31 *2474:S *633:34 7.22354e-05
32 *2474:S *642:37 6.36578e-05
33 *2474:S *664:82 0.000201773
34 *2475:S *2452:A1 3.24046e-05
35 *2475:S *2463:A2 0.000121605
36 *2475:S *2463:S1 0
37 *2475:S *2485:A1 0.000119277
38 *2475:S *2581:A1 0
39 *2475:S *2597:S 0
40 *2475:S *2803:A 0
41 *2475:S *2937:A 6.18754e-05
42 *2475:S *2973:A 8.08153e-06
43 *2475:S *339:44 0
44 *2475:S *655:112 5.53249e-06
45 *323:10 *324:12 0
46 *323:10 *326:12 0
47 *323:10 *350:71 1.82476e-05
48 *323:10 *636:117 5.4003e-05
49 *323:20 *2471:A0 2.30292e-05
50 *323:20 *2481:A0 3.86529e-05
51 *323:20 *2481:A1 0.000338852
52 *323:20 *2527:B 0.000158297
53 *323:20 *2545:B 0.000183043
54 *323:20 *2756:D 0
55 *323:20 *2800:A 4.94404e-05
56 *323:20 *2969:A 0.000181249
57 *323:20 *325:34 0.000157602
58 *323:20 *330:10 0.000529414
59 *323:20 *330:12 0.000351299
60 *323:20 *333:46 0.000115383
61 *323:20 *338:10 0
62 *323:20 *338:22 0.000287065
63 *323:20 *408:6 4.66108e-05
64 *323:20 *636:23 0.000126679
65 *323:20 *636:34 0.000150253
66 *323:20 *636:38 0.000122527
67 *323:20 *636:46 0
68 *323:20 *636:70 0.000110683
69 *323:20 *636:104 0.000107627
70 *323:20 *636:117 0.00015046
71 *323:80 *2490:A0 7.06865e-05
72 *323:80 *2536:A 1.47256e-05
73 *323:80 *2959:A 6.58423e-05
74 *323:80 *2976:A 1.34503e-05
75 *323:80 *326:12 4.29198e-05
76 *323:80 *327:26 0.000599137
77 *323:80 *327:34 1.07797e-05
78 *323:80 *332:18 0.000198945
79 *323:80 *332:42 1.37385e-05
80 *323:80 *334:6 0.000531131
81 *323:80 *334:12 8.65961e-05
82 *323:80 *342:16 0.000912213
83 *323:80 *359:123 4.75576e-05
84 *323:80 *643:157 5.3525e-05
85 *323:80 *667:30 3.16756e-05
86 *323:80 *670:80 0
87 *323:86 *2619:RESET_B 0.000112147
88 *323:86 *2959:A 0.000113821
89 *323:86 *332:42 0.000118081
90 *323:86 *643:157 6.00111e-05
91 *323:102 *2458:A0 6.1357e-05
92 *323:102 *2458:A1 0
93 *323:102 *2458:S0 9.44293e-05
94 *323:102 *2470:A1 4.82919e-05
95 *323:102 *2476:A0 0.000404293
96 *323:102 *2486:A1 4.99619e-05
97 *323:102 *2647:CLK 4.88555e-05
98 *323:102 *2919:A 0.000275553
99 *323:102 *332:42 0.000936273
100 *323:102 *342:26 0.000143637
101 *323:102 *643:157 2.05056e-05
102 *323:114 *2457:S1 0
103 *323:114 *2458:A2 0
104 *323:114 *2458:S0 4.82863e-05
105 *323:114 *2459:S1 0
106 *323:114 *2472:A1 5.38986e-06
107 *323:114 *2571:A0 5.84248e-05
108 *323:114 *2571:A1 0
109 *323:114 *2571:S 5.05066e-06
110 *323:114 *2594:A1 7.1635e-05
111 *323:114 *2606:A1 0.000149741
112 *323:114 *2679:CLK 5.42989e-05
113 *323:114 *2995:A 0
114 *323:114 *341:42 0.000180682
115 *323:114 *356:10 0
116 *323:114 *356:12 0
117 *323:114 *357:12 0
118 *323:114 *413:10 0
119 *323:114 *437:12 0.000288997
120 *323:114 *643:157 0
121 *323:114 *662:76 0.000120166
122 *323:120 *2457:S1 0
123 *323:120 *2464:A2 0
124 *323:120 *2464:S1 0
125 *323:120 *2472:A0 0.000140844
126 *323:120 *2472:A1 4.43871e-06
127 *323:120 *2477:A0 2.30292e-05
128 *323:120 *2487:A1 0
129 *323:120 *2640:CLK 8.26696e-05
130 *323:120 *2839:A 7.63125e-05
131 *323:120 *353:106 0
132 *323:120 *356:24 9.29182e-05
133 *323:120 *422:10 0
134 *323:120 *646:16 0
135 *323:120 *662:74 0
136 *323:126 *2462:S1 0.000158577
137 *323:126 *2477:A0 2.16917e-05
138 *323:126 *2973:A 7.88566e-05
139 *323:126 *353:106 0
140 *2460:A0 *323:114 0
141 *2460:A1 *323:114 9.11898e-05
142 *2469:A *323:10 4.54719e-05
143 *2469:A *323:20 0.000137578
144 *2469:B *323:80 6.71882e-05
145 *2479:A *323:20 0.00015356
146 *2573:C_N *323:20 5.87974e-05
147 *2631:D *323:114 0
148 *2632:D *323:120 0
149 *2640:D *323:120 0
150 *2641:D *323:80 8.50642e-05
151 *2647:D *323:102 7.9642e-06
152 *2647:D *323:114 0
153 *2664:D *2473:S 9.03376e-05
154 *2665:D *323:80 0.000118978
155 *2712:D *2475:S 0
156 *2720:D *2475:S 9.37731e-05
157 *2781:D *323:114 7.45881e-05
158 *2781:D *323:120 5.33874e-05
159 *2786:D *323:120 0.000110821
160 *252:12 *323:20 0
161 *259:23 *323:20 0.000204456
*RES
1 *2469:Y *323:10 5.52 
2 *323:10 *323:20 30.845 
3 *323:20 *2474:S 35.21 
4 *323:20 *2471:S 1.6 
5 *323:10 *323:80 49.09 
6 *323:80 *323:86 4.52 
7 *323:86 *323:102 21.085 
8 *323:102 *323:114 29.48 
9 *323:114 *323:120 18.62 
10 *323:120 *323:126 8.09 
11 *323:126 *2475:S 15.435 
12 *323:126 *2473:S 27.19 
13 *323:120 *2477:S 1.96 
14 *323:114 *2472:S 3.6 
15 *323:102 *2476:S 1.6 
16 *323:86 *2470:S 1.96 
*END

*D_NET *324 0.00531625
*CONN
*I *2608:A I *D sky130_fd_sc_hd__nor2_4
*I *2479:B I *D sky130_fd_sc_hd__nor2_4
*I *2582:A I *D sky130_fd_sc_hd__nor2_4
*I *2509:A I *D sky130_fd_sc_hd__nor2_4
*I *2478:Y O *D sky130_fd_sc_hd__nand2_4
*CAP
1 *2608:A 0
2 *2479:B 4.78933e-05
3 *2582:A 6.08407e-05
4 *2509:A 0.000238827
5 *2478:Y 0.000269131
6 *324:20 0.000538881
7 *324:18 0.000495733
8 *324:12 0.000477757
9 *2479:B *2384:A 2.75145e-05
10 *2479:B *633:123 1.19928e-05
11 *2509:A *2510:A1 0
12 *2509:A *325:26 8.94913e-05
13 *2509:A *331:14 0.000179915
14 *2582:A *2657:CLK 0.000163199
15 *324:12 *2498:B 8.53113e-06
16 *324:12 *326:12 0.000338219
17 *324:18 *325:67 0
18 *324:18 *326:29 0.000349492
19 *324:18 *327:26 8.88715e-05
20 *324:18 *328:8 0.00015639
21 *324:18 *635:38 4.38051e-05
22 *324:18 *635:63 0.000155928
23 *324:20 *2527:A 1.52862e-05
24 *324:20 *325:26 0.000176621
25 *324:20 *326:29 0.000360604
26 *324:20 *635:24 0.000335858
27 *324:20 *635:38 0.000183738
28 *2370:B *324:12 0.000122331
29 *2468:A *324:12 2.97004e-06
30 *2469:A *324:12 0
31 *2564:A *2509:A 0
32 *2564:A *324:20 0
33 *175:16 *324:12 5.99393e-05
34 *249:16 *324:12 4.82919e-05
35 *249:29 *324:12 0.000268195
36 *322:10 *324:12 0
37 *323:10 *324:12 0
*RES
1 *2478:Y *324:12 13.22 
2 *324:12 *324:18 7.67 
3 *324:18 *324:20 8.265 
4 *324:20 *2509:A 8.235 
5 *324:20 *2582:A 5.085 
6 *324:18 *2479:B 4.395 
7 *324:12 *2608:A 1.6 
*END

*D_NET *325 0.0323797
*CONN
*I *2480:S I *D sky130_fd_sc_hd__mux2_1
*I *2486:S I *D sky130_fd_sc_hd__mux2_1
*I *2482:S I *D sky130_fd_sc_hd__mux2_1
*I *2487:S I *D sky130_fd_sc_hd__mux2_1
*I *2485:S I *D sky130_fd_sc_hd__mux2_1
*I *2481:S I *D sky130_fd_sc_hd__mux2_1
*I *2483:S I *D sky130_fd_sc_hd__mux2_1
*I *2484:S I *D sky130_fd_sc_hd__mux2_1
*I *2479:Y O *D sky130_fd_sc_hd__nor2_4
*CAP
1 *2480:S 1.55346e-05
2 *2486:S 0.000198747
3 *2482:S 0
4 *2487:S 0
5 *2485:S 0.000961211
6 *2481:S 0
7 *2483:S 0.0017035
8 *2484:S 0.000250583
9 *2479:Y 0
10 *325:93 0.00144136
11 *325:83 0.00193913
12 *325:77 0.00273308
13 *325:67 0.00294616
14 *325:34 0.00288601
15 *325:26 0.00221525
16 *325:6 0.00313859
17 *2480:S *666:14 9.53428e-06
18 *2483:S *2483:A0 5.05437e-05
19 *2483:S *2674:CLK 0.000328209
20 *2483:S *2931:A 2.30292e-05
21 *2483:S *360:22 7.25532e-05
22 *2483:S *360:33 8.30179e-05
23 *2484:S *2474:A1 0.000225175
24 *2484:S *2484:A0 3.23391e-05
25 *2484:S *2578:S 0.000139927
26 *2484:S *647:78 0.000252673
27 *2485:S *2463:S0 0.000125533
28 *2485:S *2463:S1 0.000185398
29 *2485:S *2464:A0 0
30 *2485:S *2464:A1 0
31 *2485:S *2464:S0 9.14049e-05
32 *2485:S *2487:A1 0.000444651
33 *2485:S *2517:A0 0
34 *2485:S *2581:A0 0.000185398
35 *2485:S *2607:S 0.00011852
36 *2485:S *2921:A 0
37 *2485:S *637:104 8.68956e-05
38 *2485:S *645:68 9.32634e-05
39 *2485:S *652:31 0.000852946
40 *2485:S *652:33 0.000132096
41 *2486:S *2486:A0 0.000124895
42 *325:26 *2527:A 0.000371302
43 *325:26 *2591:B 2.50702e-05
44 *325:26 *331:14 0.000202995
45 *325:26 *341:6 3.64998e-06
46 *325:26 *345:152 0.00076846
47 *325:26 *416:8 1.4399e-05
48 *325:26 *635:24 6.5944e-05
49 *325:26 *635:38 0
50 *325:34 *2425:A2 0.00021535
51 *325:34 *2425:A3 0.00029783
52 *325:34 *2425:S1 2.50049e-05
53 *325:34 *2427:S0 0.000288997
54 *325:34 *2427:S1 3.32246e-05
55 *325:34 *2481:A1 1.07797e-05
56 *325:34 *2578:S 6.74407e-05
57 *325:34 *2897:A 0
58 *325:34 *333:46 4.47504e-06
59 *325:34 *338:22 0.000508155
60 *325:34 *339:134 0.000119891
61 *325:34 *345:128 0
62 *325:34 *345:152 0
63 *325:34 *647:78 8.18098e-05
64 *325:34 *647:89 5.11148e-06
65 *325:34 *648:78 9.61344e-05
66 *325:67 *2536:B 0.000203769
67 *325:67 *2609:A0 0.000114424
68 *325:67 *2743:D 4.10476e-05
69 *325:67 *326:29 0
70 *325:67 *327:26 2.42236e-05
71 *325:67 *329:20 7.23602e-05
72 *325:67 *342:16 0.000116158
73 *325:67 *633:123 1.41626e-05
74 *325:67 *635:63 0
75 *325:67 *666:14 0.000214272
76 *325:77 *2458:A1 4.4073e-05
77 *325:77 *2938:A 1.08758e-05
78 *325:77 *666:14 2.30292e-05
79 *325:77 *666:20 0.00024702
80 *325:83 *2434:A0 0.000109939
81 *325:83 *2434:S0 0
82 *325:83 *2457:A1 0.000285202
83 *325:83 *2458:A1 5.87417e-05
84 *325:83 *2460:S1 0
85 *325:83 *2476:A0 7.46281e-05
86 *325:83 *2496:A0 0.000247567
87 *325:83 *2516:A0 7.21296e-06
88 *325:83 *2516:A1 0
89 *325:83 *2516:S 5.83373e-05
90 *325:83 *2779:CLK 0
91 *325:83 *2854:A 0
92 *325:83 *2946:A 5.16348e-05
93 *325:83 *373:12 5.4256e-05
94 *325:83 *646:61 0
95 *325:83 *646:82 0
96 *325:83 *654:20 0
97 *325:93 *2434:A0 0.000179123
98 *325:93 *2482:A0 0.000422079
99 *325:93 *2482:A1 8.49205e-05
100 *325:93 *2602:A1 0
101 *325:93 *2607:S 0.00030462
102 *325:93 *2879:A 0
103 *325:93 *2894:A 3.31204e-05
104 *325:93 *2921:A 0
105 *325:93 *2922:A 2.42236e-05
106 *325:93 *643:39 0
107 *2429:A1 *325:34 0.000245886
108 *2430:A1 *325:34 4.11025e-05
109 *2436:A2 *325:83 0.000113247
110 *2436:A2 *325:93 6.71882e-05
111 *2460:A3 *325:83 0
112 *2466:A0 *2485:S 0
113 *2466:A1 *2485:S 0
114 *2466:A3 *2485:S 3.17967e-05
115 *2509:A *325:26 8.94913e-05
116 *2564:A *325:26 5.39961e-05
117 *2635:D *325:93 6.7449e-05
118 *2664:D *2485:S 0
119 *2714:D *325:34 4.92096e-05
120 *2748:D *2483:S 0.000587403
121 *2780:D *325:26 0
122 *2787:D *325:67 8.23457e-05
123 *322:10 *325:67 0
124 *322:18 *325:67 0
125 *322:31 *325:26 0.000106651
126 *322:31 *325:67 9.54617e-05
127 *323:20 *325:34 0.000157602
128 *324:18 *325:67 0
129 *324:20 *325:26 0.000176621
*RES
1 *2479:Y *325:6 3.6 
2 *325:6 *325:26 31.38 
3 *325:26 *325:34 25.61 
4 *325:34 *2484:S 11.1 
5 *325:34 *2483:S 27.105 
6 *325:26 *2481:S 1.6 
7 *325:6 *325:67 32.255 
8 *325:67 *325:77 15.335 
9 *325:77 *325:83 28.415 
10 *325:83 *325:93 14.255 
11 *325:93 *2485:S 28.185 
12 *325:93 *2487:S 3.6 
13 *325:83 *2482:S 1.6 
14 *325:77 *2486:S 6.81 
15 *325:67 *2480:S 1.96 
*END

*D_NET *326 0.00744041
*CONN
*I *2489:B I *D sky130_fd_sc_hd__nor2_4
*I *2591:A I *D sky130_fd_sc_hd__nor2_4
*I *2527:A I *D sky130_fd_sc_hd__nor2_4
*I *2536:A I *D sky130_fd_sc_hd__nor2_4
*I *2488:X O *D sky130_fd_sc_hd__or3b_4
*CAP
1 *2489:B 0.000414597
2 *2591:A 0
3 *2527:A 0.000506918
4 *2536:A 8.76994e-05
5 *2488:X 0.000344059
6 *326:29 0.000830964
7 *326:25 0.000800454
8 *326:12 0.000493568
9 *2489:B *327:26 3.43327e-05
10 *2489:B *327:99 3.64522e-05
11 *2489:B *328:8 0.000196376
12 *2527:A *2527:B 4.82863e-05
13 *2527:A *330:12 0
14 *2527:A *333:12 4.99619e-05
15 *2527:A *333:46 8.65905e-05
16 *2527:A *339:12 0.000154458
17 *2527:A *345:152 0.00035519
18 *2527:A *350:19 5.4003e-05
19 *2527:A *350:30 9.86365e-05
20 *326:12 *2368:B 0
21 *326:12 *350:71 0
22 *326:29 *2573:B 8.30384e-05
23 *326:29 *342:16 0
24 *326:29 *636:46 0
25 *2468:A *326:12 0
26 *2469:B *2536:A 8.49205e-05
27 *2469:B *326:12 3.57349e-05
28 *2489:A *2489:B 0.000232111
29 *2546:B *2527:A 0.000140905
30 *249:16 *326:12 4.9968e-05
31 *249:29 *326:25 0.000181383
32 *249:29 *326:29 0.000188834
33 *249:37 *326:29 0.000157595
34 *252:12 *2527:A 2.30797e-05
35 *252:12 *326:29 7.46363e-05
36 *322:10 *326:25 1.52184e-05
37 *322:18 *326:25 8.34505e-05
38 *322:18 *326:29 4.43871e-06
39 *323:10 *326:12 0
40 *323:80 *2536:A 1.47256e-05
41 *323:80 *326:12 4.29198e-05
42 *324:12 *326:12 0.000338219
43 *324:18 *326:29 0.000349492
44 *324:20 *2527:A 1.52862e-05
45 *324:20 *326:29 0.000360604
46 *325:26 *2527:A 0.000371302
47 *325:67 *326:29 0
*RES
1 *2488:X *326:12 12.29 
2 *326:12 *2536:A 3.1 
3 *326:12 *326:25 4.145 
4 *326:25 *326:29 9.57 
5 *326:29 *2527:A 16.485 
6 *326:29 *2591:A 3.6 
7 *326:25 *2489:B 10.53 
*END

*D_NET *327 0.0356276
*CONN
*I *2491:S I *D sky130_fd_sc_hd__mux2_1
*I *2494:S I *D sky130_fd_sc_hd__mux2_1
*I *2493:S I *D sky130_fd_sc_hd__mux2_1
*I *2490:S I *D sky130_fd_sc_hd__mux2_1
*I *2492:S I *D sky130_fd_sc_hd__mux2_1
*I *2497:S I *D sky130_fd_sc_hd__mux2_1
*I *2495:S I *D sky130_fd_sc_hd__mux2_1
*I *2496:S I *D sky130_fd_sc_hd__mux2_1
*I *2489:Y O *D sky130_fd_sc_hd__nor2_4
*CAP
1 *2491:S 0.000100782
2 *2494:S 0.000868104
3 *2493:S 0.00210715
4 *2490:S 0
5 *2492:S 0
6 *2497:S 0
7 *2495:S 0.000947832
8 *2496:S 0.000489264
9 *2489:Y 0
10 *327:103 0.00359254
11 *327:99 0.00204474
12 *327:65 0.00135706
13 *327:53 0.00141548
14 *327:34 0.00223015
15 *327:26 0.00236571
16 *327:4 0.00295775
17 *2491:S *2491:A0 4.82863e-05
18 *2493:S *2493:A0 3.72916e-05
19 *2493:S *2493:A1 1.85674e-05
20 *2494:S *2391:A 0
21 *2494:S *2621:CLK 0
22 *2494:S *2774:CLK 0.000113247
23 *2494:S *634:52 0.000670268
24 *2494:S *668:26 0
25 *2494:S *669:44 6.43964e-05
26 *2494:S *669:87 0.00017974
27 *2495:S *2436:S0 0
28 *2495:S *2495:A0 1.71013e-05
29 *2495:S *2497:A0 0.000120186
30 *2495:S *2535:A0 2.67022e-05
31 *2495:S *2624:CLK 0.000729077
32 *2495:S *639:111 0
33 *2495:S *639:124 0.00107322
34 *2496:S *2779:CLK 4.40446e-05
35 *2496:S *2997:A 0.000157393
36 *2496:S *359:84 3.34783e-05
37 *2496:S *643:157 1.36454e-05
38 *327:26 *2518:B 2.75229e-05
39 *327:26 *2519:A0 2.61704e-05
40 *327:26 *2519:A1 0.000279054
41 *327:26 *2536:B 0.000202102
42 *327:26 *2537:A0 4.60584e-05
43 *327:26 *2537:A1 0.000150653
44 *327:26 *2941:A 0
45 *327:26 *328:8 3.79854e-05
46 *327:26 *328:10 0.000111285
47 *327:26 *334:6 0.000542788
48 *327:26 *334:12 8.65961e-05
49 *327:26 *479:10 0
50 *327:26 *643:157 4.66108e-05
51 *327:26 *667:24 0.000421068
52 *327:34 *2420:A2 5.23362e-05
53 *327:34 *2895:A 0.000134538
54 *327:34 *359:82 0.000173548
55 *327:34 *359:84 1.33293e-05
56 *327:34 *643:126 0.00022921
57 *327:34 *643:157 0.000152807
58 *327:34 *667:51 3.60648e-05
59 *327:53 *2434:A0 0.000113247
60 *327:53 *2556:A0 0.000330062
61 *327:53 *2580:S 0
62 *327:53 *2930:A 4.40643e-05
63 *327:53 *3030:A 0.000192125
64 *327:53 *336:65 0
65 *327:53 *339:32 8.03742e-05
66 *327:53 *358:22 0
67 *327:53 *358:61 0
68 *327:53 *666:28 0
69 *327:65 *2436:S0 0.000291777
70 *327:65 *2497:A0 3.09164e-05
71 *327:65 *2707:CLK 8.36923e-05
72 *327:65 *3030:A 0.000337531
73 *327:65 *441:12 0.000109405
74 *327:65 *639:124 0.000216403
75 *327:65 *663:10 2.14129e-05
76 *327:65 *663:16 0.0002133
77 *327:99 *2601:A0 0.000713365
78 *327:99 *2755:D 0
79 *327:99 *2756:D 0.00123663
80 *327:99 *339:134 0.000183142
81 *327:99 *349:56 2.50049e-05
82 *327:99 *349:58 0.00017219
83 *327:99 *639:26 0
84 *327:99 *665:57 3.09233e-05
85 *327:99 *745:10 0.000116853
86 *327:103 *2424:S0 0
87 *327:103 *2425:A0 2.42236e-05
88 *327:103 *2446:S1 0.000361299
89 *327:103 *2575:A1 0.000325309
90 *327:103 *637:62 0.00102814
91 *327:103 *639:26 0.000217171
92 *327:103 *647:89 0
93 *327:103 *665:46 0
94 *327:103 *665:57 0.000364318
95 *2388:B *327:99 0
96 *2388:D_N *327:99 0
97 *2436:A0 *327:65 0.000649557
98 *2436:A2 *327:53 2.59981e-05
99 *2436:A3 *327:65 9.47454e-05
100 *2473:S *2495:S 0.000159957
101 *2489:A *327:26 8.67385e-05
102 *2489:B *327:26 3.43327e-05
103 *2489:B *327:99 3.64522e-05
104 *2625:D *2496:S 4.82319e-06
105 *2625:D *327:34 6.69341e-05
106 *2641:D *327:26 5.68801e-05
107 *2649:D *327:26 1.43717e-05
108 *2665:D *327:26 1.91597e-05
109 *2689:D *327:53 4.94404e-05
110 *2697:D *327:53 9.54399e-05
111 *2779:D *327:53 0
112 *322:31 *327:26 5.39961e-05
113 *323:80 *327:26 0.000599137
114 *323:80 *327:34 1.07797e-05
115 *324:18 *327:26 8.88715e-05
116 *325:67 *327:26 2.42236e-05
*RES
1 *2489:Y *327:4 1.6 
2 *327:4 *327:26 35.935 
3 *327:26 *327:34 16.045 
4 *327:34 *2496:S 8.29 
5 *327:34 *327:53 23.53 
6 *327:53 *327:65 17.75 
7 *327:65 *2495:S 28.185 
8 *327:65 *2497:S 3.6 
9 *327:53 *2492:S 1.6 
10 *327:26 *2490:S 1.6 
11 *327:4 *327:99 31.745 
12 *327:99 *327:103 20.975 
13 *327:103 *2493:S 24.4 
14 *327:103 *2494:S 21.11 
15 *327:99 *2491:S 5.1 
*END

*D_NET *328 0.00151639
*CONN
*I *2608:B I *D sky130_fd_sc_hd__nor2_4
*I *2536:B I *D sky130_fd_sc_hd__nor2_4
*I *2518:B I *D sky130_fd_sc_hd__nor2_4
*I *2498:Y O *D sky130_fd_sc_hd__nand2b_2
*CAP
1 *2608:B 0
2 *2536:B 5.88435e-05
3 *2518:B 1.65547e-05
4 *2498:Y 9.89577e-05
5 *328:10 0.000118819
6 *328:8 0.000142378
7 *2489:B *328:8 0.000196376
8 *322:18 *2518:B 2.49909e-05
9 *322:18 *328:8 1.16578e-05
10 *322:18 *328:10 0.000108761
11 *324:18 *328:8 0.00015639
12 *325:67 *2536:B 0.000203769
13 *327:26 *2518:B 2.75229e-05
14 *327:26 *2536:B 0.000202102
15 *327:26 *328:8 3.79854e-05
16 *327:26 *328:10 0.000111285
*RES
1 *2498:Y *328:8 4.48 
2 *328:8 *328:10 1.83 
3 *328:10 *2518:B 2.05 
4 *328:10 *2536:B 8 
5 *328:8 *2608:B 1.6 
*END

*D_NET *329 0.0398119
*CONN
*I *2504:S I *D sky130_fd_sc_hd__mux2_1
*I *2503:S I *D sky130_fd_sc_hd__mux2_1
*I *2505:S I *D sky130_fd_sc_hd__mux2_1
*I *2501:S I *D sky130_fd_sc_hd__mux2_1
*I *2500:S I *D sky130_fd_sc_hd__mux2_1
*I *2506:S I *D sky130_fd_sc_hd__mux2_1
*I *2502:S I *D sky130_fd_sc_hd__mux2_1
*I *2507:S I *D sky130_fd_sc_hd__mux2_1
*I *2499:Y O *D sky130_fd_sc_hd__nand3b_4
*CAP
1 *2504:S 0.000775957
2 *2503:S 5.0674e-05
3 *2505:S 0.0016299
4 *2501:S 0
5 *2500:S 0.000107286
6 *2506:S 0.000128838
7 *2502:S 0
8 *2507:S 0.000639249
9 *2499:Y 0.00127352
10 *329:111 0.00232068
11 *329:109 0.00141606
12 *329:107 0.00223326
13 *329:105 0.00225295
14 *329:96 0.00113589
15 *329:48 0.00228301
16 *329:38 0.0042067
17 *329:24 0.00276826
18 *329:20 0.00261659
19 *2500:S *2520:S 0
20 *2500:S *359:66 0
21 *2500:S *359:123 8.71001e-05
22 *2503:S *2503:A1 0.000116158
23 *2503:S *3033:A 1.1561e-05
24 *2503:S *659:58 7.36562e-05
25 *2504:S *2613:S 0.00099396
26 *2504:S *2896:A 0
27 *2504:S *2952:A 0.00011686
28 *2504:S *2985:A 4.92014e-05
29 *2504:S *379:10 0.00015829
30 *2504:S *491:10 0.000126734
31 *2504:S *657:19 0
32 *2504:S *657:32 0
33 *2505:S *2503:A1 4.66108e-05
34 *2505:S *2522:A0 4.82863e-05
35 *2505:S *2662:CLK 8.31082e-05
36 *2505:S *388:8 0.00015806
37 *2505:S *428:10 0.000104401
38 *2506:S *2506:A1 6.28765e-05
39 *2507:S *2462:A2 0
40 *2507:S *2462:A3 0
41 *2507:S *2502:A1 9.53428e-06
42 *2507:S *2554:A1 3.86529e-05
43 *2507:S *2561:S 0
44 *2507:S *2563:A0 0.00031916
45 *2507:S *2563:A1 0
46 *2507:S *2899:A 0
47 *2507:S *2979:A 0
48 *2507:S *332:70 0.00071673
49 *2507:S *337:107 0
50 *329:20 *2384:A 0.000196376
51 *329:20 *2422:S0 8.40213e-05
52 *329:20 *375:10 1.74011e-05
53 *329:20 *633:123 0.000119143
54 *329:20 *635:63 2.37321e-05
55 *329:24 *359:123 2.77283e-05
56 *329:24 *375:10 5.35969e-06
57 *329:38 *2506:A1 1.4399e-05
58 *329:38 *2520:S 0
59 *329:38 *2543:S 4.87218e-05
60 *329:38 *2631:CLK 8.40269e-05
61 *329:38 *2893:A 7.44006e-05
62 *329:38 *2895:A 3.72916e-05
63 *329:38 *334:41 0.00113798
64 *329:38 *359:66 0
65 *329:48 *2502:A1 0.000200081
66 *329:48 *2506:A1 2.77183e-05
67 *329:48 *2549:A0 0
68 *329:48 *2549:A1 0
69 *329:48 *2553:A0 0
70 *329:48 *2562:A0 0
71 *329:48 *2562:S 0
72 *329:48 *2853:A 0.000339893
73 *329:48 *2885:A 0.000129056
74 *329:48 *2966:A 0.000110683
75 *329:48 *332:52 0
76 *329:48 *332:70 0
77 *329:48 *337:97 0
78 *329:48 *337:107 0.000332649
79 *329:48 *465:18 0
80 *329:48 *469:10 0.000185405
81 *329:48 *473:10 3.86607e-05
82 *329:48 *653:25 0
83 *329:48 *662:120 0
84 *329:96 *2437:S 0.000307043
85 *329:96 *2501:A0 3.54025e-05
86 *329:96 *2520:A0 5.13155e-05
87 *329:96 *2520:S 0.000687774
88 *329:96 *334:41 6.14613e-05
89 *329:96 *342:67 0
90 *329:105 *2437:S 1.91597e-05
91 *329:105 *2501:A0 1.56428e-05
92 *329:107 *2424:A3 0.000235585
93 *329:107 *2428:A0 0.000155928
94 *329:107 *2531:A1 6.15341e-05
95 *329:107 *2533:S 0
96 *329:107 *2550:S 0.000179277
97 *329:107 *2586:A0 3.86607e-05
98 *329:107 *2595:S 0
99 *329:107 *2701:CLK 0.000140331
100 *329:107 *2920:A 0.000249921
101 *329:107 *2965:A 0.000108329
102 *329:107 *336:10 0.00141183
103 *329:107 *336:14 0.000449163
104 *329:107 *342:77 0
105 *329:107 *642:54 0
106 *329:107 *642:64 0
107 *329:107 *664:10 0
108 *329:111 *2503:A1 3.74161e-05
109 *329:111 *2531:A1 5.83497e-05
110 *329:111 *2613:S 0.000199833
111 *329:111 *2891:A 0.000120655
112 *329:111 *659:62 0.000297669
113 *2422:A0 *329:20 1.83756e-05
114 *2422:A3 *329:20 9.66021e-05
115 *2422:A3 *329:96 0.000113372
116 *2423:A1 *329:20 7.06865e-05
117 *2443:A1 *329:107 3.86607e-05
118 *2454:A1 *2505:S 0.000809573
119 *2620:D *329:107 0
120 *2631:D *329:38 0.000166058
121 *2653:D *2504:S 0.000127602
122 *2660:D *329:107 0
123 *2662:D *2505:S 3.54965e-05
124 *2665:D *2500:S 0.000180682
125 *2676:D *329:107 0.000139245
126 *2693:D *329:107 0
127 *2713:D *329:96 7.48667e-05
128 *2725:D *329:107 0
129 *2791:D *2504:S 4.66108e-05
130 *264:20 *329:107 0.000504936
131 *325:67 *329:20 7.23602e-05
*RES
1 *2499:Y *329:20 25.005 
2 *329:20 *329:24 4.52 
3 *329:24 *329:38 41.15 
4 *329:38 *329:48 36.16 
5 *329:48 *2507:S 20.345 
6 *329:48 *2502:S 1.6 
7 *329:38 *2506:S 8 
8 *329:24 *2500:S 6.51 
9 *329:20 *329:96 28.75 
10 *329:96 *2501:S 1.6 
11 *329:96 *329:105 2.45 
12 *329:105 *329:107 51.615 
13 *329:107 *329:109 2 
14 *329:109 *329:111 11.49 
15 *329:111 *2505:S 26.455 
16 *329:111 *2503:S 7.235 
17 *329:109 *2504:S 22.685 
*END

*D_NET *330 0.00339803
*CONN
*I *2564:B I *D sky130_fd_sc_hd__nor2_4
*I *2509:B I *D sky130_fd_sc_hd__nor2_4
*I *2527:B I *D sky130_fd_sc_hd__nor2_4
*I *2508:X O *D sky130_fd_sc_hd__or2_2
*CAP
1 *2564:B 5.24816e-05
2 *2509:B 0.000122488
3 *2527:B 0.000108166
4 *2508:X 0.000193503
5 *330:12 0.000366355
6 *330:10 0.000381685
7 *2509:B *331:14 8.23457e-05
8 *2509:B *331:50 0.000111285
9 *2527:B *333:46 4.43871e-06
10 *2527:B *345:152 0
11 *2564:B *2775:CLK 0.000275548
12 *330:10 *339:12 0.000206499
13 *330:10 *635:14 4.82863e-05
14 *330:12 *339:12 0.000121694
15 *2527:A *2527:B 4.82863e-05
16 *2527:A *330:12 0
17 *2564:A *2564:B 0.000208441
18 *252:36 *330:10 2.75145e-05
19 *323:20 *2527:B 0.000158297
20 *323:20 *330:10 0.000529414
21 *323:20 *330:12 0.000351299
*RES
1 *2508:X *330:10 10.275 
2 *330:10 *330:12 4.185 
3 *330:12 *2527:B 5.94 
4 *330:12 *2509:B 6.12 
5 *330:10 *2564:B 6.12 
*END

*D_NET *331 0.0386899
*CONN
*I *2511:S I *D sky130_fd_sc_hd__mux2_1
*I *2514:S I *D sky130_fd_sc_hd__mux2_1
*I *2515:S I *D sky130_fd_sc_hd__mux2_1
*I *2513:S I *D sky130_fd_sc_hd__mux2_1
*I *2512:S I *D sky130_fd_sc_hd__mux2_1
*I *2517:S I *D sky130_fd_sc_hd__mux2_1
*I *2516:S I *D sky130_fd_sc_hd__mux2_1
*I *2510:S I *D sky130_fd_sc_hd__mux2_1
*I *2509:Y O *D sky130_fd_sc_hd__nor2_4
*CAP
1 *2511:S 0
2 *2514:S 2.61242e-05
3 *2515:S 0.000877953
4 *2513:S 0.000103429
5 *2512:S 0
6 *2517:S 0.0014072
7 *2516:S 0.00267063
8 *2510:S 0
9 *2509:Y 0
10 *331:110 0.00253194
11 *331:102 0.00298978
12 *331:94 0.0015914
13 *331:56 0.00315575
14 *331:50 0.00274049
15 *331:14 0.00292865
16 *331:4 0.00107165
17 *2513:S *2441:S0 0
18 *2513:S *2513:A0 3.68682e-05
19 *2513:S *342:77 0
20 *2513:S *342:83 0
21 *2514:S *2514:A0 4.66108e-05
22 *2515:S *2439:A3 0.000265565
23 *2515:S *2441:S0 0
24 *2515:S *2513:A0 2.75707e-05
25 *2515:S *2515:A0 0.000139746
26 *2515:S *2515:A1 0
27 *2515:S *2568:S 1.48813e-05
28 *2515:S *2570:S 6.07575e-06
29 *2515:S *2577:S 0.000119756
30 *2515:S *2676:CLK 0.000534666
31 *2515:S *354:108 0.000187381
32 *2515:S *442:6 0.000200615
33 *2516:S *2419:A0 2.75145e-05
34 *2516:S *2419:A1 2.02559e-05
35 *2516:S *2419:A2 1.10377e-05
36 *2516:S *2419:A3 5.05521e-05
37 *2516:S *2419:S0 2.75145e-05
38 *2516:S *2510:A0 7.22354e-05
39 *2516:S *2516:A0 0.000236128
40 *2516:S *2516:A1 0.000158066
41 *2516:S *2713:CLK 0.000155436
42 *2516:S *336:65 0.000873032
43 *2516:S *337:83 0.000208438
44 *2516:S *345:76 2.30292e-05
45 *2516:S *349:14 0.000108761
46 *2516:S *359:38 4.14882e-05
47 *2517:S *2436:S0 2.59744e-05
48 *2517:S *2466:S0 4.39911e-06
49 *2517:S *2466:S1 3.45588e-05
50 *2517:S *2467:S 0
51 *2517:S *2473:A1 0.000136877
52 *2517:S *2512:A1 4.82919e-05
53 *2517:S *2567:A0 5.20968e-05
54 *2517:S *2572:A1 4.88721e-05
55 *2517:S *2572:S 0.000165268
56 *2517:S *2624:RESET_B 1.82476e-05
57 *2517:S *2911:A 0.00018305
58 *2517:S *345:22 0
59 *2517:S *410:12 7.00066e-05
60 *2517:S *632:14 0.000185405
61 *2517:S *639:124 6.63825e-05
62 *2517:S *652:63 0.000382746
63 *331:14 *349:14 0.000313846
64 *331:50 *2756:CLK 1.08758e-05
65 *331:50 *2770:CLK 0.000217176
66 *331:50 *2878:A 0.000525613
67 *331:50 *338:22 0.00167433
68 *331:50 *339:134 0.000131937
69 *331:50 *349:58 0.000170307
70 *331:50 *400:10 0.00011852
71 *331:50 *665:57 0.000127666
72 *331:56 *2512:A0 0.000277223
73 *331:56 *2512:A1 7.66083e-05
74 *331:56 *2575:A1 3.24942e-05
75 *331:56 *2584:A0 2.59835e-05
76 *331:56 *2584:S 0.000122337
77 *331:56 *2990:A 0.000161837
78 *331:56 *3000:A 0.000123225
79 *331:56 *340:16 0.000120655
80 *331:56 *345:12 6.07412e-05
81 *331:56 *345:20 0.000340998
82 *331:56 *360:8 0.00049857
83 *331:94 *2511:A0 2.39856e-05
84 *331:94 *2511:A1 8.49205e-05
85 *331:94 *2575:A1 3.94429e-05
86 *331:102 *2445:S1 0.000159957
87 *331:102 *2447:S1 0.000175207
88 *331:102 *2514:A0 0
89 *331:102 *2575:S 1.7635e-05
90 *331:102 *2604:A0 0.000561259
91 *331:102 *333:108 8.12302e-05
92 *331:102 *333:122 5.50989e-05
93 *331:102 *633:22 1.08012e-05
94 *331:102 *637:62 0.00128205
95 *331:102 *639:59 7.55049e-05
96 *331:102 *642:37 0.000173378
97 *331:102 *650:30 0.000427489
98 *331:110 *2447:S1 4.9968e-05
99 *331:110 *2514:A0 0.00016063
100 *331:110 *2514:A1 0.000312172
101 *331:110 *2676:CLK 0.000123225
102 *331:110 *370:12 9.74635e-05
103 *2422:A0 *2516:S 1.67341e-05
104 *2430:A0 *331:102 6.74418e-05
105 *2448:A0 *331:102 0
106 *2448:A3 *331:102 0.000258509
107 *2466:A2 *2517:S 1.54111e-05
108 *2466:A3 *2517:S 3.45679e-05
109 *2467:A1 *2517:S 0.000344454
110 *2473:S *2517:S 0.0003575
111 *2509:A *331:14 0.000179915
112 *2509:B *331:14 8.23457e-05
113 *2509:B *331:50 0.000111285
114 *2657:D *2516:S 7.02414e-05
115 *2659:D *331:56 5.30673e-05
116 *2661:D *331:102 0
117 *2674:D *331:102 0.000206123
118 *2676:D *331:110 0.000164137
119 *2677:D *331:102 0.000148975
120 *2713:D *2516:S 0.000165065
121 *325:26 *331:14 0.000202995
122 *325:83 *2516:S 5.83373e-05
*RES
1 *2509:Y *331:4 1.6 
2 *331:4 *331:14 10.405 
3 *331:14 *2510:S 1.6 
4 *331:14 *2516:S 41.645 
5 *331:4 *331:50 27.4 
6 *331:50 *331:56 30.24 
7 *331:56 *2517:S 33.485 
8 *331:56 *2512:S 1.6 
9 *331:50 *331:94 2.88 
10 *331:94 *331:102 39.38 
11 *331:102 *331:110 27.835 
12 *331:110 *2513:S 5.49 
13 *331:110 *2515:S 24.085 
14 *331:102 *2514:S 4.05 
15 *331:94 *2511:S 1.6 
*END

*D_NET *332 0.0391891
*CONN
*I *2520:S I *D sky130_fd_sc_hd__mux2_1
*I *2519:S I *D sky130_fd_sc_hd__mux2_1
*I *2525:S I *D sky130_fd_sc_hd__mux2_1
*I *2521:S I *D sky130_fd_sc_hd__mux2_1
*I *2526:S I *D sky130_fd_sc_hd__mux2_1
*I *2524:S I *D sky130_fd_sc_hd__mux2_1
*I *2523:S I *D sky130_fd_sc_hd__mux2_1
*I *2522:S I *D sky130_fd_sc_hd__mux2_1
*I *2518:Y O *D sky130_fd_sc_hd__nor2_4
*CAP
1 *2520:S 0.00127437
2 *2519:S 0
3 *2525:S 0
4 *2521:S 2.70328e-05
5 *2526:S 5.24176e-05
6 *2524:S 4.75359e-05
7 *2523:S 0.00125563
8 *2522:S 0
9 *2518:Y 0.00104649
10 *332:92 0.00282361
11 *332:80 0.00356965
12 *332:70 0.00289554
13 *332:52 0.00210015
14 *332:42 0.00363702
15 *332:18 0.00267377
16 *332:12 0.00254174
17 *2520:S *2520:A0 0.000249921
18 *2520:S *2565:A0 3.86607e-05
19 *2520:S *2565:S 0.000100856
20 *2520:S *2592:A0 0
21 *2520:S *2788:CLK 4.18603e-06
22 *2520:S *2873:A 2.23407e-05
23 *2520:S *337:26 0
24 *2520:S *337:28 0
25 *2520:S *359:66 0
26 *2520:S *359:123 9.60047e-05
27 *2520:S *375:10 6.20952e-05
28 *2520:S *666:86 0
29 *2521:S *2521:A0 2.75229e-05
30 *2521:S *2521:A1 9.53428e-06
31 *2521:S *662:40 2.16917e-05
32 *2523:S *2522:A1 0.000150959
33 *2523:S *2523:A0 4.82863e-05
34 *2523:S *2523:A1 1.61831e-05
35 *2523:S *2612:A0 2.03356e-05
36 *2523:S *2612:A1 0.000242599
37 *2523:S *342:83 0.000618615
38 *2523:S *659:33 9.02259e-05
39 *2524:S *2524:A0 8.64421e-05
40 *2526:S *2526:A0 4.99619e-05
41 *332:12 *2421:A0 0.000138799
42 *332:12 *2421:A2 0.000194877
43 *332:12 *2500:A1 0.000131966
44 *332:18 *2500:A1 0.000122331
45 *332:18 *359:123 0
46 *332:18 *667:30 8.87273e-05
47 *332:42 *2458:S0 3.21182e-05
48 *332:42 *2470:A0 4.82919e-05
49 *332:42 *2476:A0 0.00080154
50 *332:42 *2490:A0 0.000238919
51 *332:42 *2519:A1 0.000275548
52 *332:42 *2615:A0 4.82863e-05
53 *332:42 *2687:CLK 0.000231628
54 *332:42 *2960:A 5.44672e-05
55 *332:42 *342:26 0.000280304
56 *332:42 *359:123 0
57 *332:42 *643:157 6.19709e-05
58 *332:42 *653:6 0.000118294
59 *332:42 *653:105 8.40269e-05
60 *332:42 *653:112 0.000342356
61 *332:42 *667:51 2.0514e-05
62 *332:52 *2521:A0 2.49909e-05
63 *332:52 *2525:A0 1.61831e-05
64 *332:52 *2525:A1 2.75145e-05
65 *332:52 *2549:A0 0.00014636
66 *332:52 *2549:A1 0
67 *332:52 *2553:A0 0.000282563
68 *332:52 *2671:CLK 0
69 *332:52 *336:71 0.000206157
70 *332:52 *336:81 0.000385697
71 *332:52 *357:34 0
72 *332:52 *357:43 0
73 *332:52 *653:6 2.16917e-05
74 *332:52 *653:19 0.000128445
75 *332:52 *653:25 0.000317338
76 *332:52 *662:25 2.49909e-05
77 *332:52 *662:40 5.83121e-06
78 *332:52 *662:120 0.000293733
79 *332:70 *2502:A0 0.000366651
80 *332:70 *2502:A1 0
81 *332:70 *2507:A1 0.00011852
82 *332:70 *2554:A0 3.86529e-05
83 *332:70 *2561:S 0
84 *332:70 *2563:A0 0.000320834
85 *332:70 *2853:A 0
86 *332:70 *336:81 0.000915983
87 *332:70 *337:107 0
88 *332:70 *651:71 6.08665e-05
89 *332:70 *662:21 0.000186099
90 *332:70 *662:120 7.47284e-05
91 *332:80 *2561:A0 2.87867e-05
92 *332:80 *2561:A1 0
93 *332:80 *2561:S 0
94 *332:80 *2702:CLK 0
95 *332:80 *2794:CLK 0.000177495
96 *332:80 *2906:A 0.000114492
97 *332:80 *346:37 5.37442e-05
98 *332:80 *390:10 0.000186092
99 *332:80 *651:71 1.26626e-05
100 *332:92 *2453:A2 9.3229e-06
101 *332:92 *2453:A3 6.12863e-05
102 *332:92 *2453:S0 0.00104368
103 *332:92 *2522:A1 4.99619e-05
104 *332:92 *2524:A0 0.000277252
105 *332:92 *2524:A1 0.000198614
106 *332:92 *2614:A0 8.31173e-05
107 *332:92 *2968:A 2.75229e-05
108 *2422:A1 *332:12 3.92318e-05
109 *2422:A3 *2520:S 0
110 *2500:S *2520:S 0
111 *2507:S *332:70 0.00071673
112 *2641:D *332:18 3.39064e-05
113 *2649:D *332:12 4.82863e-05
114 *2650:D *2520:S 0
115 *2656:D *332:80 0
116 *2669:D *2523:S 0.000115484
117 *2670:D *332:80 2.75229e-05
118 *2671:D *332:52 5.72091e-05
119 *2687:D *332:42 2.5195e-05
120 *2691:D *332:52 0.000141606
121 *2694:D *332:80 0.000162325
122 *2695:D *332:52 5.20968e-05
123 *2702:D *332:80 0.000141599
124 *2703:D *332:52 3.68769e-05
125 *2705:D *2520:S 8.09021e-06
126 *2793:D *332:42 0.000123955
127 *322:18 *332:12 0
128 *323:80 *332:18 0.000198945
129 *323:80 *332:42 1.37385e-05
130 *323:86 *332:42 0.000118081
131 *323:102 *332:42 0.000936273
132 *329:38 *2520:S 0
133 *329:48 *332:52 0
134 *329:48 *332:70 0
135 *329:96 *2520:S 0.000687774
*RES
1 *2518:Y *332:12 15.28 
2 *332:12 *332:18 6.845 
3 *332:18 *332:42 42.8 
4 *332:42 *332:52 34.69 
5 *332:52 *332:70 26.9745 
6 *332:70 *332:80 37.52 
7 *332:80 *332:92 28.035 
8 *332:92 *2522:S 1.6 
9 *332:92 *2523:S 23.575 
10 *332:80 *2524:S 2.74 
11 *332:70 *2526:S 4.5 
12 *332:52 *2521:S 2.41 
13 *332:42 *2525:S 1.6 
14 *332:18 *2519:S 3.6 
15 *332:12 *2520:S 32.735 
*END

*D_NET *333 0.0375547
*CONN
*I *2529:S I *D sky130_fd_sc_hd__mux2_1
*I *2532:S I *D sky130_fd_sc_hd__mux2_1
*I *2531:S I *D sky130_fd_sc_hd__mux2_1
*I *2533:S I *D sky130_fd_sc_hd__mux2_1
*I *2530:S I *D sky130_fd_sc_hd__mux2_1
*I *2535:S I *D sky130_fd_sc_hd__mux2_1
*I *2528:S I *D sky130_fd_sc_hd__mux2_1
*I *2534:S I *D sky130_fd_sc_hd__mux2_1
*I *2527:Y O *D sky130_fd_sc_hd__nor2_4
*CAP
1 *2529:S 1.04086e-05
2 *2532:S 4.56736e-05
3 *2531:S 0
4 *2533:S 0.00151447
5 *2530:S 0
6 *2535:S 0.00179034
7 *2528:S 3.55506e-05
8 *2534:S 0.00212044
9 *2527:Y 0
10 *333:122 0.00302416
11 *333:108 0.00255384
12 *333:98 0.00175084
13 *333:58 0.00322145
14 *333:46 0.00270202
15 *333:12 0.00293805
16 *333:4 0.00131101
17 *2529:S *2529:A1 9.50342e-06
18 *2529:S *2881:A 6.43623e-05
19 *2532:S *2532:A0 8.8266e-05
20 *2532:S *2532:A1 5.88334e-05
21 *2532:S *427:10 0.00019637
22 *2533:S *2439:A2 0.000400905
23 *2533:S *2533:A0 0.000134429
24 *2533:S *2708:CLK 0.00029218
25 *2533:S *2943:A 4.82919e-05
26 *2533:S *3031:A 0
27 *2533:S *426:8 1.56428e-05
28 *2534:S *2418:A0 0.000362471
29 *2534:S *2418:A2 1.13785e-05
30 *2534:S *2419:S0 7.71615e-05
31 *2534:S *2697:CLK 1.56428e-05
32 *2534:S *2900:A 5.79405e-05
33 *2534:S *337:26 9.80032e-06
34 *2534:S *340:10 4.43682e-05
35 *2534:S *358:61 0.000104379
36 *2534:S *648:117 9.85703e-06
37 *2535:S *2440:S0 0.000139238
38 *2535:S *2530:A0 9.47454e-05
39 *2535:S *2530:A1 5.83121e-06
40 *2535:S *2535:A1 0
41 *2535:S *2782:CLK 6.58674e-05
42 *2535:S *3000:A 0
43 *2535:S *337:28 0.000284909
44 *2535:S *337:30 0.000192933
45 *2535:S *345:22 7.06865e-05
46 *2535:S *355:75 1.19928e-05
47 *2535:S *425:10 0
48 *2535:S *633:34 0.000124331
49 *2535:S *650:30 1.90772e-05
50 *2535:S *650:32 5.98004e-06
51 *2535:S *650:66 0.000506828
52 *333:12 *2510:A0 9.19143e-05
53 *333:12 *341:103 1.04316e-05
54 *333:12 *349:14 5.86295e-05
55 *333:12 *349:16 6.23375e-05
56 *333:12 *648:117 0
57 *333:12 *666:106 0.000326324
58 *333:46 *2427:A3 0.000401347
59 *333:46 *2427:S0 0.000150004
60 *333:46 *2481:A0 7.4027e-05
61 *333:46 *2481:A1 9.52234e-05
62 *333:46 *2634:CLK 0.000155928
63 *333:46 *2871:A 3.90266e-05
64 *333:46 *345:152 0
65 *333:46 *648:78 3.05295e-05
66 *333:58 *2610:A0 0.000304433
67 *333:58 *2610:S 0.000344459
68 *333:58 *2634:CLK 2.75229e-05
69 *333:58 *345:152 6.55406e-05
70 *333:58 *648:78 0
71 *333:58 *648:86 1.61831e-05
72 *333:98 *2425:A1 0
73 *333:98 *2429:S 0.000490867
74 *333:98 *2529:A1 0.000240029
75 *333:98 *2737:RESET_B 0
76 *333:98 *2910:A 0
77 *333:98 *633:22 0.00107732
78 *333:98 *644:27 1.06624e-05
79 *333:98 *648:78 0.00063737
80 *333:98 *648:86 3.45588e-05
81 *333:108 *2445:S0 0.000231518
82 *333:108 *2774:CLK 4.46707e-05
83 *333:108 *2814:A 0
84 *333:108 *2872:A 8.9014e-05
85 *333:108 *2881:A 6.03272e-05
86 *333:108 *2886:A 0.000181383
87 *333:108 *348:10 0
88 *333:108 *348:32 0
89 *333:108 *348:63 0
90 *333:108 *348:76 0
91 *333:108 *633:22 0.000415068
92 *333:108 *634:52 0
93 *333:108 *639:59 0.000726358
94 *333:108 *639:73 5.42303e-05
95 *333:108 *650:30 1.52776e-05
96 *333:122 *2531:A0 8.65961e-05
97 *333:122 *2677:CLK 0.000200039
98 *333:122 *2717:CLK 6.84312e-05
99 *333:122 *2886:A 0.000152127
100 *333:122 *2918:A 0.000345039
101 *333:122 *338:44 0.000190141
102 *333:122 *443:10 0.000151181
103 *333:122 *642:113 6.0011e-05
104 *2422:A0 *333:12 0
105 *2422:A2 *2534:S 0.000686627
106 *2426:A0 *333:98 5.58088e-05
107 *2429:A0 *333:98 8.73389e-06
108 *2430:A1 *333:58 0.000100391
109 *2431:A1 *333:98 3.19349e-05
110 *2448:A2 *333:108 0.000116853
111 *2448:A3 *333:108 1.97849e-05
112 *2527:A *333:12 4.99619e-05
113 *2527:A *333:46 8.65905e-05
114 *2527:B *333:46 4.43871e-06
115 *2634:D *333:46 7.25605e-05
116 *2644:D *2535:S 0.000446796
117 *2657:D *2534:S 0.000134955
118 *2657:D *333:12 1.82242e-05
119 *2660:D *2533:S 9.95967e-05
120 *2677:D *333:122 0.000336999
121 *2698:D *2535:S 0.000117832
122 *2708:D *2533:S 8.84163e-05
123 *2717:D *333:122 6.50844e-06
124 *2782:D *2535:S 0.000456931
125 *323:20 *333:46 0.000115383
126 *325:34 *333:46 4.47504e-06
127 *329:107 *2533:S 0
128 *331:102 *333:108 8.12302e-05
129 *331:102 *333:122 5.50989e-05
*RES
1 *2527:Y *333:4 1.6 
2 *333:4 *333:12 17.74 
3 *333:12 *2534:S 29.47 
4 *333:12 *2528:S 2.215 
5 *333:4 *333:46 17.755 
6 *333:46 *333:58 26.305 
7 *333:58 *2535:S 43.17 
8 *333:58 *2530:S 1.6 
9 *333:46 *333:98 22.1825 
10 *333:98 *333:108 25.4025 
11 *333:108 *333:122 26.525 
12 *333:122 *2533:S 31.595 
13 *333:122 *2531:S 1.6 
14 *333:108 *2532:S 5.43 
15 *333:98 *2529:S 4.3425 
*END

*D_NET *334 0.036371
*CONN
*I *2537:S I *D sky130_fd_sc_hd__mux2_1
*I *2539:S I *D sky130_fd_sc_hd__mux2_1
*I *2544:S I *D sky130_fd_sc_hd__mux2_1
*I *2540:S I *D sky130_fd_sc_hd__mux2_1
*I *2541:S I *D sky130_fd_sc_hd__mux2_1
*I *2542:S I *D sky130_fd_sc_hd__mux2_1
*I *2543:S I *D sky130_fd_sc_hd__mux2_1
*I *2538:S I *D sky130_fd_sc_hd__mux2_1
*I *2536:Y O *D sky130_fd_sc_hd__nor2_4
*CAP
1 *2537:S 0
2 *2539:S 0
3 *2544:S 0.000488506
4 *2540:S 0
5 *2541:S 0.00122936
6 *2542:S 0
7 *2543:S 0.000342909
8 *2538:S 0.000731177
9 *2536:Y 7.50428e-05
10 *334:93 0.00283071
11 *334:80 0.00305764
12 *334:74 0.00271877
13 *334:66 0.00194088
14 *334:41 0.00352121
15 *334:12 0.00306379
16 *334:6 0.00039627
17 *2538:S *2421:S1 0.000749075
18 *2538:S *2501:A0 8.5242e-05
19 *2538:S *340:16 0
20 *2538:S *644:82 0.00106634
21 *2538:S *664:54 5.39961e-05
22 *2541:S *2441:A0 2.65814e-06
23 *2541:S *2540:A0 0
24 *2541:S *2909:A 0.000131704
25 *2541:S *490:10 0.000159262
26 *2541:S *491:10 4.40446e-05
27 *2543:S *2631:CLK 3.03775e-05
28 *2543:S *357:106 6.36578e-05
29 *2543:S *653:65 0.000236126
30 *2543:S *653:71 0.00011852
31 *2544:S *2465:A1 1.77665e-05
32 *2544:S *2465:S0 8.00491e-05
33 *2544:S *2544:A0 6.94735e-06
34 *2544:S *2813:A 3.1835e-05
35 *2544:S *2888:A 1.77709e-05
36 *2544:S *2916:A 7.0687e-05
37 *2544:S *353:6 4.1745e-05
38 *334:12 *2421:A1 0
39 *334:12 *2421:S0 5.12772e-05
40 *334:12 *2421:S1 0.000369656
41 *334:12 *342:16 1.94892e-05
42 *334:12 *479:10 0
43 *334:41 *2422:S1 1.74678e-05
44 *334:41 *2460:S0 0.000191649
45 *334:41 *2600:A1 0.00015639
46 *334:41 *2606:A1 6.52265e-05
47 *334:41 *2895:A 8.65961e-05
48 *334:41 *342:67 0.000179021
49 *334:41 *413:10 0.000203178
50 *334:66 *2571:A0 0
51 *334:66 *2571:A1 0
52 *334:66 *2580:A0 0
53 *334:66 *341:53 0.000643245
54 *334:66 *341:59 0.00105839
55 *334:66 *342:36 0.000242052
56 *334:66 *356:10 0
57 *334:66 *356:12 0
58 *334:66 *356:14 0
59 *334:66 *356:20 0
60 *334:66 *356:24 0
61 *334:66 *357:12 0.000125209
62 *334:66 *646:16 0
63 *334:66 *662:74 0
64 *334:74 *2572:A0 0.000249234
65 *334:74 *2572:S 0.000337524
66 *334:74 *2597:S 0.000326335
67 *334:74 *2599:A0 0
68 *334:74 *2599:A1 1.94892e-05
69 *334:74 *2901:A 1.92979e-05
70 *334:74 *340:110 0
71 *334:74 *341:59 0.000281758
72 *334:74 *353:80 5.92191e-05
73 *334:74 *353:95 0.000100316
74 *334:74 *356:39 4.65698e-05
75 *334:74 *489:12 0.000210846
76 *334:74 *651:23 7.25036e-05
77 *334:74 *651:29 6.02273e-05
78 *334:80 *2450:A1 0
79 *334:80 *2453:A2 6.72338e-05
80 *334:80 *2542:A0 1.34594e-05
81 *334:80 *2542:A1 5.30673e-05
82 *334:80 *2588:S 0
83 *334:80 *2597:A0 0.000140912
84 *334:80 *2597:S 0.000619535
85 *334:80 *2784:CLK 0.000112097
86 *334:80 *2971:A 1.88904e-05
87 *334:80 *2993:A 8.07863e-05
88 *334:80 *346:12 6.74079e-05
89 *334:80 *346:14 0.000194596
90 *334:80 *353:22 9.86689e-05
91 *334:80 *353:80 4.20983e-05
92 *334:80 *380:10 6.36273e-05
93 *334:80 *595:12 0.000734097
94 *334:80 *641:77 0
95 *334:80 *655:62 0
96 *334:93 *2540:A0 1.91597e-05
97 *334:93 *2540:A1 0.000575399
98 *334:93 *2542:A0 4.85494e-05
99 *334:93 *2542:A1 7.00889e-06
100 *334:93 *2790:CLK 0.00043044
101 *334:93 *490:10 0.000142661
102 *2422:A0 *2538:S 0.000374188
103 *2422:A0 *334:12 7.63125e-05
104 *2422:A1 *334:12 0.000111625
105 *2422:A3 *334:41 9.72473e-05
106 *2423:A1 *334:41 8.49205e-05
107 *2460:A1 *334:66 0
108 *2606:S *334:66 0.000103192
109 *2631:D *334:41 6.43269e-05
110 *2681:D *334:12 0
111 *2683:D *334:74 0
112 *2686:D *334:80 3.68682e-05
113 *2719:D *334:66 0
114 *2752:D *334:80 5.4256e-05
115 *2790:D *334:93 0.000130317
116 *2791:D *2541:S 1.54049e-05
117 *2794:D *2544:S 3.6227e-05
118 *260:12 *334:41 0.000564901
119 *323:80 *334:6 0.000531131
120 *323:80 *334:12 8.65961e-05
121 *327:26 *334:6 0.000542788
122 *327:26 *334:12 8.65961e-05
123 *329:38 *2543:S 4.87218e-05
124 *329:38 *334:41 0.00113798
125 *329:96 *334:41 6.14613e-05
*RES
1 *2536:Y *334:6 6.535 
2 *334:6 *334:12 10.55 
3 *334:12 *2538:S 24.615 
4 *334:12 *334:41 45.42 
5 *334:41 *2543:S 11.675 
6 *334:41 *334:66 31.945 
7 *334:66 *334:74 22.985 
8 *334:74 *334:80 36.995 
9 *334:80 *2542:S 1.6 
10 *334:80 *334:93 29.565 
11 *334:93 *2541:S 24.08 
12 *334:93 *2540:S 1.6 
13 *334:74 *2544:S 14.17 
14 *334:66 *2539:S 1.6 
15 *334:6 *2537:S 1.6 
*END

*D_NET *335 0.00157895
*CONN
*I *2591:B I *D sky130_fd_sc_hd__nor2_4
*I *2555:B I *D sky130_fd_sc_hd__nor2_4
*I *2582:B I *D sky130_fd_sc_hd__nor2_4
*I *2545:Y O *D sky130_fd_sc_hd__nand2b_2
*CAP
1 *2591:B 0.000237029
2 *2555:B 0
3 *2582:B 0.000105414
4 *2545:Y 0
5 *335:19 0.000340319
6 *335:6 0.000208705
7 *2582:B *337:26 0.000231885
8 *2591:B *341:6 0.000273878
9 *2591:B *341:103 3.09164e-05
10 *335:19 *337:26 8.35683e-05
11 *335:19 *341:103 2.13396e-05
12 *2564:A *2582:B 0
13 *2564:A *335:19 0
14 *322:31 *2591:B 1.52945e-05
15 *322:31 *335:19 5.53249e-06
16 *325:26 *2591:B 2.50702e-05
*RES
1 *2545:Y *335:6 3.6 
2 *335:6 *2582:B 6.255 
3 *335:6 *335:19 2.085 
4 *335:19 *2555:B 3.6 
5 *335:19 *2591:B 8.04 
*END

*D_NET *336 0.0339468
*CONN
*I *2547:S I *D sky130_fd_sc_hd__mux2_1
*I *2553:S I *D sky130_fd_sc_hd__mux2_1
*I *2549:S I *D sky130_fd_sc_hd__mux2_1
*I *2552:S I *D sky130_fd_sc_hd__mux2_1
*I *2554:S I *D sky130_fd_sc_hd__mux2_1
*I *2548:S I *D sky130_fd_sc_hd__mux2_1
*I *2551:S I *D sky130_fd_sc_hd__mux2_1
*I *2550:S I *D sky130_fd_sc_hd__mux2_1
*I *2546:Y O *D sky130_fd_sc_hd__nand2b_4
*CAP
1 *2547:S 0
2 *2553:S 8.3964e-06
3 *2549:S 0.00025187
4 *2552:S 0.000661244
5 *2554:S 0
6 *2548:S 0
7 *2551:S 0.000424762
8 *2550:S 0.00119599
9 *2546:Y 0.000732
10 *336:81 0.0017356
11 *336:71 0.00162384
12 *336:65 0.00272349
13 *336:51 0.00365234
14 *336:14 0.00203146
15 *336:10 0.00144121
16 *336:8 0.00299736
17 *2549:S *2549:A0 5.05521e-05
18 *2549:S *2549:A1 1.33293e-05
19 *2550:S *2438:A1 5.05521e-05
20 *2550:S *2725:CLK 1.83847e-05
21 *2550:S *2804:A 3.1835e-05
22 *2550:S *2954:A 0.000160491
23 *2550:S *342:77 0
24 *2550:S *659:116 7.27298e-06
25 *2550:S *661:60 2.36616e-05
26 *2551:S *2551:A1 3.00381e-05
27 *2552:S *2465:S1 0
28 *2552:S *2526:A0 0
29 *2552:S *2552:A1 0
30 *2552:S *2561:S 0.00126443
31 *2552:S *2916:A 0
32 *2552:S *3035:A 0.000119756
33 *2553:S *2553:A1 4.99619e-05
34 *336:8 *2510:A0 0.000124895
35 *336:8 *2545:A_N 5.30673e-05
36 *336:8 *2545:B 3.24055e-05
37 *336:8 *2998:A 0.00026617
38 *336:8 *635:24 6.52265e-05
39 *336:10 *2419:A0 0.000219471
40 *336:10 *2419:S0 9.0949e-05
41 *336:10 *2501:A1 6.02123e-05
42 *336:10 *2574:A1 0.000107912
43 *336:10 *2574:S 1.92979e-05
44 *336:10 *2824:A 0.000103192
45 *336:10 *2957:A 8.48111e-05
46 *336:10 *342:67 0
47 *336:10 *342:77 0
48 *336:10 *360:10 8.78892e-05
49 *336:10 *360:12 0.000112971
50 *336:14 *2912:A 0.00018305
51 *336:14 *2920:A 0.000252282
52 *336:14 *342:77 8.05425e-05
53 *336:14 *360:12 0.000203755
54 *336:14 *360:14 5.4003e-05
55 *336:14 *360:22 0.000116853
56 *336:51 *341:8 0.000495684
57 *336:51 *341:42 0.000634542
58 *336:51 *342:67 0
59 *336:51 *666:69 2.30292e-05
60 *336:51 *666:86 1.12578e-05
61 *336:65 *2547:A1 1.88602e-05
62 *336:65 *2553:A1 4.85494e-05
63 *336:65 *2571:A1 1.33293e-05
64 *336:65 *2571:S 5.30673e-05
65 *336:65 *2583:S 0.000199459
66 *336:65 *2589:A0 4.30188e-05
67 *336:65 *2589:A1 2.48141e-05
68 *336:65 *2589:S 9.19375e-05
69 *336:65 *2663:CLK 1.7386e-05
70 *336:65 *2905:A 6.21247e-05
71 *336:65 *337:83 0.000487694
72 *336:65 *337:95 0.000612588
73 *336:65 *338:109 1.7635e-05
74 *336:65 *340:73 7.42455e-05
75 *336:65 *358:61 0
76 *336:65 *359:14 0.000100561
77 *336:65 *666:28 7.13792e-05
78 *336:81 *2502:A0 0.000144566
79 *336:81 *2554:A0 4.38278e-05
80 *336:81 *2554:A1 1.83756e-05
81 *336:81 *2691:CLK 0
82 *336:81 *2704:CLK 0
83 *336:81 *3035:A 0.00023468
84 *336:81 *353:39 0
85 *336:81 *618:14 0.000163019
86 *336:81 *662:21 7.5431e-05
87 *336:81 *662:120 1.61461e-05
88 *2422:A2 *336:10 0.000137578
89 *2422:A2 *336:51 0.000276064
90 *2466:A1 *2552:S 7.23533e-05
91 *2516:S *336:65 0.000873032
92 *2651:D *336:81 7.45302e-05
93 *2663:D *336:65 4.81347e-05
94 *2667:D *336:81 0.000296088
95 *2688:D *2552:S 0
96 *2689:D *336:65 0
97 *2696:D *336:81 0.000141599
98 *2725:D *2550:S 0.000129574
99 *2788:D *336:10 0.000602689
100 *264:20 *336:10 0.000331031
101 *327:53 *336:65 0
102 *329:107 *2550:S 0.000179277
103 *329:107 *336:10 0.00141183
104 *329:107 *336:14 0.000449163
105 *332:52 *336:71 0.000206157
106 *332:52 *336:81 0.000385697
107 *332:70 *336:81 0.000915983
*RES
1 *2546:Y *336:8 14.745 
2 *336:8 *336:10 30.195 
3 *336:10 *336:14 12.795 
4 *336:14 *2550:S 19.725 
5 *336:14 *2551:S 9.915 
6 *336:10 *2548:S 3.6 
7 *336:8 *336:51 20.03 
8 *336:51 *336:65 42.7975 
9 *336:65 *336:71 7.8425 
10 *336:71 *336:81 31.1 
11 *336:81 *2554:S 1.6 
12 *336:81 *2552:S 21.38 
13 *336:71 *2549:S 7.635 
14 *336:65 *2553:S 2.2225 
15 *336:51 *2547:S 1.6 
*END

*D_NET *337 0.0341035
*CONN
*I *2556:S I *D sky130_fd_sc_hd__mux2_1
*I *2562:S I *D sky130_fd_sc_hd__mux2_1
*I *2558:S I *D sky130_fd_sc_hd__mux2_1
*I *2561:S I *D sky130_fd_sc_hd__mux2_1
*I *2563:S I *D sky130_fd_sc_hd__mux2_1
*I *2557:S I *D sky130_fd_sc_hd__mux2_1
*I *2560:S I *D sky130_fd_sc_hd__mux2_1
*I *2559:S I *D sky130_fd_sc_hd__mux2_1
*I *2555:Y O *D sky130_fd_sc_hd__nor2_4
*CAP
1 *2556:S 0
2 *2562:S 0.000540957
3 *2558:S 0
4 *2561:S 0.00102056
5 *2563:S 7.68281e-05
6 *2557:S 8.43401e-05
7 *2560:S 0.00048484
8 *2559:S 0.000413831
9 *2555:Y 0.00130984
10 *337:107 0.00203824
11 *337:97 0.0013246
12 *337:95 0.00271319
13 *337:83 0.00240739
14 *337:30 0.00192021
15 *337:28 0.00244324
16 *337:26 0.0032661
17 *2557:S *2557:A0 5.30673e-05
18 *2559:S *2438:A3 0
19 *2559:S *637:90 5.33056e-05
20 *2559:S *637:98 0.00052408
21 *2559:S *639:105 1.39062e-05
22 *2559:S *645:162 5.46811e-05
23 *2559:S *659:116 1.9731e-05
24 *2560:S *2443:A0 0.000541107
25 *2560:S *2551:A0 1.46828e-05
26 *2560:S *2560:A0 8.8266e-05
27 *2560:S *2595:S 4.60584e-05
28 *2560:S *634:78 0.000494502
29 *2560:S *634:98 0.00047175
30 *2561:S *2462:A1 0
31 *2561:S *2462:A2 7.70758e-05
32 *2561:S *2462:A3 4.14009e-05
33 *2561:S *2465:S1 0
34 *2561:S *2561:A1 0.00030756
35 *2561:S *2563:A1 7.5416e-05
36 *2561:S *2794:CLK 0
37 *2561:S *2899:A 0.000405111
38 *2561:S *2944:A 0
39 *2561:S *346:37 0
40 *2561:S *346:63 0
41 *2562:S *2456:A2 7.10578e-05
42 *2562:S *2562:A0 4.82863e-05
43 *2562:S *357:26 7.70828e-05
44 *2562:S *453:12 0
45 *2562:S *469:10 5.51158e-05
46 *2563:S *2462:A3 4.41506e-05
47 *2563:S *2563:A1 4.65515e-05
48 *337:26 *2419:S0 0.000153816
49 *337:26 *2565:S 0.000102533
50 *337:26 *2900:A 0.000198945
51 *337:26 *2998:A 1.88904e-05
52 *337:26 *338:84 0.000150833
53 *337:26 *340:63 0.000322674
54 *337:26 *341:6 4.16353e-05
55 *337:26 *341:103 0.000327877
56 *337:26 *423:8 0.00026784
57 *337:26 *447:10 0
58 *337:26 *637:30 7.96104e-06
59 *337:26 *666:86 0
60 *337:28 *2548:A1 0
61 *337:28 *2788:CLK 0
62 *337:28 *425:10 0
63 *337:28 *447:10 0
64 *337:30 *2438:A1 0.000105068
65 *337:30 *2440:A1 9.19758e-05
66 *337:30 *2440:S0 0
67 *337:30 *2557:A0 0
68 *337:30 *2991:A 4.40643e-05
69 *337:30 *342:77 0
70 *337:30 *394:12 0
71 *337:30 *450:12 0
72 *337:30 *637:90 5.20968e-05
73 *337:30 *645:162 0.000105783
74 *337:83 *2619:RESET_B 0.000201706
75 *337:83 *2809:A 0.000456803
76 *337:83 *2823:A 8.8266e-05
77 *337:83 *345:94 7.40446e-05
78 *337:83 *359:14 0.000154828
79 *337:83 *359:38 3.83194e-05
80 *337:83 *666:86 0.000163199
81 *337:95 *2434:S0 1.0121e-05
82 *337:95 *2571:S 0.000653979
83 *337:95 *2946:A 8.8266e-05
84 *337:95 *359:14 0.000337961
85 *337:97 *2558:A0 0.000426021
86 *337:97 *2885:A 0.000132721
87 *337:97 *2950:A 0
88 *337:97 *473:10 3.67779e-05
89 *337:107 *2462:A0 0
90 *337:107 *2462:A2 0.000106349
91 *337:107 *2462:A3 6.71882e-05
92 *337:107 *2789:CLK 7.5431e-05
93 *337:107 *2884:A 0.000293733
94 *337:107 *2904:A 2.34345e-05
95 *337:107 *2979:A 0.000114761
96 *337:107 *662:48 0
97 *2422:A2 *337:26 0.000237869
98 *2442:A2 *2560:S 0.000233004
99 *2442:A3 *337:30 0
100 *2507:S *2561:S 0
101 *2507:S *337:107 0
102 *2516:S *337:83 0.000208438
103 *2520:S *337:26 0
104 *2520:S *337:28 0
105 *2534:S *337:26 9.80032e-06
106 *2535:S *337:28 0.000284909
107 *2535:S *337:30 0.000192933
108 *2552:S *2561:S 0.00126443
109 *2564:A *337:26 7.00889e-06
110 *2582:B *337:26 0.000231885
111 *2620:D *2560:S 5.05521e-05
112 *2644:D *337:30 0.000148983
113 *2666:D *337:28 7.89767e-05
114 *2690:D *337:28 0
115 *2698:D *337:30 6.28843e-05
116 *2705:D *337:28 9.5433e-05
117 *2705:D *337:83 8.65905e-05
118 *2724:D *337:97 0
119 *2724:D *337:107 0
120 *2728:D *2562:S 5.13155e-05
121 *2747:D *337:83 0.000106187
122 *2750:D *337:30 3.18137e-05
123 *2789:D *337:107 0
124 *329:48 *2562:S 0
125 *329:48 *337:97 0
126 *329:48 *337:107 0.000332649
127 *332:70 *2561:S 0
128 *332:70 *337:107 0
129 *332:80 *2561:S 0
130 *335:19 *337:26 8.35683e-05
131 *336:65 *337:83 0.000487694
132 *336:65 *337:95 0.000612588
*RES
1 *2555:Y *337:26 26.3968 
2 *337:26 *337:28 24.075 
3 *337:28 *337:30 21.27 
4 *337:30 *2559:S 7.13547 
5 *337:30 *2560:S 16.515 
6 *337:28 *2557:S 5.085 
7 *337:26 *337:83 22.065 
8 *337:83 *337:95 12.0638 
9 *337:95 *337:97 8.6475 
10 *337:97 *337:107 22.25 
11 *337:107 *2563:S 3.085 
12 *337:107 *2561:S 30.74 
13 *337:97 *2558:S 3.6 
14 *337:95 *2562:S 13.2525 
15 *337:83 *2556:S 1.6 
*END

*D_NET *338 0.0399811
*CONN
*I *2565:S I *D sky130_fd_sc_hd__mux2_1
*I *2567:S I *D sky130_fd_sc_hd__mux2_1
*I *2572:S I *D sky130_fd_sc_hd__mux2_1
*I *2571:S I *D sky130_fd_sc_hd__mux2_1
*I *2566:S I *D sky130_fd_sc_hd__mux2_1
*I *2569:S I *D sky130_fd_sc_hd__mux2_1
*I *2570:S I *D sky130_fd_sc_hd__mux2_1
*I *2568:S I *D sky130_fd_sc_hd__mux2_1
*I *2564:Y O *D sky130_fd_sc_hd__nor2_4
*CAP
1 *2565:S 0.000120058
2 *2567:S 0
3 *2572:S 0.00169112
4 *2571:S 0.00145855
5 *2566:S 0
6 *2569:S 0
7 *2570:S 0.000672325
8 *2568:S 4.8722e-05
9 *2564:Y 0.000197289
10 *338:109 0.00268215
11 *338:90 0.00303332
12 *338:84 0.00207907
13 *338:44 0.00273484
14 *338:32 0.00293967
15 *338:22 0.00180136
16 *338:10 0.00244805
17 *2565:S *666:86 4.99619e-05
18 *2565:S *666:93 2.05056e-05
19 *2568:S *2577:S 4.87263e-05
20 *2570:S *2451:A0 0.000352156
21 *2570:S *2515:A0 1.91597e-05
22 *2570:S *2515:A1 0.000116158
23 *2570:S *2533:A0 1.91597e-05
24 *2570:S *2570:A1 4.66108e-05
25 *2570:S *354:38 0
26 *2570:S *436:8 8.23457e-05
27 *2570:S *656:32 0.000536868
28 *2571:S *2571:A1 2.75229e-05
29 *2571:S *339:18 0.000206381
30 *2571:S *357:12 0
31 *2572:S *2462:S1 0.000378234
32 *2572:S *2517:A0 0.000278117
33 *2572:S *2572:A0 0.00027299
34 *2572:S *2624:CLK 2.8717e-05
35 *2572:S *2911:A 7.37195e-05
36 *2572:S *2932:A 5.83121e-06
37 *2572:S *2935:A 8.65905e-05
38 *2572:S *339:40 0
39 *2572:S *353:95 0.000187759
40 *2572:S *651:29 8.6099e-05
41 *2572:S *663:43 4.43871e-06
42 *338:10 *2756:D 3.55105e-05
43 *338:10 *2800:A 3.67779e-05
44 *338:22 *2424:S0 3.74161e-05
45 *338:22 *2425:A3 8.49388e-05
46 *338:22 *2427:S1 0.000229897
47 *338:22 *2566:A1 2.46936e-05
48 *338:22 *2756:D 0
49 *338:22 *2958:A 4.66108e-05
50 *338:22 *339:134 0.000423615
51 *338:22 *349:56 8.35126e-05
52 *338:22 *349:58 9.3062e-06
53 *338:22 *644:27 7.06865e-05
54 *338:22 *665:12 9.12778e-06
55 *338:22 *665:46 0.000111901
56 *338:22 *665:57 0
57 *338:32 *2424:S0 0.000230435
58 *338:32 *2569:A1 4.21973e-05
59 *338:32 *2578:S 0.000977775
60 *338:32 *2661:CLK 0.000197264
61 *338:32 *2850:A 0.000527074
62 *338:32 *2958:A 7.14699e-05
63 *338:32 *345:128 0.000501635
64 *338:32 *432:6 0.000158965
65 *338:32 *657:82 4.9968e-05
66 *338:32 *657:104 0.00120717
67 *338:44 *2439:A1 9.52646e-05
68 *338:44 *2439:A2 1.60083e-05
69 *338:44 *2439:S1 0.000188323
70 *338:44 *2447:S0 0.000112971
71 *338:44 *2531:A0 0.000114433
72 *338:44 *2531:A1 7.18092e-05
73 *338:44 *2568:A0 4.99619e-05
74 *338:44 *2568:A1 0.000464505
75 *338:44 *2577:A0 0.0001249
76 *338:44 *2577:S 0.00014611
77 *338:44 *2717:CLK 0.000159741
78 *338:44 *347:49 9.9535e-05
79 *338:44 *347:51 6.10014e-05
80 *338:84 *339:14 0.000471698
81 *338:84 *339:18 0.000160432
82 *338:84 *339:134 6.54717e-05
83 *338:84 *340:63 0.000596732
84 *338:90 *339:18 0.000403933
85 *338:90 *340:63 0.000491114
86 *338:109 *2433:A2 9.70699e-05
87 *338:109 *2433:A3 0.00013521
88 *338:109 *2433:S1 0
89 *338:109 *2437:A0 0.000164679
90 *338:109 *2911:A 4.91189e-05
91 *338:109 *340:73 2.82284e-05
92 *338:109 *345:72 0
93 *338:109 *358:22 0.000137777
94 *338:109 *358:26 0.000270912
95 *338:109 *358:61 0.000116944
96 *338:109 *633:129 0
97 *338:109 *663:37 0.000131874
98 *338:109 *663:43 0.000112971
99 *2442:A0 *338:44 4.99619e-05
100 *2515:S *2568:S 1.48813e-05
101 *2515:S *2570:S 6.07575e-06
102 *2517:S *2572:S 0.000165268
103 *2520:S *2565:S 0.000100856
104 *2564:A *338:10 0.000196376
105 *2637:D *338:32 0.000139238
106 *2658:D *338:22 9.30787e-05
107 *2717:D *338:44 9.37731e-05
108 *323:20 *338:10 0
109 *323:20 *338:22 0.000287065
110 *323:114 *2571:S 5.05066e-06
111 *325:34 *338:22 0.000508155
112 *331:50 *338:22 0.00167433
113 *333:122 *338:44 0.000190141
114 *334:74 *2572:S 0.000337524
115 *336:65 *2571:S 5.30673e-05
116 *336:65 *338:109 1.7635e-05
117 *337:26 *2565:S 0.000102533
118 *337:26 *338:84 0.000150833
119 *337:95 *2571:S 0.000653979
*RES
1 *2564:Y *338:10 6.6825 
2 *338:10 *338:22 30.2075 
3 *338:22 *338:32 35.575 
4 *338:32 *338:44 35.245 
5 *338:44 *2568:S 3.01 
6 *338:44 *2570:S 17.12 
7 *338:32 *2569:S 1.6 
8 *338:22 *2566:S 1.6 
9 *338:10 *338:84 4.15053 
10 *338:84 *338:90 1.88987 
11 *338:90 *2571:S 7.72923 
12 *338:90 *338:109 22.6625 
13 *338:109 *2572:S 38.755 
14 *338:109 *2567:S 3.6 
15 *338:84 *2565:S 7.1675 
*END

*D_NET *339 0.0404876
*CONN
*I *2575:S I *D sky130_fd_sc_hd__mux2_1
*I *2578:S I *D sky130_fd_sc_hd__mux2_1
*I *2574:S I *D sky130_fd_sc_hd__mux2_1
*I *2580:S I *D sky130_fd_sc_hd__mux2_1
*I *2576:S I *D sky130_fd_sc_hd__mux2_1
*I *2581:S I *D sky130_fd_sc_hd__mux2_1
*I *2577:S I *D sky130_fd_sc_hd__mux2_1
*I *2579:S I *D sky130_fd_sc_hd__mux2_1
*I *2573:X O *D sky130_fd_sc_hd__or3b_4
*CAP
1 *2575:S 0.000299962
2 *2578:S 0.00112016
3 *2574:S 7.24629e-06
4 *2580:S 0.000935399
5 *2576:S 0.000211112
6 *2581:S 3.3149e-05
7 *2577:S 0.00128944
8 *2579:S 5.70458e-05
9 *2573:X 0.000334428
10 *339:134 0.00422456
11 *339:44 0.00212131
12 *339:40 0.00244625
13 *339:32 0.00263506
14 *339:18 0.00315547
15 *339:14 0.00245088
16 *339:12 0.00414811
17 *2575:S *2566:A0 1.83847e-05
18 *2575:S *2855:A 0.000400995
19 *2575:S *2958:A 4.66108e-05
20 *2575:S *633:22 4.61701e-06
21 *2575:S *642:37 2.38557e-05
22 *2576:S *2433:A3 8.96017e-05
23 *2576:S *2576:A1 0.000231211
24 *2576:S *361:26 0
25 *2577:S *2451:A0 1.61831e-05
26 *2577:S *2451:A2 2.12392e-05
27 *2577:S *2451:S0 3.25591e-05
28 *2577:S *2515:A0 2.7441e-05
29 *2577:S *2515:A1 0.000180415
30 *2577:S *2568:A1 0.000464505
31 *2578:S *2425:A2 0.000106906
32 *2578:S *2425:S1 5.56629e-05
33 *2578:S *2484:A0 0.000332107
34 *2578:S *2578:A1 0.000290677
35 *2578:S *2587:A0 0.000247567
36 *2578:S *2850:A 0.000683229
37 *2578:S *2855:A 0.000192934
38 *2578:S *345:128 0
39 *2578:S *647:67 0
40 *2578:S *647:78 0
41 *2580:S *2457:A2 9.3229e-06
42 *2580:S *2457:S0 3.00355e-05
43 *2580:S *2457:S1 5.05521e-05
44 *2580:S *2460:S1 0.000176791
45 *2580:S *2534:A0 0.00015896
46 *2580:S *2556:A1 0.000270633
47 *2580:S *2915:A 6.1357e-05
48 *2580:S *341:42 8.40269e-05
49 *2580:S *373:12 5.05521e-05
50 *2580:S *646:82 9.18083e-05
51 *2581:S *2463:S1 4.21314e-05
52 *2581:S *2581:A0 2.49909e-05
53 *2581:S *645:72 4.66108e-05
54 *339:12 *350:19 5.23362e-05
55 *339:12 *350:30 0.000187766
56 *339:12 *350:43 0.000159957
57 *339:12 *635:14 4.82863e-05
58 *339:32 *2436:S0 6.99666e-05
59 *339:32 *2460:S1 9.70048e-05
60 *339:32 *2492:A0 0.000136182
61 *339:32 *358:26 0
62 *339:32 *663:16 0.000165557
63 *339:32 *663:33 0.000339893
64 *339:40 *2436:S0 0.00144435
65 *339:40 *2467:S 0
66 *339:40 *2581:A0 3.3814e-05
67 *339:40 *2624:CLK 0
68 *339:40 *2680:CLK 0.000121103
69 *339:40 *2908:A 0.000110492
70 *339:40 *355:90 2.96334e-05
71 *339:40 *358:26 0
72 *339:40 *374:6 1.17437e-05
73 *339:40 *645:72 0.00015639
74 *339:40 *663:37 0
75 *339:40 *663:43 0
76 *339:44 *2450:S0 0.000178321
77 *339:44 *2452:A0 0
78 *339:44 *2452:A1 0
79 *339:44 *2463:S1 0.000139252
80 *339:44 *2570:A0 0.000139252
81 *339:44 *2605:S 4.71081e-05
82 *339:44 *2880:A 5.42303e-05
83 *339:44 *2883:A 2.42236e-05
84 *339:44 *2937:A 0
85 *339:44 *641:42 0
86 *339:44 *645:55 0.000175207
87 *339:44 *645:68 0.000539035
88 *339:134 *2601:A0 0.000119351
89 *2436:A2 *339:32 0.000112509
90 *2448:A1 *2578:S 0.000215332
91 *2454:A0 *2577:S 5.5813e-05
92 *2454:A0 *2579:S 3.64998e-06
93 *2454:A0 *339:44 0
94 *2454:A1 *339:44 0.000324376
95 *2460:A0 *2580:S 5.64699e-05
96 *2466:A1 *2581:S 4.9968e-05
97 *2466:A1 *339:44 7.23533e-05
98 *2467:A1 *339:40 2.67022e-05
99 *2475:S *339:44 0
100 *2484:S *2578:S 0.000139927
101 *2515:S *2577:S 0.000119756
102 *2527:A *339:12 0.000154458
103 *2568:S *2577:S 4.87263e-05
104 *2571:S *339:18 0.000206381
105 *2572:S *339:40 0
106 *2628:D *339:40 0
107 *2638:D *339:44 0.000141606
108 *2643:D *339:32 0.000117825
109 *2680:D *339:40 6.50844e-06
110 *2707:D *339:40 7.89689e-05
111 *2715:D *2576:S 0.000123225
112 *2715:D *339:40 8.71001e-05
113 *2784:D *339:44 0
114 *252:12 *339:12 9.68709e-05
115 *252:36 *339:12 2.75145e-05
116 *264:18 *2575:S 0
117 *264:18 *2578:S 0
118 *264:20 *2574:S 1.00941e-05
119 *325:34 *2578:S 6.74407e-05
120 *325:34 *339:134 0.000119891
121 *327:53 *2580:S 0
122 *327:53 *339:32 8.03742e-05
123 *327:99 *339:134 0.000183142
124 *330:10 *339:12 0.000206499
125 *330:12 *339:12 0.000121694
126 *331:50 *339:134 0.000131937
127 *331:102 *2575:S 1.7635e-05
128 *336:10 *2574:S 1.92979e-05
129 *338:22 *339:134 0.000423615
130 *338:32 *2578:S 0.000977775
131 *338:44 *2577:S 0.00014611
132 *338:84 *339:14 0.000471698
133 *338:84 *339:18 0.000160432
134 *338:84 *339:134 6.54717e-05
135 *338:90 *339:18 0.000403933
*RES
1 *2573:X *339:12 14.4725 
2 *339:12 *339:14 2.36867 
3 *339:14 *339:18 3.74267 
4 *339:18 *339:32 17.7225 
5 *339:32 *339:40 34.18 
6 *339:40 *339:44 21.995 
7 *339:44 *2579:S 2.395 
8 *339:44 *2577:S 22.015 
9 *339:40 *2581:S 4.665 
10 *339:32 *2576:S 7.86 
11 *339:18 *2580:S 20.4825 
12 *339:14 *2574:S 4.3325 
13 *339:12 *339:134 5.53087 
14 *339:134 *2578:S 33.1927 
15 *339:134 *2575:S 5.4323 
*END

*D_NET *340 0.031129
*CONN
*I *2583:S I *D sky130_fd_sc_hd__mux2_1
*I *2585:S I *D sky130_fd_sc_hd__mux2_1
*I *2588:S I *D sky130_fd_sc_hd__mux2_1
*I *2590:S I *D sky130_fd_sc_hd__mux2_1
*I *2589:S I *D sky130_fd_sc_hd__mux2_1
*I *2584:S I *D sky130_fd_sc_hd__mux2_1
*I *2587:S I *D sky130_fd_sc_hd__mux2_1
*I *2586:S I *D sky130_fd_sc_hd__mux2_1
*I *2582:Y O *D sky130_fd_sc_hd__nor2_4
*CAP
1 *2583:S 0.000152761
2 *2585:S 3.05202e-05
3 *2588:S 0.000795786
4 *2590:S 4.42492e-05
5 *2589:S 0.000293514
6 *2584:S 2.29104e-05
7 *2587:S 0.000607053
8 *2586:S 0.000318855
9 *2582:Y 0.000138548
10 *340:110 0.00193435
11 *340:100 0.00144531
12 *340:73 0.00224119
13 *340:63 0.00313504
14 *340:24 0.00199881
15 *340:16 0.00202008
16 *340:10 0.00241789
17 *2583:S *2939:A 0.000424675
18 *2583:S *341:42 8.40269e-05
19 *2583:S *633:129 3.16707e-06
20 *2583:S *666:28 7.13792e-05
21 *2583:S *666:60 3.711e-05
22 *2584:S *2584:A0 2.30292e-05
23 *2584:S *345:12 7.40446e-05
24 *2585:S *2585:A0 0.000159329
25 *2585:S *3030:A 0.000159329
26 *2586:S *2551:A0 7.24866e-05
27 *2586:S *2595:A0 8.65961e-05
28 *2586:S *2907:A 8.53113e-06
29 *2586:S *2913:A 0.00031068
30 *2586:S *459:10 0.000195932
31 *2586:S *634:78 7.58604e-05
32 *2587:S *2444:A3 1.34503e-05
33 *2587:S *2551:A1 4.99619e-05
34 *2587:S *2587:A1 3.00381e-05
35 *2587:S *347:10 0.000319091
36 *2587:S *347:12 6.71882e-05
37 *2588:S *2462:S0 0.000273695
38 *2588:S *2465:S1 0
39 *2588:S *2588:A0 7.23602e-05
40 *2588:S *2590:A0 6.23541e-06
41 *2588:S *2616:A0 0.000134379
42 *2588:S *2616:A1 7.98007e-06
43 *2588:S *2890:A 0.000181376
44 *2588:S *2917:A 0
45 *2588:S *2955:A 0.000220712
46 *2588:S *346:12 6.18754e-05
47 *2588:S *346:14 5.20196e-05
48 *2588:S *346:33 2.49909e-05
49 *2588:S *353:22 8.34505e-05
50 *2588:S *353:95 0.000143528
51 *2588:S *651:29 5.4003e-05
52 *2588:S *651:44 0.000152245
53 *2588:S *655:83 2.75229e-05
54 *2589:S *2456:S1 0.000134373
55 *2589:S *2589:A0 8.77516e-05
56 *2589:S *2589:A1 2.54431e-05
57 *2589:S *356:10 2.49909e-05
58 *2590:S *2590:A0 0.000121643
59 *2590:S *2590:A1 4.21518e-05
60 *2590:S *3035:A 0.000194898
61 *2590:S *651:29 5.83121e-06
62 *340:10 *2657:CLK 0.000342784
63 *340:10 *648:117 6.53409e-05
64 *340:16 *2501:A0 8.09021e-06
65 *340:16 *2538:A0 3.86529e-05
66 *340:16 *345:12 0.000122331
67 *340:16 *361:10 0.000561953
68 *340:16 *637:30 4.24292e-06
69 *340:16 *648:117 0.000643905
70 *340:16 *664:43 0.000127602
71 *340:16 *664:54 0.000123425
72 *340:24 *2424:A0 0.000109533
73 *340:24 *2551:A0 0.000117411
74 *340:24 *2551:A1 2.16306e-05
75 *340:24 *2726:CLK 8.97642e-05
76 *340:24 *2855:A 0.000127057
77 *340:24 *2931:A 3.17398e-05
78 *340:24 *2990:A 0
79 *340:24 *341:105 0
80 *340:24 *345:12 1.37864e-05
81 *340:24 *361:10 7.8486e-05
82 *340:24 *456:10 0
83 *340:24 *459:10 9.37731e-05
84 *340:24 *664:10 0
85 *340:63 *2547:A1 0
86 *340:73 *2516:A0 1.61831e-05
87 *340:73 *2516:A1 0.000459372
88 *340:73 *2806:A 9.29176e-05
89 *340:73 *345:76 0.000409929
90 *340:73 *356:10 0.000260889
91 *340:73 *633:129 7.74394e-05
92 *340:100 *2585:A0 0.000116165
93 *340:100 *2594:A0 1.94723e-05
94 *340:100 *2994:A 0.000177534
95 *340:100 *341:59 0
96 *340:100 *342:36 0
97 *340:100 *449:10 0.000116158
98 *340:100 *457:10 7.56019e-05
99 *340:100 *646:27 8.6514e-05
100 *340:100 *646:42 0.000251968
101 *340:110 *2462:A2 0
102 *340:110 *2539:A1 0
103 *340:110 *2585:A0 2.92496e-05
104 *340:110 *2590:A0 5.88634e-05
105 *340:110 *2599:A0 7.01303e-05
106 *340:110 *2599:A1 2.19463e-05
107 *340:110 *2616:S 0
108 *340:110 *2901:A 9.26907e-06
109 *340:110 *2923:A 0.000150453
110 *340:110 *481:10 0.000139238
111 *340:110 *489:12 0.000117411
112 *340:110 *646:27 0.000243952
113 *340:110 *651:23 9.1436e-05
114 *340:110 *651:29 0.00014785
115 *2422:A0 *340:10 7.70424e-07
116 *2422:A0 *340:16 2.89259e-05
117 *2534:S *340:10 4.43682e-05
118 *2538:S *340:16 0
119 *2657:D *340:10 0.000120655
120 *2673:D *340:10 1.7635e-05
121 *2673:D *340:16 0.000297134
122 *2682:D *340:16 0.00028733
123 *2723:D *340:24 9.0754e-05
124 *2726:D *2587:S 8.40213e-05
125 *2748:D *340:24 0
126 *2749:D *340:100 0.000152317
127 *331:56 *2584:S 0.000122337
128 *331:56 *340:16 0.000120655
129 *334:74 *340:110 0
130 *334:80 *2588:S 0
131 *336:65 *2583:S 0.000199459
132 *336:65 *2589:S 9.19375e-05
133 *336:65 *340:73 7.42455e-05
134 *337:26 *340:63 0.000322674
135 *338:84 *340:63 0.000596732
136 *338:90 *340:63 0.000491114
137 *338:109 *340:73 2.82284e-05
*RES
1 *2582:Y *340:10 7.5525 
2 *340:10 *340:16 26.8325 
3 *340:16 *340:24 22.805 
4 *340:24 *2586:S 11.4 
5 *340:24 *2587:S 13.38 
6 *340:16 *2584:S 2.74 
7 *340:10 *340:63 4.12613 
8 *340:63 *340:73 26.7425 
9 *340:73 *2589:S 10.895 
10 *340:73 *340:100 11.63 
11 *340:100 *340:110 21.615 
12 *340:110 *2590:S 5.43 
13 *340:110 *2588:S 21.765 
14 *340:100 *2585:S 5.085 
15 *340:63 *2583:S 9.4725 
*END

*D_NET *341 0.0310328
*CONN
*I *2593:S I *D sky130_fd_sc_hd__mux2_1
*I *2596:S I *D sky130_fd_sc_hd__mux2_1
*I *2595:S I *D sky130_fd_sc_hd__mux2_1
*I *2592:S I *D sky130_fd_sc_hd__mux2_1
*I *2594:S I *D sky130_fd_sc_hd__mux2_1
*I *2599:S I *D sky130_fd_sc_hd__mux2_1
*I *2597:S I *D sky130_fd_sc_hd__mux2_1
*I *2598:S I *D sky130_fd_sc_hd__mux2_1
*I *2591:Y O *D sky130_fd_sc_hd__nor2_4
*CAP
1 *2593:S 9.33918e-05
2 *2596:S 0.000197995
3 *2595:S 0.000307893
4 *2592:S 0
5 *2594:S 0
6 *2599:S 3.91872e-05
7 *2597:S 0.00110795
8 *2598:S 7.89629e-05
9 *2591:Y 9.01031e-05
10 *341:105 0.0014947
11 *341:103 0.00296129
12 *341:59 0.00189797
13 *341:53 0.000937977
14 *341:42 0.00152244
15 *341:8 0.00211802
16 *341:6 0.00283088
17 *2593:S *2593:A1 8.40269e-05
18 *2595:S *2560:A0 1.12578e-05
19 *2595:S *2595:A0 4.66108e-05
20 *2595:S *2907:A 0.000124007
21 *2595:S *2913:A 2.49909e-05
22 *2595:S *342:77 0.000136877
23 *2595:S *347:34 9.82856e-06
24 *2595:S *634:78 0.000503702
25 *2595:S *634:98 0.000313852
26 *2595:S *637:90 0.00102714
27 *2596:S *2443:A0 0
28 *2596:S *2596:A0 8.65961e-05
29 *2596:S *2596:A1 0.00015256
30 *2596:S *347:34 6.21705e-05
31 *2596:S *658:10 4.09479e-05
32 *2596:S *669:44 0.000160641
33 *2596:S *678:12 4.47125e-05
34 *2597:S *2485:A1 0
35 *2597:S *2572:A0 0.000135532
36 *2597:S *2597:A0 3.09233e-05
37 *2597:S *2803:A 0.000228515
38 *2597:S *353:106 0
39 *2597:S *655:62 1.52184e-05
40 *2597:S *655:75 0
41 *2597:S *655:112 0
42 *2598:S *2753:CLK 4.82863e-05
43 *2599:S *2754:CLK 0.000160635
44 *2599:S *2844:A 6.27438e-05
45 *341:8 *2875:A 7.94673e-05
46 *341:8 *666:86 0.000110668
47 *341:42 *2457:A2 0
48 *341:42 *2556:A1 0.000387902
49 *341:42 *2580:A0 4.66108e-05
50 *341:42 *2580:A1 0.000254939
51 *341:42 *2933:A 8.40269e-05
52 *341:42 *2986:A 0.000341825
53 *341:42 *359:66 2.39642e-05
54 *341:42 *437:12 0.000350486
55 *341:42 *445:6 0.000237243
56 *341:42 *643:126 4.68218e-05
57 *341:42 *666:30 6.26945e-05
58 *341:42 *666:60 7.64029e-05
59 *341:42 *666:69 0.000380194
60 *341:42 *666:86 4.99619e-05
61 *341:53 *342:36 0.000700059
62 *341:59 *2539:A1 0.00042276
63 *341:59 *2585:A0 0
64 *341:59 *2607:A0 0
65 *341:59 *2607:A1 5.13155e-05
66 *341:59 *2994:A 3.90266e-05
67 *341:59 *342:36 0.000226862
68 *341:59 *353:128 0
69 *341:59 *489:12 3.26566e-05
70 *341:59 *646:16 0
71 *341:103 *2444:S1 0
72 *341:103 *2510:A0 0.000240782
73 *341:103 *2510:A1 2.46089e-05
74 *341:103 *2593:A0 5.16418e-05
75 *341:103 *2610:A0 0
76 *341:103 *2626:CLK 0.000208484
77 *341:103 *2706:CLK 0.000197382
78 *341:103 *2987:A 0
79 *341:103 *2990:A 0.000177821
80 *341:103 *345:12 0
81 *341:103 *349:14 0.000159196
82 *341:103 *349:16 0.000517454
83 *341:103 *456:10 1.27474e-05
84 *341:103 *637:30 0
85 *341:103 *642:37 0
86 *341:105 *2444:A3 0
87 *341:105 *2444:S0 0
88 *341:105 *2444:S1 0
89 *341:105 *2474:A0 0
90 *341:105 *2551:A1 0.00010727
91 *341:105 *2593:A0 9.54399e-05
92 *341:105 *2706:CLK 0.000141606
93 *341:105 *2826:A 0
94 *341:105 *347:34 0.000115773
95 *341:105 *459:10 0
96 *341:105 *658:10 1.17114e-05
97 *2460:A0 *341:42 5.83121e-06
98 *2460:A2 *341:42 8.96017e-05
99 *2475:S *2597:S 0
100 *2560:S *2595:S 4.60584e-05
101 *2564:A *341:6 0.000123225
102 *2564:A *341:103 0
103 *2580:S *341:42 8.40269e-05
104 *2583:S *341:42 8.40269e-05
105 *2591:B *341:6 0.000273878
106 *2591:B *341:103 3.09164e-05
107 *2629:D *341:105 0.000162325
108 *2630:D *2597:S 6.55406e-05
109 *2712:D *2597:S 5.20968e-05
110 *2719:D *341:42 2.11084e-05
111 *2720:D *2597:S 0
112 *2748:D *341:105 1.44259e-05
113 *2751:D *2596:S 7.63125e-05
114 *2780:D *341:103 0
115 *323:114 *341:42 0.000180682
116 *325:26 *341:6 3.64998e-06
117 *329:107 *2595:S 0
118 *333:12 *341:103 1.04316e-05
119 *334:66 *341:53 0.000643245
120 *334:66 *341:59 0.00105839
121 *334:74 *2597:S 0.000326335
122 *334:74 *341:59 0.000281758
123 *334:80 *2597:S 0.000619535
124 *335:19 *341:103 2.13396e-05
125 *336:51 *341:8 0.000495684
126 *336:51 *341:42 0.000634542
127 *337:26 *341:6 4.16353e-05
128 *337:26 *341:103 0.000327877
129 *340:24 *341:105 0
130 *340:100 *341:59 0
*RES
1 *2591:Y *341:6 4.465 
2 *341:6 *341:8 15.63 
3 *341:8 *341:42 38.975 
4 *341:42 *2598:S 2.74 
5 *341:42 *341:53 10.265 
6 *341:53 *341:59 21.06 
7 *341:59 *2597:S 29.19 
8 *341:59 *2599:S 5.085 
9 *341:53 *2594:S 3.6 
10 *341:8 *2592:S 1.6 
11 *341:6 *341:103 37.85 
12 *341:103 *341:105 17.8275 
13 *341:105 *2595:S 19.7875 
14 *341:105 *2596:S 9.3975 
15 *341:103 *2593:S 5.1 
*END

*D_NET *342 0.0416828
*CONN
*I *2609:S I *D sky130_fd_sc_hd__mux2_1
*I *2610:S I *D sky130_fd_sc_hd__mux2_1
*I *2613:S I *D sky130_fd_sc_hd__mux2_1
*I *2612:S I *D sky130_fd_sc_hd__mux2_1
*I *2614:S I *D sky130_fd_sc_hd__mux2_1
*I *2615:S I *D sky130_fd_sc_hd__mux2_1
*I *2611:S I *D sky130_fd_sc_hd__mux2_1
*I *2616:S I *D sky130_fd_sc_hd__mux2_1
*I *2608:Y O *D sky130_fd_sc_hd__nor2_4
*CAP
1 *2609:S 0.000169288
2 *2610:S 0.000127936
3 *2613:S 0.000362764
4 *2612:S 0
5 *2614:S 0.00155219
6 *2615:S 1.36534e-05
7 *2611:S 0
8 *2616:S 0.00115734
9 *2608:Y 0.0007041
10 *342:83 0.00190593
11 *342:77 0.00273227
12 *342:67 0.00375395
13 *342:36 0.00254285
14 *342:26 0.00458082
15 *342:20 0.00516113
16 *342:16 0.00124261
17 *2609:S *2421:A1 0
18 *2609:S *2421:A3 4.46808e-07
19 *2609:S *2537:A0 0
20 *2609:S *2609:A1 0.000117832
21 *2609:S *2929:A 0
22 *2609:S *667:14 0.000205169
23 *2610:S *2610:A0 8.65961e-05
24 *2613:S *2523:A1 6.05513e-05
25 *2613:S *2531:A1 5.05521e-05
26 *2613:S *2613:A0 8.65961e-05
27 *2614:S *2441:A2 0.000394524
28 *2614:S *2441:S0 5.21714e-05
29 *2614:S *2668:CLK 8.65961e-05
30 *2614:S *2852:A 0.000111901
31 *2614:S *2891:A 0.000139245
32 *2614:S *659:8 2.49909e-05
33 *2615:S *2458:S0 4.66108e-05
34 *2615:S *653:112 4.66108e-05
35 *2616:S *2435:A2 0.000114492
36 *2616:S *2462:A2 3.05373e-05
37 *2616:S *2462:S0 0.000591459
38 *2616:S *2616:A0 8.46717e-05
39 *2616:S *2888:A 0.000212278
40 *2616:S *2934:A 6.14024e-05
41 *2616:S *643:58 0.00022921
42 *2616:S *651:44 0
43 *2616:S *651:59 0.000159156
44 *342:16 *2421:A1 0
45 *342:16 *2421:A3 2.64841e-05
46 *342:26 *2459:S1 0.000186992
47 *342:26 *357:119 3.15708e-05
48 *342:36 *2432:S0 3.31178e-05
49 *342:36 *2456:S1 6.21553e-05
50 *342:36 *2459:S1 0
51 *342:36 *2589:A1 0
52 *342:36 *2594:A0 0.000143266
53 *342:36 *2951:A 8.63479e-05
54 *342:36 *2994:A 4.13249e-05
55 *342:36 *357:16 7.5416e-05
56 *342:36 *357:71 9.37731e-05
57 *342:36 *357:84 0.000206817
58 *342:36 *357:95 0.000361299
59 *342:36 *357:106 0.000183738
60 *342:36 *357:119 0.000356583
61 *342:36 *457:10 2.34345e-05
62 *342:36 *643:58 0.000422766
63 *342:36 *646:42 0
64 *342:36 *662:48 3.62197e-05
65 *342:67 *2419:A0 2.67032e-05
66 *342:67 *2422:S1 0
67 *342:67 *2520:A0 0
68 *342:67 *2574:A1 0.000455452
69 *342:67 *2957:A 0.00058197
70 *342:67 *439:16 9.30787e-05
71 *342:67 *667:24 0.000231512
72 *342:77 *2439:A1 0.000210838
73 *342:77 *2439:S0 0.000122539
74 *342:77 *2440:A1 0
75 *342:77 *2513:A0 0.000124632
76 *342:77 *2531:A1 0.000108447
77 *342:77 *2548:A1 0.000296094
78 *342:77 *2557:A0 0.00010344
79 *342:77 *2824:A 9.9535e-05
80 *342:77 *2912:A 8.97486e-05
81 *342:77 *2991:A 0
82 *342:77 *2992:A 0.000116853
83 *342:77 *360:10 8.53255e-05
84 *342:77 *360:12 0.000221411
85 *342:77 *360:14 2.60986e-05
86 *342:77 *360:22 6.36578e-05
87 *342:77 *370:12 0.000120186
88 *342:77 *394:12 0
89 *342:77 *637:90 0
90 *342:77 *661:31 0.00017944
91 *342:83 *2612:A0 5.05521e-05
92 *2422:A2 *342:67 0
93 *2422:A3 *342:67 9.77596e-05
94 *2423:A1 *342:67 0.000268451
95 *2436:A2 *342:36 1.55796e-05
96 *2442:A1 *2614:S 1.5781e-06
97 *2442:A2 *342:77 0
98 *2442:A3 *342:77 0
99 *2504:S *2613:S 0.00099396
100 *2513:S *342:77 0
101 *2513:S *342:83 0
102 *2523:S *342:83 0.000618615
103 *2550:S *342:77 0
104 *2595:S *342:77 0.000136877
105 *2606:S *342:36 0
106 *2620:D *342:77 0.000295393
107 *2631:D *342:36 0
108 *2650:D *342:67 0.000186101
109 *2660:D *2613:S 0.000109101
110 *2668:D *2614:S 9.20132e-05
111 *2681:D *342:16 5.53249e-06
112 *2713:D *342:67 2.35512e-05
113 *2724:D *342:36 0.000243525
114 *2725:D *342:77 5.20968e-05
115 *2729:D *2616:S 0.000139933
116 *2788:D *342:67 0.000111513
117 *2788:D *342:77 3.25997e-05
118 *264:20 *342:67 0
119 *322:18 *342:16 3.47837e-05
120 *323:80 *342:16 0.000912213
121 *323:102 *342:26 0.000143637
122 *325:67 *342:16 0.000116158
123 *326:29 *342:16 0
124 *329:96 *342:67 0
125 *329:107 *342:77 0
126 *329:111 *2613:S 0.000199833
127 *332:42 *342:26 0.000280304
128 *333:58 *2610:S 0.000344459
129 *334:12 *342:16 1.94892e-05
130 *334:41 *342:67 0.000179021
131 *334:66 *342:36 0.000242052
132 *336:10 *342:67 0
133 *336:10 *342:77 0
134 *336:14 *342:77 8.05425e-05
135 *336:51 *342:67 0
136 *337:30 *342:77 0
137 *340:100 *342:36 0
138 *340:110 *2616:S 0
139 *341:53 *342:36 0.000700059
140 *341:59 *342:36 0.000226862
*RES
1 *2608:Y *342:16 18.3625 
2 *342:16 *342:20 1.17893 
3 *342:20 *342:26 6.4443 
4 *342:26 *342:36 37.015 
5 *342:36 *2616:S 27.72 
6 *342:36 *2611:S 3.6 
7 *342:26 *2615:S 4.05 
8 *342:20 *342:67 35.4125 
9 *342:67 *342:77 44.31 
10 *342:77 *342:83 9.515 
11 *342:83 *2614:S 31.325 
12 *342:83 *2612:S 1.6 
13 *342:77 *2613:S 14.745 
14 *342:67 *2610:S 6.81 
15 *342:16 *2609:S 7.4025 
*END

*D_NET *343 0.000659684
*CONN
*I *2730:D I *D sky130_fd_sc_hd__dfstp_1
*I *2363:Y O *D sky130_fd_sc_hd__a21oi_1
*CAP
1 *2730:D 0.000180599
2 *2363:Y 0.000180599
3 *2730:D *669:14 0.00011852
4 *2363:B1 *2730:D 0.000114433
5 *231:12 *2730:D 6.55328e-05
*RES
1 *2363:Y *2730:D 10.41 
*END

*D_NET *344 0.000636438
*CONN
*I *2741:D I *D sky130_fd_sc_hd__dfrtp_1
*I *2329:X O *D sky130_fd_sc_hd__and2_1
*CAP
1 *2741:D 0.000246889
2 *2329:X 0.000246889
3 *177:10 *2741:D 0.000142661
*RES
1 *2329:X *2741:D 10.755 
*END

*D_NET *345 0.036519
*CONN
*I *2802:A I *D sky130_fd_sc_hd__clkbuf_8
*I *2801:A I *D sky130_fd_sc_hd__clkbuf_8
*I *2800:A I *D sky130_fd_sc_hd__clkbuf_8
*I *2799:A I *D sky130_fd_sc_hd__clkbuf_8
*I *2798:A I *D sky130_fd_sc_hd__clkbuf_8
*I *2797:A I *D sky130_fd_sc_hd__clkbuf_8
*I *2811:A I *D sky130_fd_sc_hd__clkbuf_8
*I *2810:A I *D sky130_fd_sc_hd__clkbuf_8
*I *2808:A I *D sky130_fd_sc_hd__clkbuf_8
*I *2809:A I *D sky130_fd_sc_hd__clkbuf_8
*I *2807:A I *D sky130_fd_sc_hd__clkbuf_8
*I *2806:A I *D sky130_fd_sc_hd__clkbuf_8
*I *2796:A I *D sky130_fd_sc_hd__clkbuf_8
*I *2803:A I *D sky130_fd_sc_hd__clkbuf_8
*I *2805:A I *D sky130_fd_sc_hd__clkbuf_8
*I *2804:A I *D sky130_fd_sc_hd__clkbuf_8
*I *2795:X O *D sky130_fd_sc_hd__clkbuf_16
*CAP
1 *2802:A 0.000280368
2 *2801:A 0.000162136
3 *2800:A 5.78592e-05
4 *2799:A 0
5 *2798:A 0.000684255
6 *2797:A 9.61625e-05
7 *2811:A 0.000112739
8 *2810:A 0
9 *2808:A 0
10 *2809:A 8.57522e-05
11 *2807:A 0
12 *2806:A 0.000211176
13 *2796:A 0
14 *2803:A 0.0001607
15 *2805:A 6.10483e-05
16 *2804:A 0.000251106
17 *2795:X 0
18 *345:174 0.00218276
19 *345:161 0.00208629
20 *345:152 0.000975693
21 *345:128 0.00149215
22 *345:126 0.00189811
23 *345:94 0.000185342
24 *345:76 0.00125238
25 *345:72 0.00201318
26 *345:52 0.00168313
27 *345:24 0.000352605
28 *345:22 0.00229523
29 *345:20 0.0023416
30 *345:14 0.000785739
31 *345:12 0.000443601
32 *345:4 0.000780844
33 *2797:A *2444:S1 0
34 *2797:A *657:104 0.000249921
35 *2798:A *2446:A1 0.000246964
36 *2798:A *2446:A2 1.59999e-05
37 *2798:A *2826:A 5.83121e-06
38 *2800:A *2756:D 0
39 *2801:A *670:29 1.03423e-05
40 *2801:A *733:8 4.99619e-05
41 *2802:A *2758:D 0
42 *2802:A *677:25 1.83756e-05
43 *2802:A *733:25 0
44 *2804:A *2550:A0 8.49205e-05
45 *2804:A *2624:RESET_B 0.000104333
46 *2804:A *661:60 0.00025052
47 *2806:A *356:10 0.000201503
48 *2809:A *359:14 0.000348704
49 *2809:A *359:38 0.000110668
50 *2811:A *2424:A3 0
51 *2811:A *2965:A 0
52 *2811:A *664:28 0
53 *345:12 *2584:A0 4.99619e-05
54 *345:12 *2584:A1 0.000218409
55 *345:12 *2990:A 2.0851e-06
56 *345:12 *360:8 0.000199833
57 *345:12 *361:10 0
58 *345:12 *637:30 6.26423e-05
59 *345:14 *360:8 0.000123225
60 *345:20 *2512:A0 0.000239813
61 *345:20 *3000:A 7.35729e-05
62 *345:20 *360:8 0.000101031
63 *345:22 *2493:A1 0.000142662
64 *345:22 *2567:A0 3.47837e-05
65 *345:22 *2624:RESET_B 0.000363276
66 *345:22 *641:10 0
67 *345:22 *659:116 0
68 *345:22 *661:60 0.000156944
69 *345:24 *2624:RESET_B 3.26735e-05
70 *345:24 *661:60 5.02217e-05
71 *345:52 *2463:S1 0.000308713
72 *345:52 *2820:A 0.000138799
73 *345:72 *2433:A2 0
74 *345:72 *2433:S1 0
75 *345:72 *2619:RESET_B 0.000383698
76 *345:72 *2666:CLK 0
77 *345:72 *2675:CLK 0.00018319
78 *345:72 *2911:A 0
79 *345:72 *3000:A 0
80 *345:72 *633:129 0.000222571
81 *345:72 *643:23 0
82 *345:72 *643:116 0
83 *345:72 *670:80 0.00017398
84 *345:76 *2516:A0 0.000238919
85 *345:76 *2516:A1 9.29176e-05
86 *345:94 *2619:RESET_B 0.000220371
87 *345:94 *359:38 8.49205e-05
88 *345:94 *670:80 0.000111939
89 *345:128 *2444:S1 0
90 *345:128 *2897:A 6.16382e-05
91 *345:128 *657:104 0.000139245
92 *345:152 *2427:A3 4.28313e-05
93 *345:152 *2634:CLK 4.4155e-05
94 *345:152 *2871:A 0.000112123
95 *345:152 *648:78 0
96 *345:161 *349:6 0.000131107
97 *345:161 *349:52 4.9253e-06
98 *345:174 *2415:A 7.35729e-05
99 *345:174 *2415:B 1.83847e-05
100 *345:174 *2746:D 0.000161253
101 *345:174 *2757:CLK 5.85534e-05
102 *345:174 *2757:D 0.000111293
103 *345:174 *2761:D 9.18292e-06
104 *345:174 *349:52 5.78185e-05
105 *2426:A1 *345:128 0.00011852
106 *2430:A1 *345:152 0
107 *2437:A1 *345:72 4.40812e-05
108 *2466:A1 *2803:A 3.45679e-05
109 *2466:A1 *345:52 0.000238566
110 *2474:S *345:128 0.000797595
111 *2474:S *345:152 0.00047359
112 *2475:S *2803:A 0
113 *2516:S *345:76 2.30292e-05
114 *2517:S *345:22 0
115 *2527:A *345:152 0.00035519
116 *2527:B *345:152 0
117 *2535:S *345:22 7.06865e-05
118 *2550:S *2804:A 3.1835e-05
119 *2578:S *345:128 0
120 *2584:S *345:12 7.40446e-05
121 *2597:S *2803:A 0.000228515
122 *2619:D *345:72 2.25161e-05
123 *2634:D *345:152 0.000507307
124 *2636:D *345:22 4.61744e-05
125 *2637:D *345:128 0.000140905
126 *2659:D *345:72 0.00048895
127 *2692:D *2804:A 3.00381e-05
128 *2726:D *2797:A 0.000116853
129 *2782:D *345:22 1.07797e-05
130 *264:20 *2811:A 4.61701e-06
131 *323:20 *2800:A 4.94404e-05
132 *325:26 *345:152 0.00076846
133 *325:34 *345:128 0
134 *325:34 *345:152 0
135 *331:56 *345:12 6.07412e-05
136 *331:56 *345:20 0.000340998
137 *333:46 *345:152 0
138 *333:58 *345:152 6.55406e-05
139 *337:83 *2809:A 0.000456803
140 *337:83 *345:94 7.40446e-05
141 *338:10 *2800:A 3.67779e-05
142 *338:32 *345:128 0.000501635
143 *338:109 *345:72 0
144 *340:16 *345:12 0.000122331
145 *340:24 *345:12 1.37864e-05
146 *340:73 *2806:A 9.29176e-05
147 *340:73 *345:76 0.000409929
148 *341:103 *345:12 0
*RES
1 *2795:X *345:4 1.6 
2 *345:4 *345:12 11.245 
3 *345:12 *345:14 1.14 
4 *345:14 *345:20 14.885 
5 *345:20 *345:22 16.68 
6 *345:22 *345:24 1.125 
7 *345:24 *2804:A 9.81 
8 *345:24 *2805:A 4.395 
9 *345:22 *345:52 23.27 
10 *345:52 *2803:A 9.05 
11 *345:52 *2796:A 1.6 
12 *345:20 *345:72 20.505 
13 *345:72 *345:76 19.355 
14 *345:76 *2806:A 5.5 
15 *345:76 *2807:A 1.6 
16 *345:72 *345:94 5.45 
17 *345:94 *2809:A 5.845 
18 *345:94 *2808:A 1.6 
19 *345:14 *2810:A 1.6 
20 *345:12 *2811:A 7.235 
21 *345:4 *345:126 8.66 
22 *345:126 *345:128 20.25 
23 *345:128 *2797:A 6.51 
24 *345:128 *2798:A 11.655 
25 *345:126 *345:152 22.505 
26 *345:152 *2799:A 1.6 
27 *345:152 *345:161 3.57 
28 *345:161 *2800:A 6.725 
29 *345:161 *345:174 20.115 
30 *345:174 *2801:A 4.135 
31 *345:174 *2802:A 9.725 
*END

*D_NET *346 0.0132632
*CONN
*I *2812:A I *D sky130_fd_sc_hd__clkbuf_4
*I *2630:CLK I *D sky130_fd_sc_hd__dfxtp_1
*I *2794:CLK I *D sky130_fd_sc_hd__dfxtp_1
*I *2727:CLK I *D sky130_fd_sc_hd__dfxtp_1
*I *2752:CLK I *D sky130_fd_sc_hd__dfxtp_1
*I *2710:CLK I *D sky130_fd_sc_hd__dfxtp_1
*I *2670:CLK I *D sky130_fd_sc_hd__dfxtp_1
*I *2718:CLK I *D sky130_fd_sc_hd__dfxtp_1
*I *2654:CLK I *D sky130_fd_sc_hd__dfxtp_1
*I *2792:CLK I *D sky130_fd_sc_hd__dfxtp_1
*I *2686:CLK I *D sky130_fd_sc_hd__dfxtp_1
*I *2694:CLK I *D sky130_fd_sc_hd__dfxtp_1
*I *2702:CLK I *D sky130_fd_sc_hd__dfxtp_1
*I *2784:CLK I *D sky130_fd_sc_hd__dfxtp_1
*I *2796:X O *D sky130_fd_sc_hd__clkbuf_8
*CAP
1 *2812:A 0
2 *2630:CLK 2.09808e-05
3 *2794:CLK 0.000155985
4 *2727:CLK 0
5 *2752:CLK 0
6 *2710:CLK 0.000567826
7 *2670:CLK 0
8 *2718:CLK 0.000642516
9 *2654:CLK 0.000120092
10 *2792:CLK 0.000183527
11 *2686:CLK 0.000419675
12 *2694:CLK 0
13 *2702:CLK 0.000195984
14 *2784:CLK 0.000188987
15 *2796:X 8.45957e-05
16 *346:104 0.000642516
17 *346:71 0.000858831
18 *346:69 0.000482812
19 *346:67 0.000359099
20 *346:65 0.00103343
21 *346:63 0.000413671
22 *346:59 0.000427471
23 *346:39 0.000366217
24 *346:37 0.000461927
25 *346:33 0.000504949
26 *346:29 0.000459475
27 *346:14 0.000462192
28 *346:12 0.000203971
29 *2718:CLK *380:10 0.000121019
30 *2718:CLK *641:50 0.000288421
31 *2784:CLK *2450:A1 3.05295e-05
32 *2784:CLK *2917:A 8.52172e-05
33 *346:12 *353:22 4.99619e-05
34 *346:14 *2917:A 7.4538e-05
35 *346:29 *2588:A0 1.14169e-05
36 *346:29 *655:83 3.03566e-05
37 *346:33 *2552:A1 0.000275548
38 *346:33 *2561:A1 4.82919e-05
39 *346:33 *2588:A0 0.000195432
40 *346:33 *655:83 4.13645e-05
41 *346:33 *655:92 0.000574841
42 *346:37 *2561:A1 0.000119285
43 *346:59 *476:8 0.000119631
44 *346:63 *2465:S1 5.23362e-05
45 *346:63 *2944:A 8.68724e-05
46 *346:63 *641:77 0
47 *346:65 *2944:A 0.000107716
48 *346:71 *2524:A1 0
49 *2561:S *2794:CLK 0
50 *2561:S *346:37 0
51 *2561:S *346:63 0
52 *2588:S *346:12 6.18754e-05
53 *2588:S *346:14 5.20196e-05
54 *2588:S *346:33 2.49909e-05
55 *2630:D *346:29 0.000200511
56 *2654:D *2654:CLK 5.20335e-05
57 *2670:D *2718:CLK 7.34397e-05
58 *2670:D *346:69 0.000118527
59 *2670:D *346:71 0.000160651
60 *2694:D *346:37 0.000141606
61 *2694:D *346:39 0.000202681
62 *2702:D *2702:CLK 0
63 *332:80 *2702:CLK 0
64 *332:80 *2794:CLK 0.000177495
65 *332:80 *346:37 5.37442e-05
66 *334:80 *2784:CLK 0.000112097
67 *334:80 *346:12 6.74079e-05
68 *334:80 *346:14 0.000194596
*RES
1 *2796:X *346:12 5.79 
2 *346:12 *346:14 3.93 
3 *346:14 *2784:CLK 7.485 
4 *346:14 *346:29 4.865 
5 *346:29 *346:33 9.695 
6 *346:33 *346:37 4.655 
7 *346:37 *346:39 3.21 
8 *346:39 *2702:CLK 8.63 
9 *346:39 *2694:CLK 1.6 
10 *346:37 *346:59 3.9 
11 *346:59 *346:63 5.93 
12 *346:63 *346:65 4.185 
13 *346:65 *346:67 4.185 
14 *346:67 *346:69 1.89 
15 *346:69 *346:71 4.44 
16 *346:71 *2686:CLK 9.99 
17 *346:71 *2792:CLK 6.12 
18 *346:69 *2654:CLK 5.445 
19 *346:67 *346:104 2 
20 *346:104 *2718:CLK 12.88 
21 *346:104 *2670:CLK 1.6 
22 *346:65 *2710:CLK 11.64 
23 *346:63 *2752:CLK 3.6 
24 *346:59 *2727:CLK 1.6 
25 *346:33 *2794:CLK 7.275 
26 *346:29 *2630:CLK 1.96 
27 *346:12 *2812:A 3.6 
*END

*D_NET *347 0.0136337
*CONN
*I *2826:A I *D sky130_fd_sc_hd__clkbuf_8
*I *2661:CLK I *D sky130_fd_sc_hd__dfxtp_1
*I *2709:CLK I *D sky130_fd_sc_hd__dfxtp_1
*I *2660:CLK I *D sky130_fd_sc_hd__dfxtp_1
*I *2677:CLK I *D sky130_fd_sc_hd__dfxtp_1
*I *2717:CLK I *D sky130_fd_sc_hd__dfxtp_1
*I *2685:CLK I *D sky130_fd_sc_hd__dfxtp_1
*I *2653:CLK I *D sky130_fd_sc_hd__dfxtp_1
*I *2791:CLK I *D sky130_fd_sc_hd__dfxtp_1
*I *2669:CLK I *D sky130_fd_sc_hd__dfxtp_1
*I *2751:CLK I *D sky130_fd_sc_hd__dfxtp_1
*I *2693:CLK I *D sky130_fd_sc_hd__dfxtp_1
*I *2701:CLK I *D sky130_fd_sc_hd__dfxtp_1
*I *2797:X O *D sky130_fd_sc_hd__clkbuf_8
*CAP
1 *2826:A 0.000281779
2 *2661:CLK 8.7448e-05
3 *2709:CLK 0
4 *2660:CLK 0.000287589
5 *2677:CLK 0.000207695
6 *2717:CLK 0.000101577
7 *2685:CLK 5.07419e-05
8 *2653:CLK 0
9 *2791:CLK 5.93254e-05
10 *2669:CLK 0.00037128
11 *2751:CLK 0
12 *2693:CLK 0
13 *2701:CLK 0.000316644
14 *2797:X 0
15 *347:129 0.000591384
16 *347:107 0.000309271
17 *347:67 0.000490457
18 *347:65 0.000374459
19 *347:55 0.000776612
20 *347:51 0.000508315
21 *347:49 0.000513633
22 *347:47 0.000583243
23 *347:34 0.000658277
24 *347:12 0.000655538
25 *347:10 0.000696941
26 *347:4 0.00036456
27 *2661:CLK *2532:A1 0.00014294
28 *2661:CLK *2569:A1 0.000161529
29 *2661:CLK *2876:A 1.56428e-05
30 *2677:CLK *443:10 9.66106e-05
31 *2685:CLK *2447:A3 1.34503e-05
32 *2685:CLK *2896:A 1.56428e-05
33 *2701:CLK *2586:A0 7.23602e-05
34 *2791:CLK *3031:A 0.000105841
35 *2826:A *2444:S1 0
36 *347:10 *2444:A3 9.91257e-05
37 *347:10 *2902:A 4.00541e-06
38 *347:10 *475:8 0.000140947
39 *347:12 *475:8 8.49205e-05
40 *347:34 *2443:A0 0
41 *347:34 *2907:A 0.000100528
42 *347:34 *459:10 8.5225e-05
43 *347:47 *2444:A0 7.47145e-05
44 *347:47 *2447:S0 0
45 *347:47 *2596:A0 7.63282e-05
46 *347:47 *467:10 0.000536879
47 *347:47 *639:73 0.000232786
48 *347:47 *657:104 0
49 *347:49 *2447:S0 0
50 *347:49 *657:82 0
51 *347:51 *657:71 0
52 *347:55 *2447:A3 0.000162325
53 *347:55 *2447:S0 0
54 *347:55 *491:10 0
55 *347:55 *657:32 0.000405111
56 *347:55 *657:60 0
57 *347:55 *657:71 0
58 *347:65 *2447:A3 1.83847e-05
59 *347:65 *379:10 0.000154839
60 *347:67 *379:10 5.05437e-05
61 *347:129 *435:6 5.83121e-06
62 *2443:A1 *2701:CLK 7.23602e-05
63 *2587:S *347:10 0.000319091
64 *2587:S *347:12 6.71882e-05
65 *2595:S *347:34 9.82856e-06
66 *2596:S *347:34 6.21705e-05
67 *2653:D *347:65 1.43717e-05
68 *2669:D *2669:CLK 1.43717e-05
69 *2693:D *2701:CLK 0
70 *2693:D *347:12 0.000166946
71 *2701:D *2701:CLK 0
72 *2709:D *347:129 0.000128642
73 *2717:D *2717:CLK 1.43717e-05
74 *2717:D *347:51 4.24292e-06
75 *2717:D *347:55 1.0183e-05
76 *2717:D *347:129 0.000120655
77 *2726:D *2826:A 0.000273878
78 *2751:D *347:34 9.50342e-06
79 *2751:D *347:47 7.7152e-05
80 *2791:D *2791:CLK 7.75325e-05
81 *2798:A *2826:A 5.83121e-06
82 *329:107 *2701:CLK 0.000140331
83 *333:122 *2677:CLK 0.000200039
84 *333:122 *2717:CLK 6.84312e-05
85 *338:32 *2661:CLK 0.000197264
86 *338:44 *2717:CLK 0.000159741
87 *338:44 *347:49 9.9535e-05
88 *338:44 *347:51 6.10014e-05
89 *341:105 *2826:A 0
90 *341:105 *347:34 0.000115773
*RES
1 *2797:X *347:4 1.6 
2 *347:4 *347:10 3.675 
3 *347:10 *347:12 5.97 
4 *347:12 *2701:CLK 11.57 
5 *347:12 *2693:CLK 1.6 
6 *347:10 *347:34 9.97 
7 *347:34 *2751:CLK 1.6 
8 *347:34 *347:47 11.735 
9 *347:47 *347:49 2.4 
10 *347:49 *347:51 1.635 
11 *347:51 *347:55 10.52 
12 *347:55 *347:65 5.865 
13 *347:65 *347:67 1.14 
14 *347:67 *2669:CLK 7.465 
15 *347:67 *2791:CLK 7.745 
16 *347:65 *2653:CLK 1.6 
17 *347:55 *2685:CLK 2.395 
18 *347:51 *347:107 2 
19 *347:107 *2717:CLK 4.135 
20 *347:107 *2677:CLK 6.55 
21 *347:49 *347:129 7.28 
22 *347:129 *2660:CLK 5.845 
23 *347:129 *2709:CLK 1.6 
24 *347:47 *2661:CLK 6.465 
25 *347:4 *2826:A 10.61 
*END

*D_NET *348 0.0104019
*CONN
*I *2774:CLK I *D sky130_fd_sc_hd__dfrtp_1
*I *2769:CLK I *D sky130_fd_sc_hd__dfrtp_1
*I *2637:CLK I *D sky130_fd_sc_hd__dfxtp_1
*I *2783:CLK I *D sky130_fd_sc_hd__dfxtp_1
*I *2629:CLK I *D sky130_fd_sc_hd__dfxtp_1
*I *2726:CLK I *D sky130_fd_sc_hd__dfxtp_1
*I *2645:CLK I *D sky130_fd_sc_hd__dfxtp_1
*I *2814:A I *D sky130_fd_sc_hd__inv_6
*I *2798:X O *D sky130_fd_sc_hd__clkbuf_8
*CAP
1 *2774:CLK 0.00098481
2 *2769:CLK 0
3 *2637:CLK 0.000593107
4 *2783:CLK 0
5 *2629:CLK 0
6 *2726:CLK 7.61668e-05
7 *2645:CLK 3.64111e-05
8 *2814:A 0.000222212
9 *2798:X 6.01546e-05
10 *348:76 0.00108063
11 *348:63 0.000811764
12 *348:38 0.000657551
13 *348:36 0.000887334
14 *348:32 0.000499966
15 *348:10 0.000351667
16 *348:8 0.000224378
17 *2637:CLK *2474:A1 0.00030448
18 *2637:CLK *2604:A1 0.00015639
19 *2637:CLK *2872:A 4.80285e-05
20 *2637:CLK *633:34 0.000316708
21 *2637:CLK *639:59 3.27443e-05
22 *2645:CLK *2494:A1 8.65905e-05
23 *2726:CLK *2551:A1 0.00013994
24 *2774:CLK *363:10 5.0751e-05
25 *2774:CLK *634:52 0
26 *2814:A *2964:A 0.000196376
27 *2814:A *634:60 0.00015829
28 *2814:A *634:78 0.000456803
29 *2814:A *639:59 0.00015896
30 *2814:A *669:44 1.07797e-05
31 *348:8 *634:60 2.49909e-05
32 *348:10 *634:60 0.000164686
33 *348:10 *669:44 2.4997e-05
34 *348:32 *2872:A 2.59981e-05
35 *348:32 *669:44 7.44453e-05
36 *348:36 *2446:A3 0.000149248
37 *348:36 *411:12 3.45588e-05
38 *348:36 *650:30 0.000307049
39 *348:38 *2551:A1 4.66108e-05
40 *348:38 *411:12 0.000163636
41 *348:38 *657:104 0.000193806
42 *348:63 *2872:A 9.68787e-05
43 *348:63 *634:52 0
44 *348:63 *669:44 3.05373e-05
45 *348:76 *2769:D 3.89528e-05
46 *348:76 *634:52 0
47 *2448:A2 *2814:A 8.34281e-06
48 *2494:S *2774:CLK 0.000113247
49 *2629:D *348:38 8.77684e-05
50 *2637:D *2637:CLK 1.43717e-05
51 *2726:D *2726:CLK 4.99619e-05
52 *2783:D *348:36 1.43717e-05
53 *333:108 *2774:CLK 4.46707e-05
54 *333:108 *2814:A 0
55 *333:108 *348:10 0
56 *333:108 *348:32 0
57 *333:108 *348:63 0
58 *333:108 *348:76 0
59 *340:24 *2726:CLK 8.97642e-05
*RES
1 *2798:X *348:8 4.395 
2 *348:8 *348:10 2.4 
3 *348:10 *2814:A 9.99 
4 *348:10 *2645:CLK 4.395 
5 *348:8 *348:32 1.635 
6 *348:32 *348:36 7.97 
7 *348:36 *348:38 10.11 
8 *348:38 *2726:CLK 7.94 
9 *348:38 *2629:CLK 1.6 
10 *348:36 *2783:CLK 1.6 
11 *348:32 *348:63 2.655 
12 *348:63 *2637:CLK 14.415 
13 *348:63 *348:76 1.89 
14 *348:76 *2769:CLK 3.6 
15 *348:76 *2774:CLK 17.28 
*END

*D_NET *349 0.00850735
*CONN
*I *2757:CLK I *D sky130_fd_sc_hd__dfrtp_1
*I *2756:CLK I *D sky130_fd_sc_hd__dfrtp_1
*I *2755:CLK I *D sky130_fd_sc_hd__dfrtp_1
*I *2770:CLK I *D sky130_fd_sc_hd__dfrtp_1
*I *2815:A I *D sky130_fd_sc_hd__inv_6
*I *2673:CLK I *D sky130_fd_sc_hd__dfxtp_1
*I *2780:CLK I *D sky130_fd_sc_hd__dfxtp_1
*I *2626:CLK I *D sky130_fd_sc_hd__dfxtp_1
*I *2799:X O *D sky130_fd_sc_hd__clkbuf_8
*CAP
1 *2757:CLK 8.40226e-05
2 *2756:CLK 7.98002e-05
3 *2755:CLK 0
4 *2770:CLK 0.000315367
5 *2815:A 2.14552e-05
6 *2673:CLK 8.2835e-05
7 *2780:CLK 0
8 *2626:CLK 0.000173285
9 *2799:X 0
10 *349:58 0.000466163
11 *349:56 0.000289402
12 *349:52 0.000219856
13 *349:16 0.000392827
14 *349:14 0.000655102
15 *349:6 0.000582182
16 *349:4 0.000285029
17 *2626:CLK *2437:S 9.65676e-05
18 *2626:CLK *637:30 0
19 *2673:CLK *2528:A0 1.83756e-05
20 *2673:CLK *2940:A 8.57321e-05
21 *2673:CLK *666:106 4.82863e-05
22 *2770:CLK *2430:S 0.000111909
23 *2770:CLK *2601:A0 0.000530329
24 *2770:CLK *2878:A 0.000383684
25 *2770:CLK *400:10 0.000116853
26 *2770:CLK *665:57 0.000353527
27 *349:16 *637:30 0
28 *349:16 *648:117 0
29 *349:56 *2756:D 0.000164679
30 *349:58 *2601:A0 0.000183036
31 *349:58 *2878:A 0.000152814
32 *2430:A0 *2770:CLK 0.000114433
33 *2516:S *349:14 0.000108761
34 *2626:D *2626:CLK 0.000130317
35 *327:99 *349:56 2.50049e-05
36 *327:99 *349:58 0.00017219
37 *331:14 *349:14 0.000313846
38 *331:50 *2756:CLK 1.08758e-05
39 *331:50 *2770:CLK 0.000217176
40 *331:50 *349:58 0.000170307
41 *333:12 *349:14 5.86295e-05
42 *333:12 *349:16 6.23375e-05
43 *338:22 *349:56 8.35126e-05
44 *338:22 *349:58 9.3062e-06
45 *341:103 *2626:CLK 0.000208484
46 *341:103 *349:14 0.000159196
47 *341:103 *349:16 0.000517454
48 *345:161 *349:6 0.000131107
49 *345:161 *349:52 4.9253e-06
50 *345:174 *2757:CLK 5.85534e-05
51 *345:174 *349:52 5.78185e-05
*RES
1 *2799:X *349:4 1.6 
2 *349:4 *349:6 3.555 
3 *349:6 *349:14 9.185 
4 *349:14 *349:16 5.97 
5 *349:16 *2626:CLK 8.175 
6 *349:16 *2780:CLK 3.6 
7 *349:14 *2673:CLK 5.43 
8 *349:6 *2815:A 1.96 
9 *349:4 *349:52 1.485 
10 *349:52 *349:56 4.4 
11 *349:56 *349:58 5.715 
12 *349:58 *2770:CLK 15.735 
13 *349:58 *2755:CLK 3.6 
14 *349:56 *2756:CLK 4.755 
15 *349:52 *2757:CLK 3.085 
*END

*D_NET *350 0.0139613
*CONN
*I *2740:CLK I *D sky130_fd_sc_hd__dfrtp_1
*I *2742:CLK I *D sky130_fd_sc_hd__dfrtp_1
*I *2743:CLK I *D sky130_fd_sc_hd__dfrtp_1
*I *2681:CLK I *D sky130_fd_sc_hd__dfxtp_1
*I *2816:A I *D sky130_fd_sc_hd__inv_6
*I *2744:CLK I *D sky130_fd_sc_hd__dfrtp_1
*I *2775:CLK I *D sky130_fd_sc_hd__dfrtp_1
*I *2657:CLK I *D sky130_fd_sc_hd__dfxtp_1
*I *2800:X O *D sky130_fd_sc_hd__clkbuf_8
*CAP
1 *2740:CLK 0.000114257
2 *2742:CLK 0
3 *2743:CLK 0.000572009
4 *2681:CLK 0.00110994
5 *2816:A 0
6 *2744:CLK 0
7 *2775:CLK 0.0004669
8 *2657:CLK 0.000386764
9 *2800:X 0
10 *350:77 0.000623307
11 *350:71 0.000675267
12 *350:54 0.00189767
13 *350:43 0.000413654
14 *350:30 0.000179837
15 *350:19 0.000557616
16 *350:4 0.000433276
17 *2657:CLK *2510:A1 0.000268739
18 *2657:CLK *648:117 1.08758e-05
19 *2681:CLK *2384:B 5.18312e-05
20 *2681:CLK *2421:S1 2.98926e-05
21 *2681:CLK *479:10 3.07153e-05
22 *2681:CLK *636:46 0.000194694
23 *2681:CLK *636:82 1.74678e-05
24 *2740:CLK *2366:A 2.34423e-05
25 *2743:CLK *2617:RESET_B 9.4346e-05
26 *2743:CLK *2742:D 0.000176538
27 *2743:CLK *2743:RESET_B 0.000128514
28 *2775:CLK *2744:RESET_B 3.64998e-06
29 *350:54 *2545:B 7.5416e-05
30 *350:54 *2744:D 0.000139245
31 *350:54 *2756:D 0
32 *350:54 *636:8 1.56428e-05
33 *350:54 *636:23 0.000132842
34 *350:54 *636:34 0.000179015
35 *350:54 *636:38 5.46798e-05
36 *350:54 *636:70 1.52184e-05
37 *350:71 *2368:B 3.31282e-05
38 *350:71 *2756:D 0
39 *350:71 *636:70 5.10957e-05
40 *350:71 *636:104 6.28765e-05
41 *350:71 *636:117 0.000113972
42 *350:71 *744:12 0
43 *350:71 *745:10 0
44 *350:77 *2617:RESET_B 0
45 *350:77 *2742:D 5.8825e-05
46 *350:77 *2742:RESET_B 0
47 *350:77 *2743:RESET_B 0.000125172
48 *2366:B *2740:CLK 9.77941e-05
49 *2367:A *2740:CLK 0.000169472
50 *2367:A *350:71 1.73877e-05
51 *2374:B *350:43 0.000194694
52 *2374:B *350:54 7.3151e-05
53 *2377:B *350:54 2.25075e-05
54 *2379:B *350:71 0.000402736
55 *2382:B *350:71 4.71081e-05
56 *2478:B *350:71 0.000139245
57 *2527:A *350:19 5.4003e-05
58 *2527:A *350:30 9.86365e-05
59 *2546:B *350:30 9.50342e-06
60 *2546:B *350:43 0.000129735
61 *2564:A *2657:CLK 0.000311294
62 *2564:A *2775:CLK 0.000115526
63 *2564:A *350:19 7.40446e-05
64 *2564:B *2775:CLK 0.000275548
65 *2582:A *2657:CLK 0.000163199
66 *2657:D *2657:CLK 2.81948e-05
67 *2673:D *2657:CLK 4.66108e-05
68 *2681:D *2681:CLK 2.26916e-05
69 *248:19 *2740:CLK 8.28738e-05
70 *248:19 *350:71 0.000245907
71 *250:10 *350:71 0.000174526
72 *251:10 *350:54 4.62396e-05
73 *252:12 *350:43 3.09233e-05
74 *259:8 *2681:CLK 0.000608344
75 *323:10 *350:71 1.82476e-05
76 *326:12 *350:71 0
77 *339:12 *350:19 5.23362e-05
78 *339:12 *350:30 0.000187766
79 *339:12 *350:43 0.000159957
80 *340:10 *2657:CLK 0.000342784
*RES
1 *2800:X *350:4 1.6 
2 *350:4 *2657:CLK 10.69 
3 *350:4 *350:19 3.41 
4 *350:19 *2775:CLK 11.64 
5 *350:19 *350:30 2.145 
6 *350:30 *2744:CLK 3.6 
7 *350:30 *350:43 5.72 
8 *350:43 *2816:A 1.6 
9 *350:43 *350:54 8.765 
10 *350:54 *2681:CLK 20.655 
11 *350:54 *350:71 13.11 
12 *350:71 *350:77 3.5 
13 *350:77 *2743:CLK 14.15 
14 *350:77 *2742:CLK 1.6 
15 *350:71 *2740:CLK 6.72 
*END

*D_NET *351 0.00742723
*CONN
*I *2758:CLK I *D sky130_fd_sc_hd__dfrtp_1
*I *2746:CLK I *D sky130_fd_sc_hd__dfrtp_4
*I *2817:A I *D sky130_fd_sc_hd__inv_8
*I *2771:CLK I *D sky130_fd_sc_hd__dfrtp_1
*I *2773:CLK I *D sky130_fd_sc_hd__dfrtp_1
*I *2642:CLK I *D sky130_fd_sc_hd__dfxtp_1
*I *2801:X O *D sky130_fd_sc_hd__clkbuf_8
*CAP
1 *2758:CLK 2.08101e-05
2 *2746:CLK 0.00010816
3 *2817:A 5.11393e-05
4 *2771:CLK 0
5 *2773:CLK 0.000536028
6 *2642:CLK 0.000663542
7 *2801:X 0.000285102
8 *351:26 0.00146703
9 *351:24 0.000373502
10 *351:22 0.00026615
11 *351:20 0.000807447
12 *351:14 0.000896231
13 *2642:CLK *2738:D 0
14 *2642:CLK *2980:A 0.000272984
15 *2642:CLK *674:22 0
16 *2746:CLK *2746:D 7.6916e-05
17 *2758:CLK *2818:A 0
18 *2773:CLK *2738:RESET_B 2.40101e-05
19 *2773:CLK *2771:D 9.52646e-05
20 *2773:CLK *2773:D 9.66106e-05
21 *2773:CLK *2773:RESET_B 0.000280733
22 *2773:CLK *670:41 5.05521e-05
23 *2817:A *2761:RESET_B 0.000198945
24 *2817:A *670:35 0.0001249
25 *351:14 *2818:A 9.52646e-05
26 *351:14 *2925:A 0
27 *351:14 *670:29 5.73739e-05
28 *351:14 *733:25 4.70343e-05
29 *351:20 *2415:A 0
30 *351:20 *2746:RESET_B 0
31 *351:20 *2818:A 0.000141323
32 *351:22 *2746:RESET_B 0
33 *351:22 *670:35 1.71013e-05
34 *351:24 *670:35 0.000103185
35 *351:26 *670:35 0.000190931
36 *351:26 *670:41 7.89689e-05
37 *351:26 *674:22 0
*RES
1 *2801:X *351:14 10.64 
2 *351:14 *351:20 10.715 
3 *351:20 *351:22 1.635 
4 *351:22 *351:24 2.145 
5 *351:24 *351:26 5.97 
6 *351:26 *2642:CLK 14.13 
7 *351:26 *2773:CLK 14.745 
8 *351:24 *2771:CLK 3.6 
9 *351:22 *2817:A 5.43 
10 *351:20 *2746:CLK 5.46 
11 *351:14 *2758:CLK 1.96 
*END

*D_NET *352 0.00834828
*CONN
*I *2741:CLK I *D sky130_fd_sc_hd__dfrtp_1
*I *2776:CLK I *D sky130_fd_sc_hd__dfrtp_1
*I *2745:CLK I *D sky130_fd_sc_hd__dfrtp_1
*I *2777:CLK I *D sky130_fd_sc_hd__dfrtp_1
*I *2778:CLK I *D sky130_fd_sc_hd__dfrtp_2
*I *2772:CLK I *D sky130_fd_sc_hd__dfrtp_1
*I *2818:A I *D sky130_fd_sc_hd__inv_6
*I *2802:X O *D sky130_fd_sc_hd__clkbuf_8
*CAP
1 *2741:CLK 0.0008147
2 *2776:CLK 2.08101e-05
3 *2745:CLK 0.00060223
4 *2777:CLK 0.000167909
5 *2778:CLK 0
6 *2772:CLK 0
7 *2818:A 0.000277829
8 *2802:X 0
9 *352:64 0.000792908
10 *352:60 0.00105357
11 *352:40 0.00028068
12 *352:29 0.000697192
13 *352:25 0.000929468
14 *352:4 0.000553873
15 *2741:CLK *2299:A 6.44134e-05
16 *2741:CLK *2758:RESET_B 0.000175207
17 *2741:CLK *2914:A 0
18 *2745:CLK *2776:D 1.4389e-05
19 *2745:CLK *2776:RESET_B 9.17602e-05
20 *2745:CLK *732:25 5.05437e-05
21 *2777:CLK *676:23 0.000135159
22 *2818:A *2758:D 4.65868e-05
23 *2818:A *2758:RESET_B 0
24 *2818:A *2925:A 0
25 *2818:A *733:25 0.000206123
26 *352:25 *2758:RESET_B 0.000164686
27 *352:25 *2776:D 4.99619e-05
28 *352:25 *675:96 4.7043e-05
29 *352:25 *677:25 0.000138521
30 *352:29 *2772:D 6.58339e-05
31 *352:29 *2772:RESET_B 2.40185e-05
32 *352:29 *675:96 0.000186204
33 *352:40 *676:23 9.24127e-05
34 *352:60 *2758:RESET_B 0.000132096
35 *352:60 *2914:A 0
36 *352:64 *2314:A 0.000235568
37 *2758:CLK *2818:A 0
38 *198:8 *2741:CLK 0
39 *198:27 *2741:CLK 0
40 *351:14 *2818:A 9.52646e-05
41 *351:20 *2818:A 0.000141323
*RES
1 *2802:X *352:4 1.6 
2 *352:4 *2818:A 11.915 
3 *352:4 *352:25 7.79 
4 *352:25 *352:29 11.765 
5 *352:29 *2772:CLK 1.6 
6 *352:29 *352:40 4.34 
7 *352:40 *2778:CLK 3.6 
8 *352:40 *2777:CLK 6.885 
9 *352:25 *352:60 1.635 
10 *352:60 *352:64 4.865 
11 *352:64 *2745:CLK 9.685 
12 *352:64 *2776:CLK 1.96 
13 *352:60 *2741:CLK 17.37 
*END

*D_NET *353 0.0128876
*CONN
*I *2813:A I *D sky130_fd_sc_hd__clkbuf_4
*I *2664:CLK I *D sky130_fd_sc_hd__dfxtp_1
*I *2648:CLK I *D sky130_fd_sc_hd__dfxtp_1
*I *2632:CLK I *D sky130_fd_sc_hd__dfxtp_1
*I *2786:CLK I *D sky130_fd_sc_hd__dfxtp_1
*I *2754:CLK I *D sky130_fd_sc_hd__dfxtp_1
*I *2712:CLK I *D sky130_fd_sc_hd__dfxtp_1
*I *2720:CLK I *D sky130_fd_sc_hd__dfxtp_1
*I *2688:CLK I *D sky130_fd_sc_hd__dfxtp_1
*I *2656:CLK I *D sky130_fd_sc_hd__dfxtp_1
*I *2704:CLK I *D sky130_fd_sc_hd__dfxtp_1
*I *2729:CLK I *D sky130_fd_sc_hd__dfxtp_1
*I *2696:CLK I *D sky130_fd_sc_hd__dfxtp_1
*I *2672:CLK I *D sky130_fd_sc_hd__dfxtp_1
*I *2803:X O *D sky130_fd_sc_hd__clkbuf_8
*CAP
1 *2813:A 0.000163528
2 *2664:CLK 0.000111354
3 *2648:CLK 0.000123989
4 *2632:CLK 0.000121322
5 *2786:CLK 0
6 *2754:CLK 0.000291257
7 *2712:CLK 0
8 *2720:CLK 3.60562e-05
9 *2688:CLK 0
10 *2656:CLK 0
11 *2704:CLK 0.000283376
12 *2729:CLK 0.000576018
13 *2696:CLK 0
14 *2672:CLK 0
15 *2803:X 4.34907e-05
16 *353:128 0.000336735
17 *353:108 0.000291257
18 *353:106 0.000488419
19 *353:102 0.000636085
20 *353:95 0.00025497
21 *353:80 0.000218255
22 *353:41 0.000576018
23 *353:39 0.000800804
24 *353:30 0.000635061
25 *353:26 0.000620278
26 *353:22 0.00099528
27 *353:8 0.0005476
28 *353:6 0.000207019
29 *2648:CLK *2464:S0 9.36617e-05
30 *2648:CLK *2607:A0 0.000311294
31 *2664:CLK *3035:A 0.000139487
32 *2704:CLK *618:14 0
33 *2720:CLK *2462:S0 3.64998e-06
34 *2729:CLK *478:8 2.75145e-05
35 *2754:CLK *2844:A 0.000204793
36 *2754:CLK *651:21 0.000234354
37 *2813:A *645:72 0.000374457
38 *353:6 *2465:S0 8.35068e-05
39 *353:6 *645:72 4.66108e-05
40 *353:22 *2462:S0 2.92496e-05
41 *353:26 *390:10 8.16598e-05
42 *353:39 *2554:A0 0
43 *353:39 *651:71 0
44 *353:80 *2462:S0 0.000175207
45 *353:95 *2462:S0 6.68849e-05
46 *353:95 *3035:A 2.49909e-05
47 *353:95 *651:29 3.09233e-05
48 *353:102 *3035:A 0.000118553
49 *353:128 *2607:A0 1.07797e-05
50 rd_data[7] *353:39 1.88597e-05
51 *2466:A1 *353:22 0.000309184
52 *2466:A1 *353:26 8.5841e-05
53 *2473:S *2664:CLK 0.00018367
54 *2544:S *2813:A 3.1835e-05
55 *2544:S *353:6 4.1745e-05
56 *2572:S *353:95 0.000187759
57 *2588:S *353:22 8.34505e-05
58 *2588:S *353:95 0.000143528
59 *2597:S *353:106 0
60 *2599:S *2754:CLK 0.000160635
61 *2632:D *2632:CLK 0.000128642
62 *2632:D *2648:CLK 3.57349e-05
63 *2632:D *353:106 0.000117832
64 *2632:D *353:128 0.000162318
65 *2656:D *353:26 9.03376e-05
66 *2656:D *353:30 0
67 *2656:D *353:39 0
68 *2688:D *353:22 8.84839e-06
69 *2696:D *2704:CLK 0
70 *2696:D *2729:CLK 0.00020525
71 *2696:D *353:39 0
72 *2704:D *2704:CLK 0
73 *2712:D *353:102 0.000126078
74 *323:120 *353:106 0
75 *323:126 *353:106 0
76 *334:74 *353:80 5.92191e-05
77 *334:74 *353:95 0.000100316
78 *334:80 *353:22 9.86689e-05
79 *334:80 *353:80 4.20983e-05
80 *336:81 *2704:CLK 0
81 *336:81 *353:39 0
82 *341:59 *353:128 0
83 *346:12 *353:22 4.99619e-05
*RES
1 *2803:X *353:6 2.74 
2 *353:6 *353:8 2 
3 *353:8 *353:22 12.245 
4 *353:22 *353:26 8.745 
5 *353:26 *353:30 3.89 
6 *353:30 *2672:CLK 3.6 
7 *353:30 *353:39 8.265 
8 *353:39 *353:41 2 
9 *353:41 *2696:CLK 1.6 
10 *353:41 *2729:CLK 10.375 
11 *353:39 *2704:CLK 7.785 
12 *353:26 *2656:CLK 1.6 
13 *353:22 *2688:CLK 1.6 
14 *353:8 *353:80 2.145 
15 *353:80 *2720:CLK 4.05 
16 *353:80 *353:95 6.635 
17 *353:95 *2712:CLK 1.6 
18 *353:95 *353:102 2.865 
19 *353:102 *353:106 8.225 
20 *353:106 *353:108 2 
21 *353:108 *2754:CLK 7.945 
22 *353:108 *2786:CLK 1.6 
23 *353:106 *353:128 4.145 
24 *353:128 *2632:CLK 3.775 
25 *353:128 *2648:CLK 5.155 
26 *353:102 *2664:CLK 4.81 
27 *353:6 *2813:A 5.515 
*END

*D_NET *354 0.0124614
*CONN
*I *2700:CLK I *D sky130_fd_sc_hd__dfxtp_1
*I *2819:A I *D sky130_fd_sc_hd__clkbuf_8
*I *2708:CLK I *D sky130_fd_sc_hd__dfxtp_1
*I *2716:CLK I *D sky130_fd_sc_hd__dfxtp_1
*I *2676:CLK I *D sky130_fd_sc_hd__dfxtp_1
*I *2678:CLK I *D sky130_fd_sc_hd__dfxtp_1
*I *2662:CLK I *D sky130_fd_sc_hd__dfxtp_1
*I *2668:CLK I *D sky130_fd_sc_hd__dfxtp_1
*I *2652:CLK I *D sky130_fd_sc_hd__dfxtp_1
*I *2684:CLK I *D sky130_fd_sc_hd__dfxtp_1
*I *2790:CLK I *D sky130_fd_sc_hd__dfxtp_1
*I *2646:CLK I *D sky130_fd_sc_hd__dfxtp_1
*I *2638:CLK I *D sky130_fd_sc_hd__dfxtp_1
*I *2804:X O *D sky130_fd_sc_hd__clkbuf_8
*CAP
1 *2700:CLK 3.86613e-05
2 *2819:A 0
3 *2708:CLK 0.000173065
4 *2716:CLK 0
5 *2676:CLK 0.000501795
6 *2678:CLK 0.000201412
7 *2662:CLK 5.6533e-05
8 *2668:CLK 3.63983e-05
9 *2652:CLK 0
10 *2684:CLK 0.000414386
11 *2790:CLK 0.000318976
12 *2646:CLK 0
13 *2638:CLK 0.000135175
14 *2804:X 0.000321817
15 *354:108 0.000706612
16 *354:95 0.000406229
17 *354:48 0.00111514
18 *354:42 0.000682526
19 *354:40 0.000415084
20 *354:38 0.000406533
21 *354:32 0.000837878
22 *354:30 0.000437623
23 *354:26 0.000276815
24 *354:19 0.000335317
25 *354:6 0.000639296
26 *2676:CLK *2974:A 5.4155e-06
27 *2678:CLK *2974:A 0.000120655
28 *2684:CLK *386:14 4.92935e-05
29 *2700:CLK *2605:S 3.09179e-05
30 *2708:CLK *2943:A 4.82919e-05
31 *2790:CLK *573:12 0
32 *354:19 *637:104 0.000136891
33 *354:19 *639:111 0
34 *354:26 *2495:A0 5.30673e-05
35 *354:26 *2605:S 0.000134544
36 *354:26 *3001:A 8.57024e-05
37 *354:26 *641:40 0.000131069
38 *354:30 *2455:S 0
39 *354:30 *2467:S 0
40 *354:30 *2624:CLK 0.000150453
41 *354:32 *2455:S 0
42 *354:32 *2624:CLK 0.000202781
43 *354:32 *645:121 0
44 *354:38 *2451:A1 0
45 *354:38 *2515:A1 0
46 *354:38 *2943:A 0
47 *354:38 *372:8 0
48 *354:40 *2453:S0 0
49 *354:42 *2453:S0 0
50 *354:108 *2974:A 0.00041317
51 *2454:A3 *354:19 0.000116165
52 *2455:A1 *354:32 0
53 *2505:S *2662:CLK 8.31082e-05
54 *2515:S *2676:CLK 0.000534666
55 *2515:S *354:108 0.000187381
56 *2533:S *2708:CLK 0.00029218
57 *2570:S *354:38 0
58 *2614:S *2668:CLK 8.65961e-05
59 *2622:D *354:32 0
60 *2646:D *354:26 2.05056e-05
61 *2652:D *2684:CLK 0.000128642
62 *2652:D *2790:CLK 0
63 *2662:D *2662:CLK 0.00012657
64 *2662:D *354:38 5.92304e-05
65 *2662:D *354:40 7.44453e-05
66 *2668:D *354:42 0
67 *2678:D *2678:CLK 1.43717e-05
68 *2678:D *354:38 0
69 *2716:D *2676:CLK 0.000164382
70 *331:110 *2676:CLK 0.000123225
71 *334:93 *2790:CLK 0.00043044
*RES
1 *2804:X *354:6 6.19 
2 *354:6 *2638:CLK 3.43 
3 *354:6 *354:19 7.93 
4 *354:19 *2646:CLK 1.6 
5 *354:19 *354:26 4.245 
6 *354:26 *354:30 3.89 
7 *354:30 *354:32 6.48 
8 *354:32 *354:38 4.995 
9 *354:38 *354:40 1.89 
10 *354:40 *354:42 4.185 
11 *354:42 *354:48 7.7 
12 *354:48 *2790:CLK 11.645 
13 *354:48 *2684:CLK 8.275 
14 *354:48 *2652:CLK 1.6 
15 *354:42 *2668:CLK 4.395 
16 *354:40 *2662:CLK 5.43 
17 *354:38 *354:95 2 
18 *354:95 *2678:CLK 4.81 
19 *354:95 *354:108 6.09 
20 *354:108 *2676:CLK 12.76 
21 *354:108 *2716:CLK 1.6 
22 *354:32 *2708:CLK 7.5 
23 *354:30 *2819:A 3.6 
24 *354:26 *2700:CLK 2.395 
*END

*D_NET *355 0.00851677
*CONN
*I *2636:CLK I *D sky130_fd_sc_hd__dfxtp_1
*I *2628:CLK I *D sky130_fd_sc_hd__dfxtp_1
*I *2680:CLK I *D sky130_fd_sc_hd__dfxtp_1
*I *2782:CLK I *D sky130_fd_sc_hd__dfxtp_1
*I *2644:CLK I *D sky130_fd_sc_hd__dfxtp_1
*I *2820:A I *D sky130_fd_sc_hd__clkinv_4
*I *2725:CLK I *D sky130_fd_sc_hd__dfxtp_1
*I *2692:CLK I *D sky130_fd_sc_hd__dfxtp_1
*I *2750:CLK I *D sky130_fd_sc_hd__dfxtp_1
*I *2805:X O *D sky130_fd_sc_hd__clkbuf_8
*CAP
1 *2636:CLK 0.000231622
2 *2628:CLK 0
3 *2680:CLK 0.00011125
4 *2782:CLK 0.000128848
5 *2644:CLK 2.2266e-05
6 *2820:A 0.00025434
7 *2725:CLK 2.56208e-05
8 *2692:CLK 0.000664639
9 *2750:CLK 7.75551e-05
10 *2805:X 0
11 *355:90 0.000457416
12 *355:75 0.000710317
13 *355:67 0.00053862
14 *355:56 0.000142107
15 *355:45 0.000349435
16 *355:10 0.000784223
17 *355:8 0.000118263
18 *355:6 9.75615e-05
19 *2636:CLK *2440:A2 0.000197703
20 *2636:CLK *2493:A1 4.14338e-05
21 *2636:CLK *659:116 0.000195925
22 *2644:CLK *633:34 4.82919e-05
23 *2680:CLK *2535:A0 0.000137462
24 *2680:CLK *2908:A 4.82919e-05
25 *2692:CLK *2438:A3 7.47366e-05
26 *2692:CLK *2983:A 1.03423e-05
27 *2692:CLK *641:40 0.000228883
28 *2750:CLK *2438:A2 4.52002e-05
29 *2750:CLK *2438:A3 1.88656e-05
30 *2750:CLK *2605:S 6.12868e-05
31 *2750:CLK *641:12 4.75576e-06
32 *2750:CLK *641:18 6.62755e-05
33 *2750:CLK *641:143 1.94636e-05
34 *2820:A *2603:A1 1.83847e-05
35 *355:8 *641:12 0.000103192
36 *355:8 *659:116 0.000177561
37 *355:10 *2605:S 2.79004e-05
38 *355:10 *641:12 6.36578e-05
39 *355:10 *659:116 5.4003e-05
40 *355:45 *641:12 0.000105841
41 *355:45 *659:116 0.000178255
42 *355:56 *641:12 0.000103974
43 *355:56 *659:116 0.000179235
44 *355:67 *2440:A2 2.97004e-06
45 *355:67 *2440:S1 6.71803e-06
46 *355:67 *641:10 0
47 *355:67 *641:12 9.11618e-05
48 *355:67 *659:116 0.000194258
49 *355:75 *418:10 0.000132415
50 *355:90 *2467:S 0
51 *355:90 *2624:RESET_B 0
52 *355:90 *410:12 4.11194e-05
53 *2442:A2 *2750:CLK 0.00011381
54 *2442:A3 *355:75 7.47366e-05
55 *2535:S *2782:CLK 6.58674e-05
56 *2535:S *355:75 1.19928e-05
57 *2550:S *2725:CLK 1.83847e-05
58 *2628:D *355:90 0.000168621
59 *2636:D *2636:CLK 1.43717e-05
60 *2692:D *2692:CLK 1.43717e-05
61 *2782:D *2782:CLK 0.00020076
62 *2782:D *355:75 0.000150668
63 *339:40 *2680:CLK 0.000121103
64 *339:40 *355:90 2.96334e-05
65 *345:52 *2820:A 0.000138799
*RES
1 *2805:X *355:6 3.6 
2 *355:6 *355:8 2.145 
3 *355:8 *355:10 1.38 
4 *355:10 *2750:CLK 6.255 
5 *355:10 *2692:CLK 13.155 
6 *355:8 *2725:CLK 4.05 
7 *355:6 *355:45 2.145 
8 *355:45 *2820:A 7.845 
9 *355:45 *355:56 2.145 
10 *355:56 *2644:CLK 4.05 
11 *355:56 *355:67 2.4 
12 *355:67 *355:75 7.055 
13 *355:75 *2782:CLK 4.465 
14 *355:75 *355:90 10.135 
15 *355:90 *2680:CLK 4.81 
16 *355:90 *2628:CLK 1.6 
17 *355:67 *2636:CLK 8.535 
*END

*D_NET *356 0.0145589
*CONN
*I *2724:CLK I *D sky130_fd_sc_hd__dfxtp_1
*I *2821:A I *D sky130_fd_sc_hd__clkbuf_8
*I *2627:CLK I *D sky130_fd_sc_hd__dfxtp_1
*I *2749:CLK I *D sky130_fd_sc_hd__dfxtp_1
*I *2691:CLK I *D sky130_fd_sc_hd__dfxtp_1
*I *2699:CLK I *D sky130_fd_sc_hd__dfxtp_1
*I *2781:CLK I *D sky130_fd_sc_hd__dfxtp_1
*I *2635:CLK I *D sky130_fd_sc_hd__dfxtp_1
*I *2683:CLK I *D sky130_fd_sc_hd__dfxtp_1
*I *2789:CLK I *D sky130_fd_sc_hd__dfxtp_1
*I *2667:CLK I *D sky130_fd_sc_hd__dfxtp_1
*I *2651:CLK I *D sky130_fd_sc_hd__dfxtp_1
*I *2640:CLK I *D sky130_fd_sc_hd__dfxtp_1
*I *2806:X O *D sky130_fd_sc_hd__clkbuf_8
*CAP
1 *2724:CLK 0.000655578
2 *2821:A 0
3 *2627:CLK 2.54335e-05
4 *2749:CLK 2.09808e-05
5 *2691:CLK 0.000102405
6 *2699:CLK 0.000118132
7 *2781:CLK 0
8 *2635:CLK 4.78151e-05
9 *2683:CLK 0
10 *2789:CLK 8.42585e-05
11 *2667:CLK 7.74208e-05
12 *2651:CLK 0.000163727
13 *2640:CLK 9.63989e-05
14 *2806:X 0.00030666
15 *356:157 0.00069198
16 *356:117 0.000730164
17 *356:107 0.00108579
18 *356:98 0.000555182
19 *356:71 0.000105069
20 *356:41 0.000690024
21 *356:39 0.0010385
22 *356:24 0.000883774
23 *356:20 0.000414478
24 *356:14 0.000245878
25 *356:12 0.000260326
26 *356:10 0.000480177
27 *2635:CLK *2472:A1 4.99619e-05
28 *2635:CLK *2854:A 0.000224698
29 *2635:CLK *3030:A 0.000106246
30 *2640:CLK *2607:S 2.75229e-05
31 *2640:CLK *2839:A 5.83121e-06
32 *2640:CLK *646:16 0.000116621
33 *2724:CLK *2432:A3 0.000100804
34 *2724:CLK *2594:A1 8.59944e-05
35 *2724:CLK *457:10 6.00201e-05
36 *2789:CLK *2904:A 9.50342e-06
37 *356:12 *2594:A1 6.23375e-05
38 *356:14 *2594:A1 8.08153e-06
39 *356:20 *2854:A 0.000122325
40 *356:20 *3030:A 6.71882e-05
41 *356:20 *662:74 2.32724e-05
42 *356:20 *662:76 7.8494e-06
43 *356:24 *2472:A0 0.000253949
44 *356:24 *646:16 8.34426e-05
45 *356:24 *662:74 4.9968e-05
46 *356:39 *2435:A2 0.000311571
47 *356:39 *2539:A0 8.57024e-05
48 *356:39 *481:10 8.51879e-05
49 *356:41 *2435:A2 0.000112349
50 *356:41 *377:6 0.000274659
51 *356:107 *2432:S1 0.00023178
52 *356:107 *2994:A 0.000196376
53 *356:117 *2558:A0 0.000162311
54 *356:117 *2558:A1 5.63099e-05
55 *356:157 *2594:A1 5.05437e-05
56 *2436:A2 *2627:CLK 2.04592e-05
57 *2589:S *356:10 2.49909e-05
58 *2627:D *356:14 7.81954e-05
59 *2627:D *356:20 7.89689e-05
60 *2651:D *2651:CLK 0
61 *2667:D *2651:CLK 0
62 *2667:D *356:41 0.000164377
63 *2683:D *356:39 0.000500614
64 *2699:D *2699:CLK 5.37091e-05
65 *2699:D *356:117 0.000390967
66 *2724:D *2724:CLK 7.71334e-05
67 *2749:D *356:107 0.000419464
68 *2789:D *2789:CLK 7.75325e-05
69 *2806:A *356:10 0.000201503
70 *323:114 *356:10 0
71 *323:114 *356:12 0
72 *323:120 *2640:CLK 8.26696e-05
73 *323:120 *356:24 9.29182e-05
74 *334:66 *356:10 0
75 *334:66 *356:12 0
76 *334:66 *356:14 0
77 *334:66 *356:20 0
78 *334:66 *356:24 0
79 *334:74 *356:39 4.65698e-05
80 *336:81 *2691:CLK 0
81 *337:107 *2789:CLK 7.5431e-05
82 *340:73 *356:10 0.000260889
*RES
1 *2806:X *356:10 10.08 
2 *356:10 *356:12 2.4 
3 *356:12 *356:14 1.89 
4 *356:14 *356:20 5.54 
5 *356:20 *356:24 7.715 
6 *356:24 *2640:CLK 6.45 
7 *356:24 *356:39 13.145 
8 *356:39 *356:41 8.04 
9 *356:41 *2651:CLK 8.135 
10 *356:41 *2667:CLK 3.22 
11 *356:39 *356:71 0.36 
12 *356:71 *2789:CLK 8.195 
13 *356:71 *2683:CLK 1.6 
14 *356:20 *2635:CLK 3.775 
15 *356:14 *356:98 2 
16 *356:98 *2781:CLK 1.6 
17 *356:98 *356:107 9.78 
18 *356:107 *356:117 8.97 
19 *356:117 *2699:CLK 3.445 
20 *356:117 *2691:CLK 7.235 
21 *356:107 *2749:CLK 1.96 
22 *356:12 *2627:CLK 4.05 
23 *356:10 *356:157 2.795 
24 *356:157 *2821:A 1.6 
25 *356:157 *2724:CLK 11.74 
*END

*D_NET *357 0.0131213
*CONN
*I *2711:CLK I *D sky130_fd_sc_hd__dfxtp_1
*I *2647:CLK I *D sky130_fd_sc_hd__dfxtp_1
*I *2639:CLK I *D sky130_fd_sc_hd__dfxtp_1
*I *2793:CLK I *D sky130_fd_sc_hd__dfxtp_1
*I *2687:CLK I *D sky130_fd_sc_hd__dfxtp_1
*I *2785:CLK I *D sky130_fd_sc_hd__dfxtp_1
*I *2631:CLK I *D sky130_fd_sc_hd__dfxtp_1
*I *2719:CLK I *D sky130_fd_sc_hd__dfxtp_1
*I *2753:CLK I *D sky130_fd_sc_hd__dfxtp_1
*I *2728:CLK I *D sky130_fd_sc_hd__dfxtp_1
*I *2695:CLK I *D sky130_fd_sc_hd__dfxtp_1
*I *2671:CLK I *D sky130_fd_sc_hd__dfxtp_1
*I *2655:CLK I *D sky130_fd_sc_hd__dfxtp_1
*I *2703:CLK I *D sky130_fd_sc_hd__dfxtp_1
*I *2807:X O *D sky130_fd_sc_hd__clkbuf_8
*CAP
1 *2711:CLK 0
2 *2647:CLK 0.000187883
3 *2639:CLK 0.000142625
4 *2793:CLK 0
5 *2687:CLK 0.000433853
6 *2785:CLK 0.000183033
7 *2631:CLK 2.71058e-05
8 *2719:CLK 0.000119945
9 *2753:CLK 0.000249226
10 *2728:CLK 0
11 *2695:CLK 0
12 *2671:CLK 0.000113236
13 *2655:CLK 0
14 *2703:CLK 0
15 *2807:X 0.000300325
16 *357:147 0.000702686
17 *357:121 0.000560698
18 *357:119 0.000754782
19 *357:106 0.000492478
20 *357:95 0.000182258
21 *357:84 0.000279911
22 *357:71 0.00034388
23 *357:43 0.000605013
24 *357:34 0.000623456
25 *357:30 0.000603646
26 *357:26 0.00117347
27 *357:16 0.000758193
28 *357:12 0.00032086
29 *2647:CLK *2486:A1 0.000158608
30 *2687:CLK *2459:A1 5.42473e-05
31 *2753:CLK *2598:A1 1.4399e-05
32 *357:12 *2571:A1 0
33 *357:12 *646:48 5.81284e-05
34 *357:16 *2589:A1 3.25997e-05
35 *357:26 *2456:A3 0
36 *357:26 *461:8 4.77719e-05
37 *357:26 *477:8 3.44946e-05
38 *357:26 *646:48 1.71034e-05
39 *357:30 *477:8 0.00020655
40 *357:71 *2589:A1 3.18137e-05
41 *357:84 *2589:A1 5.0781e-05
42 *357:84 *653:71 6.55328e-05
43 *357:95 *653:71 0.000166495
44 *357:106 *653:71 2.63122e-05
45 *357:119 *2960:A 7.67634e-05
46 *357:119 *653:71 7.21296e-06
47 *357:119 *653:105 9.28444e-05
48 *357:121 *2960:A 0.000123225
49 *357:147 *2960:A 2.16917e-05
50 *2460:A2 *2719:CLK 9.09288e-05
51 *2543:S *2631:CLK 3.03775e-05
52 *2543:S *357:106 6.36578e-05
53 *2562:S *357:26 7.70828e-05
54 *2571:S *357:12 0
55 *2598:S *2753:CLK 4.82863e-05
56 *2639:D *2639:CLK 0
57 *2671:D *2671:CLK 0
58 *2687:D *2687:CLK 9.1497e-05
59 *2695:D *357:30 0.00020525
60 *2703:D *357:43 0
61 *2711:D *357:12 0.000176153
62 *2728:D *357:26 2.27187e-05
63 *2753:D *2753:CLK 1.9872e-05
64 *2793:D *2687:CLK 5.14454e-05
65 *323:102 *2647:CLK 4.88555e-05
66 *323:114 *357:12 0
67 *329:38 *2631:CLK 8.40269e-05
68 *332:42 *2687:CLK 0.000231628
69 *332:52 *2671:CLK 0
70 *332:52 *357:34 0
71 *332:52 *357:43 0
72 *334:66 *357:12 0.000125209
73 *342:26 *357:119 3.15708e-05
74 *342:36 *357:16 7.5416e-05
75 *342:36 *357:71 9.37731e-05
76 *342:36 *357:84 0.000206817
77 *342:36 *357:95 0.000361299
78 *342:36 *357:106 0.000183738
79 *342:36 *357:119 0.000356583
*RES
1 *2807:X *357:12 11.705 
2 *357:12 *357:16 2.87 
3 *357:16 *357:26 14.22 
4 *357:26 *357:30 8.745 
5 *357:30 *357:34 4.145 
6 *357:34 *2703:CLK 3.6 
7 *357:34 *357:43 8.265 
8 *357:43 *2655:CLK 3.6 
9 *357:43 *2671:CLK 5.49 
10 *357:30 *2695:CLK 1.6 
11 *357:26 *2728:CLK 1.6 
12 *357:16 *357:71 1.125 
13 *357:71 *2753:CLK 7.17 
14 *357:71 *357:84 2.4 
15 *357:84 *2719:CLK 5.775 
16 *357:84 *357:95 4.185 
17 *357:95 *2631:CLK 4.395 
18 *357:95 *357:106 2.145 
19 *357:106 *2785:CLK 6.12 
20 *357:106 *357:119 8.225 
21 *357:119 *357:121 2.175 
22 *357:121 *2687:CLK 13.67 
23 *357:121 *2793:CLK 1.6 
24 *357:119 *357:147 5.295 
25 *357:147 *2639:CLK 8 
26 *357:147 *2647:CLK 9.065 
27 *357:12 *2711:CLK 1.6 
*END

*D_NET *358 0.008377
*CONN
*I *2713:CLK I *D sky130_fd_sc_hd__dfxtp_1
*I *2705:CLK I *D sky130_fd_sc_hd__dfxtp_1
*I *2747:CLK I *D sky130_fd_sc_hd__dfxtp_1
*I *2822:A I *D sky130_fd_sc_hd__clkinv_4
*I *2689:CLK I *D sky130_fd_sc_hd__dfxtp_1
*I *2697:CLK I *D sky130_fd_sc_hd__dfxtp_1
*I *2643:CLK I *D sky130_fd_sc_hd__dfxtp_1
*I *2715:CLK I *D sky130_fd_sc_hd__dfxtp_1
*I *2707:CLK I *D sky130_fd_sc_hd__dfxtp_1
*I *2808:X O *D sky130_fd_sc_hd__clkbuf_8
*CAP
1 *2713:CLK 8.15626e-05
2 *2705:CLK 0.000265721
3 *2747:CLK 0
4 *2822:A 0
5 *2689:CLK 4.72149e-05
6 *2697:CLK 2.88827e-05
7 *2643:CLK 0.000120159
8 *2715:CLK 0
9 *2707:CLK 0.000169013
10 *2808:X 0
11 *358:61 0.000526922
12 *358:26 0.000629569
13 *358:22 0.000691828
14 *358:20 0.000693207
15 *358:16 0.000255517
16 *358:14 0.000341811
17 *358:10 0.000591916
18 *358:4 0.000190195
19 *2643:CLK *2437:A0 0.000174409
20 *2643:CLK *643:31 3.86839e-05
21 *2689:CLK *2556:A0 0.000185405
22 *2689:CLK *2556:A1 0.000183043
23 *2707:CLK *2436:S0 4.11025e-05
24 *2707:CLK *2497:A0 8.53113e-06
25 *2707:CLK *2839:A 0.000276662
26 *2707:CLK *441:12 2.59981e-05
27 *2713:CLK *359:38 0.000135217
28 *358:10 *643:116 0.000308375
29 *358:22 *2930:A 0.000187071
30 *358:22 *393:10 0.000116165
31 *358:26 *663:37 0.000243532
32 *2436:A0 *2707:CLK 0.000128374
33 *2436:A2 *358:22 7.12228e-06
34 *2436:A2 *358:26 0.000111324
35 *2516:S *2713:CLK 0.000155436
36 *2534:S *2697:CLK 1.56428e-05
37 *2534:S *358:61 0.000104379
38 *2643:D *2643:CLK 0.000202692
39 *2697:D *358:61 0.000124637
40 *2715:D *2707:CLK 1.43717e-05
41 *2715:D *358:26 5.21627e-05
42 *2747:D *358:10 0.000167098
43 *2747:D *358:14 0.00012672
44 *327:53 *358:22 0
45 *327:53 *358:61 0
46 *327:65 *2707:CLK 8.36923e-05
47 *336:65 *358:61 0
48 *338:109 *358:22 0.000137777
49 *338:109 *358:26 0.000270912
50 *338:109 *358:61 0.000116944
51 *339:32 *358:26 0
52 *339:40 *358:26 0
*RES
1 *2808:X *358:4 1.6 
2 *358:4 *358:10 7.675 
3 *358:10 *358:14 3.225 
4 *358:14 *358:16 1.83 
5 *358:16 *358:20 3.83 
6 *358:20 *358:22 3.93 
7 *358:22 *358:26 12.815 
8 *358:26 *2707:CLK 10.7 
9 *358:26 *2715:CLK 1.6 
10 *358:22 *2643:CLK 6.825 
11 *358:20 *358:61 10.49 
12 *358:61 *2697:CLK 2.05 
13 *358:61 *2689:CLK 7.745 
14 *358:16 *2822:A 1.6 
15 *358:14 *2747:CLK 1.6 
16 *358:10 *2705:CLK 5.62 
17 *358:4 *2713:CLK 4.12 
*END

*D_NET *359 0.0127895
*CONN
*I *2787:CLK I *D sky130_fd_sc_hd__dfxtp_1
*I *2649:CLK I *D sky130_fd_sc_hd__dfxtp_1
*I *2633:CLK I *D sky130_fd_sc_hd__dfxtp_1
*I *2625:CLK I *D sky130_fd_sc_hd__dfxtp_1
*I *2779:CLK I *D sky130_fd_sc_hd__dfxtp_1
*I *2665:CLK I *D sky130_fd_sc_hd__dfxtp_1
*I *2641:CLK I *D sky130_fd_sc_hd__dfxtp_1
*I *2722:CLK I *D sky130_fd_sc_hd__dfxtp_1
*I *2823:A I *D sky130_fd_sc_hd__bufinv_16
*I *2679:CLK I *D sky130_fd_sc_hd__dfxtp_1
*I *2663:CLK I *D sky130_fd_sc_hd__dfxtp_1
*I *2809:X O *D sky130_fd_sc_hd__clkbuf_8
*CAP
1 *2787:CLK 0.000365097
2 *2649:CLK 0
3 *2633:CLK 0.000425801
4 *2625:CLK 2.08101e-05
5 *2779:CLK 0.000168225
6 *2665:CLK 0
7 *2641:CLK 0
8 *2722:CLK 0
9 *2823:A 0.00016084
10 *2679:CLK 8.77732e-05
11 *2663:CLK 4.28517e-05
12 *2809:X 0
13 *359:123 0.000681982
14 *359:84 0.000241148
15 *359:82 0.000988662
16 *359:80 0.000848443
17 *359:73 4.03074e-05
18 *359:66 0.000510784
19 *359:55 0.000695863
20 *359:38 0.000723509
21 *359:14 0.000880849
22 *359:4 0.00110832
23 *2633:CLK *2420:A1 0
24 *2633:CLK *2619:RESET_B 0
25 *2633:CLK *666:20 0.000137719
26 *2633:CLK *666:28 8.47372e-05
27 *2679:CLK *2457:S1 0
28 *2779:CLK *643:157 0.0001249
29 *2787:CLK *2519:A0 2.67022e-05
30 *2787:CLK *2873:A 0
31 *2823:A *447:10 0.000220772
32 *2823:A *643:116 0
33 *359:14 *2556:A0 4.99619e-05
34 *359:14 *2946:A 8.65961e-05
35 *359:14 *429:8 0.000198934
36 *359:55 *447:10 0.000158709
37 *359:55 *643:116 0
38 *359:55 *643:126 0
39 *359:55 *666:86 0.00011719
40 *359:66 *2592:A0 0
41 *359:66 *643:126 0
42 *359:66 *666:86 0.000157595
43 *359:82 *391:10 0.000122331
44 *359:82 *643:157 0.000158072
45 *359:84 *643:157 0.000313846
46 *359:123 *2873:A 0
47 *2496:S *2779:CLK 4.40446e-05
48 *2496:S *359:84 3.34783e-05
49 *2500:S *359:66 0
50 *2500:S *359:123 8.71001e-05
51 *2516:S *359:38 4.14882e-05
52 *2520:S *359:66 0
53 *2520:S *359:123 9.60047e-05
54 *2625:D *2633:CLK 0.000270647
55 *2625:D *2779:CLK 0
56 *2625:D *359:84 0.000166946
57 *2641:D *359:66 2.97004e-06
58 *2641:D *359:82 1.43717e-05
59 *2649:D *2787:CLK 1.02692e-05
60 *2649:D *359:123 4.83842e-05
61 *2663:D *359:14 0.000126073
62 *2665:D *359:123 2.66961e-05
63 *2713:CLK *359:38 0.000135217
64 *2779:D *2633:CLK 0.000114492
65 *2809:A *359:14 0.000348704
66 *2809:A *359:38 0.000110668
67 *323:80 *359:123 4.75576e-05
68 *323:114 *2679:CLK 5.42989e-05
69 *325:83 *2779:CLK 0
70 *327:34 *359:82 0.000173548
71 *327:34 *359:84 1.33293e-05
72 *329:24 *359:123 2.77283e-05
73 *329:38 *359:66 0
74 *332:18 *359:123 0
75 *332:42 *359:123 0
76 *336:65 *2663:CLK 1.7386e-05
77 *336:65 *359:14 0.000100561
78 *337:83 *2823:A 8.8266e-05
79 *337:83 *359:14 0.000154828
80 *337:83 *359:38 3.83194e-05
81 *337:95 *359:14 0.000337961
82 *341:42 *359:66 2.39642e-05
83 *345:94 *359:38 8.49205e-05
*RES
1 *2809:X *359:4 1.6 
2 *359:4 *359:14 15.525 
3 *359:14 *2663:CLK 2.41 
4 *359:14 *2679:CLK 7.235 
5 *359:4 *359:38 7.97 
6 *359:38 *2823:A 7.05 
7 *359:38 *359:55 4.485 
8 *359:55 *2722:CLK 3.6 
9 *359:55 *359:66 10.265 
10 *359:66 *2641:CLK 1.6 
11 *359:66 *359:73 0.45 
12 *359:73 *2665:CLK 1.6 
13 *359:73 *359:80 0.36 
14 *359:80 *359:82 8.73 
15 *359:82 *359:84 2.865 
16 *359:84 *2779:CLK 8.825 
17 *359:84 *2625:CLK 1.96 
18 *359:82 *2633:CLK 15.395 
19 *359:80 *359:123 8.105 
20 *359:123 *2649:CLK 3.6 
21 *359:123 *2787:CLK 8.91 
*END

*D_NET *360 0.00831302
*CONN
*I *2824:A I *D sky130_fd_sc_hd__inv_6
*I *2690:CLK I *D sky130_fd_sc_hd__dfxtp_1
*I *2723:CLK I *D sky130_fd_sc_hd__dfxtp_1
*I *2698:CLK I *D sky130_fd_sc_hd__dfxtp_1
*I *2674:CLK I *D sky130_fd_sc_hd__dfxtp_1
*I *2706:CLK I *D sky130_fd_sc_hd__dfxtp_1
*I *2748:CLK I *D sky130_fd_sc_hd__dfxtp_1
*I *2810:X O *D sky130_fd_sc_hd__clkbuf_8
*CAP
1 *2824:A 5.76933e-05
2 *2690:CLK 0.00026747
3 *2723:CLK 0
4 *2698:CLK 0.000483871
5 *2674:CLK 0.000465468
6 *2706:CLK 9.6812e-05
7 *2748:CLK 0
8 *2810:X 0.000100869
9 *360:33 0.000867832
10 *360:22 0.000472182
11 *360:14 0.0006616
12 *360:12 0.000133683
13 *360:10 0.00044618
14 *360:8 0.000214689
15 *2674:CLK *2593:A0 9.91257e-05
16 *2698:CLK *642:64 0.000171765
17 *2706:CLK *2424:A0 4.28313e-05
18 *2706:CLK *456:10 0.000115254
19 *360:33 *2931:A 8.40269e-05
20 *360:33 *448:8 5.05437e-05
21 *2483:S *2674:CLK 0.000328209
22 *2483:S *360:22 7.25532e-05
23 *2483:S *360:33 8.30179e-05
24 *2690:D *2690:CLK 1.43717e-05
25 *2698:D *2698:CLK 3.19516e-05
26 *2748:D *2706:CLK 6.55406e-05
27 *2748:D *360:33 0.000449143
28 *331:56 *360:8 0.00049857
29 *336:10 *2824:A 0.000103192
30 *336:10 *360:10 8.78892e-05
31 *336:10 *360:12 0.000112971
32 *336:14 *360:12 0.000203755
33 *336:14 *360:14 5.4003e-05
34 *336:14 *360:22 0.000116853
35 *341:103 *2706:CLK 0.000197382
36 *341:105 *2706:CLK 0.000141606
37 *342:77 *2824:A 9.9535e-05
38 *342:77 *360:10 8.53255e-05
39 *342:77 *360:12 0.000221411
40 *342:77 *360:14 2.60986e-05
41 *342:77 *360:22 6.36578e-05
42 *345:12 *360:8 0.000199833
43 *345:14 *360:8 0.000123225
44 *345:20 *360:8 0.000101031
*RES
1 *2810:X *360:8 8.19 
2 *360:8 *360:10 1.89 
3 *360:10 *360:12 4.695 
4 *360:12 *360:14 0.615 
5 *360:14 *360:22 5.57 
6 *360:22 *2748:CLK 1.6 
7 *360:22 *360:33 7.47 
8 *360:33 *2706:CLK 9.53 
9 *360:33 *2674:CLK 10.675 
10 *360:14 *2698:CLK 9.84 
11 *360:12 *2723:CLK 3.6 
12 *360:10 *2690:CLK 7.17 
13 *360:8 *2824:A 5.745 
*END

*D_NET *361 0.0105188
*CONN
*I *2825:A I *D sky130_fd_sc_hd__clkinvlp_4
*I *2658:CLK I *D sky130_fd_sc_hd__dfxtp_1
*I *2714:CLK I *D sky130_fd_sc_hd__dfxtp_1
*I *2634:CLK I *D sky130_fd_sc_hd__dfxtp_1
*I *2682:CLK I *D sky130_fd_sc_hd__dfxtp_1
*I *2788:CLK I *D sky130_fd_sc_hd__dfxtp_1
*I *2650:CLK I *D sky130_fd_sc_hd__dfxtp_1
*I *2666:CLK I *D sky130_fd_sc_hd__dfxtp_1
*I *2659:CLK I *D sky130_fd_sc_hd__dfxtp_1
*I *2675:CLK I *D sky130_fd_sc_hd__dfxtp_1
*I *2811:X O *D sky130_fd_sc_hd__clkbuf_8
*CAP
1 *2825:A 0
2 *2658:CLK 0.00022149
3 *2714:CLK 0
4 *2634:CLK 0.000450507
5 *2682:CLK 0
6 *2788:CLK 0.000151784
7 *2650:CLK 0
8 *2666:CLK 0.000144868
9 *2659:CLK 0
10 *2675:CLK 0.000156399
11 *2811:X 0
12 *361:101 0.000351218
13 *361:97 0.000257278
14 *361:75 0.000482223
15 *361:26 0.000432807
16 *361:22 0.000675388
17 *361:16 0.000423308
18 *361:12 0.000742555
19 *361:10 0.000720034
20 *361:4 0.000394292
21 *2634:CLK *400:10 1.56428e-05
22 *2634:CLK *644:35 2.49909e-05
23 *2634:CLK *648:86 0.000932031
24 *2658:CLK *642:37 0.000347034
25 *2658:CLK *642:54 3.46272e-05
26 *2666:CLK *643:23 3.64998e-06
27 *2666:CLK *644:49 8.65961e-05
28 *2675:CLK *2433:A2 0
29 *2675:CLK *2433:S1 0.000102411
30 *361:10 *637:30 0.000262651
31 *361:10 *664:28 0
32 *361:10 *664:43 0
33 *361:12 *2428:S0 0.000304474
34 *361:12 *2953:A 0.000148089
35 *361:12 *384:10 9.55262e-05
36 *361:12 *480:6 4.82919e-05
37 *361:22 *425:10 6.69341e-05
38 *361:75 *2428:S0 4.82919e-05
39 *361:75 *648:86 9.53428e-06
40 *361:97 *642:54 7.53903e-05
41 *361:101 *642:54 9.36617e-05
42 *2426:A1 *2658:CLK 3.1226e-05
43 *2520:S *2788:CLK 4.18603e-06
44 *2576:S *361:26 0
45 *2634:D *2634:CLK 1.71013e-05
46 *2650:D *2788:CLK 0.000316806
47 *2650:D *361:12 3.66286e-05
48 *2650:D *361:16 0.000168621
49 *2659:D *361:26 1.43717e-05
50 *2682:D *361:12 1.43717e-05
51 *2714:D *2658:CLK 0.000463119
52 *2723:D *361:10 9.71067e-05
53 *333:46 *2634:CLK 0.000155928
54 *333:58 *2634:CLK 2.75229e-05
55 *337:28 *2788:CLK 0
56 *340:16 *361:10 0.000561953
57 *340:24 *361:10 7.8486e-05
58 *345:12 *361:10 0
59 *345:72 *2666:CLK 0
60 *345:72 *2675:CLK 0.00018319
61 *345:152 *2634:CLK 4.4155e-05
*RES
1 *2811:X *361:4 1.6 
2 *361:4 *361:10 12.265 
3 *361:10 *361:12 8.04 
4 *361:12 *361:16 2.88 
5 *361:16 *361:22 4.365 
6 *361:22 *361:26 3.825 
7 *361:26 *2675:CLK 9.53 
8 *361:26 *2659:CLK 1.6 
9 *361:22 *2666:CLK 8.03 
10 *361:16 *2650:CLK 1.6 
11 *361:12 *2788:CLK 9.275 
12 *361:10 *361:75 0.81 
13 *361:75 *2682:CLK 1.6 
14 *361:75 *2634:CLK 16.67 
15 *361:4 *361:97 2.175 
16 *361:97 *361:101 2.535 
17 *361:101 *2714:CLK 1.6 
18 *361:101 *2658:CLK 7.945 
19 *361:97 *2825:A 1.6 
*END

*D_NET *362 0.000423589
*CONN
*I *2721:D I *D sky130_fd_sc_hd__dfstp_1
*I *2413:X O *D sky130_fd_sc_hd__and3_1
*CAP
1 *2721:D 0.000211795
2 *2413:X 0.000211795
*RES
1 *2413:X *2721:D 6.335 
*END

*D_NET *363 0.00974916
*CONN
*I *2306:A I *D sky130_fd_sc_hd__xor2_1
*I *2383:A I *D sky130_fd_sc_hd__xnor2_1
*I *2774:Q O *D sky130_fd_sc_hd__dfrtp_1
*CAP
1 *2306:A 0.000494272
2 *2383:A 0.000272067
3 *2774:Q 0.00213802
4 *363:10 0.00290435
5 *2306:A *2740:D 0
6 *2306:A *2740:RESET_B 0
7 *2306:A *677:31 0
8 *2383:A *2386:B 2.49909e-05
9 *2383:A *2755:D 5.72091e-05
10 *2383:A *677:31 5.51245e-05
11 *363:10 *2378:B 0.000183963
12 *363:10 *2394:B1 8.57747e-05
13 *363:10 *2733:CLK 0
14 *363:10 *2737:D 0
15 *363:10 *2740:RESET_B 0
16 *363:10 *2757:D 0
17 *363:10 *2759:D 0
18 *363:10 *2760:RESET_B 0
19 *363:10 *2761:D 6.5525e-05
20 *363:10 *2936:A 0.00111397
21 *363:10 *633:8 0
22 *363:10 *633:14 0
23 *363:10 *634:40 0.000112123
24 *363:10 *634:168 0.000181898
25 *363:10 *640:14 0
26 *363:10 *642:12 0.000163071
27 *363:10 *642:99 0
28 *363:10 *668:79 0
29 *363:10 *669:87 0.000411838
30 *363:10 *669:100 0.000203755
31 *363:10 *675:32 1.82563e-05
32 *363:10 *675:42 0
33 *363:10 *675:59 0
34 *363:10 *675:68 0
35 *363:10 *677:31 0
36 *2306:B *2306:A 4.82919e-05
37 *2307:A *2306:A 7.21296e-06
38 *2386:A *2383:A 0.000113247
39 *2387:B *2306:A 0.000116165
40 *2387:B *2383:A 4.66108e-05
41 *2388:C *2306:A 8.45475e-05
42 *2388:C *363:10 0.000181383
43 *2389:B *2306:A 0
44 *2399:A *363:10 0
45 *2774:CLK *363:10 5.0751e-05
46 *2827:A *363:10 0.00013818
47 *174:8 *2383:A 3.92516e-05
48 *176:6 *2306:A 8.65961e-05
49 *188:10 *2306:A 0.000139844
50 *188:16 *2306:A 7.63282e-05
51 *267:12 *363:10 0.000134546
*RES
1 *2774:Q *363:10 49.47 
2 *363:10 *2383:A 12.895 
3 *363:10 *2306:A 14.19 
*END

*D_NET *364 0.00268504
*CONN
*I *2304:A I *D sky130_fd_sc_hd__xnor2_2
*I *2290:A I *D sky130_fd_sc_hd__inv_2
*I *2775:Q O *D sky130_fd_sc_hd__dfrtp_1
*CAP
1 *2304:A 0.000203176
2 *2290:A 5.64396e-05
3 *2775:Q 0.000417542
4 *364:8 0.000677157
5 *2304:A *2303:A 8.65961e-05
6 *2304:A *2309:A 0
7 *2304:A *2740:RESET_B 0.000356803
8 *364:8 *2309:A 0
9 *364:8 *2415:A 0.00012881
10 *364:8 *2740:RESET_B 0.000360604
11 *364:8 *633:8 0.000191151
12 *364:8 *633:93 8.44359e-05
13 *2386:A *2290:A 0.000122325
14 *2827:A *364:8 0
*RES
1 *2775:Q *364:8 13.905 
2 *364:8 *2290:A 4.74 
3 *364:8 *2304:A 8.58 
*END

*D_NET *365 0.00217117
*CONN
*I *2302:A I *D sky130_fd_sc_hd__xor2_2
*I *2378:A I *D sky130_fd_sc_hd__xor2_1
*I *2776:Q O *D sky130_fd_sc_hd__dfrtp_1
*CAP
1 *2302:A 0.000166698
2 *2378:A 0.000552752
3 *2776:Q 5.33611e-05
4 *365:8 0.000772811
5 *2302:A *2309:A 0
6 *2302:A *732:25 0.000183738
7 *2378:A *676:54 0.000123225
8 *365:8 *2309:A 0
9 *365:8 *676:54 3.47837e-05
10 *365:8 *732:25 0.000116158
11 *2386:A *2302:A 0.000160635
12 *2388:C *2378:A 7.00889e-06
*RES
1 *2776:Q *365:8 4.98 
2 *365:8 *2378:A 11.985 
3 *365:8 *2302:A 7.23 
*END

*D_NET *366 0.00274283
*CONN
*I *2740:D I *D sky130_fd_sc_hd__dfrtp_1
*I *2389:Y O *D sky130_fd_sc_hd__nor2_1
*CAP
1 *2740:D 0.000737663
2 *2389:Y 0.000737663
3 *2740:D *2740:RESET_B 4.70393e-05
4 *2740:D *677:31 0.000900385
5 *2306:A *2740:D 0
6 *2307:A *2740:D 0.000204603
7 *246:8 *2740:D 0
8 *246:23 *2740:D 0.000115474
*RES
1 *2389:Y *2740:D 24.315 
*END

*D_NET *367 0.00289478
*CONN
*I *2940:A I *D sky130_fd_sc_hd__dlygate4sd3_1
*I *2419:A0 I *D sky130_fd_sc_hd__mux4_1
*I *2673:Q O *D sky130_fd_sc_hd__dfxtp_1
*CAP
1 *2940:A 0.000622642
2 *2419:A0 0.000211011
3 *2673:Q 0
4 *367:4 0.000833653
5 *2419:A0 *2419:A1 1.83756e-05
6 *2419:A0 *2574:A1 8.32626e-05
7 *2419:A0 *666:106 0.00015896
8 *2940:A *666:106 0.000607455
9 *2516:S *2419:A0 2.75145e-05
10 *2673:CLK *2940:A 8.57321e-05
11 *336:10 *2419:A0 0.000219471
12 *342:67 *2419:A0 2.67032e-05
*RES
1 *2673:Q *367:4 1.6 
2 *367:4 *2419:A0 10.19 
3 *367:4 *2940:A 9.91 
*END

*D_NET *368 0.00200754
*CONN
*I *2881:A I *D sky130_fd_sc_hd__dlygate4sd3_1
*I *2425:A0 I *D sky130_fd_sc_hd__mux4_1
*I *2674:Q O *D sky130_fd_sc_hd__dfxtp_1
*CAP
1 *2881:A 0.00018114
2 *2425:A0 0.00050428
3 *2674:Q 0
4 *368:4 0.00068542
5 *2425:A0 *2425:S1 2.49909e-05
6 *2425:A0 *2446:S1 7.06865e-05
7 *2425:A0 *647:78 0
8 *2425:A0 *647:89 0
9 *2425:A0 *705:12 2.49909e-05
10 *2881:A *2529:A0 8.65961e-05
11 *2881:A *634:52 0
12 *2881:A *705:12 0.000182343
13 *2426:A0 *2425:A0 3.1835e-05
14 *2529:S *2881:A 6.43623e-05
15 *2674:D *2425:A0 6.63468e-05
16 *327:103 *2425:A0 2.42236e-05
17 *333:108 *2881:A 6.03272e-05
*RES
1 *2674:Q *368:4 1.6 
2 *368:4 *2425:A0 12.02 
3 *368:4 *2881:A 9.845 
*END

*D_NET *369 0.00147169
*CONN
*I *2903:A I *D sky130_fd_sc_hd__dlygate4sd3_1
*I *2433:A0 I *D sky130_fd_sc_hd__mux4_1
*I *2675:Q O *D sky130_fd_sc_hd__dfxtp_1
*CAP
1 *2903:A 0.000162455
2 *2433:A0 0.000286335
3 *2675:Q 0
4 *369:4 0.00044879
5 *2433:A0 *2530:A1 0.00013521
6 *2433:A0 *2839:A 0
7 *2433:A0 *3000:A 0.000245893
8 *2433:A0 *650:66 4.82863e-05
9 *2659:D *2433:A0 0
10 *2675:D *2433:A0 2.31329e-05
11 *28:17 *2433:A0 1.17437e-05
12 *28:17 *2903:A 0.000109845
*RES
1 *2675:Q *369:4 1.6 
2 *369:4 *2433:A0 10.79 
3 *369:4 *2903:A 4.735 
*END

*D_NET *370 0.00251536
*CONN
*I *2439:A0 I *D sky130_fd_sc_hd__mux4_1
*I *2918:A I *D sky130_fd_sc_hd__dlygate4sd3_1
*I *2676:Q O *D sky130_fd_sc_hd__dfxtp_1
*CAP
1 *2439:A0 0
2 *2918:A 0.000367674
3 *2676:Q 0.000361921
4 *370:12 0.000729596
5 *2918:A *2439:A1 1.91597e-05
6 *2918:A *2531:A0 3.7712e-05
7 *2918:A *2531:A1 0.000273878
8 *370:12 *2531:A1 0.000116165
9 *2676:D *370:12 4.65607e-05
10 *331:110 *370:12 9.74635e-05
11 *333:122 *2918:A 0.000345039
12 *342:77 *370:12 0.000120186
*RES
1 *2676:Q *370:12 10.88 
2 *370:12 *2918:A 8.635 
3 *370:12 *2439:A0 1.6 
*END

*D_NET *371 0.001271
*CONN
*I *2956:A I *D sky130_fd_sc_hd__dlygate4sd3_1
*I *2445:A0 I *D sky130_fd_sc_hd__mux4_1
*I *2677:Q O *D sky130_fd_sc_hd__dfxtp_1
*CAP
1 *2956:A 0.000230065
2 *2445:A0 0
3 *2677:Q 0.000177421
4 *371:10 0.000407486
5 *2956:A *2445:S0 0
6 *2956:A *2532:A0 4.82919e-05
7 *2956:A *2889:A 5.53249e-06
8 *2956:A *427:10 0.000158357
9 *371:10 *2445:S0 0
10 *371:10 *2889:A 7.89689e-05
11 *371:10 *443:10 0
12 *371:10 *642:113 0.000164874
*RES
1 *2677:Q *371:10 6.72 
2 *371:10 *2445:A0 3.6 
3 *371:10 *2956:A 8.01 
*END

*D_NET *372 0.00166535
*CONN
*I *2943:A I *D sky130_fd_sc_hd__dlygate4sd3_1
*I *2451:A0 I *D sky130_fd_sc_hd__mux4_1
*I *2678:Q O *D sky130_fd_sc_hd__dfxtp_1
*CAP
1 *2943:A 0.000137573
2 *2451:A0 0.00011476
3 *2678:Q 0.000111917
4 *372:8 0.00036425
5 *2451:A0 *2515:A0 0.000163199
6 *2451:A0 *2515:A1 0.000171848
7 *2943:A *2568:A0 0
8 *372:8 *2515:A0 0.000136877
9 *2533:S *2943:A 4.82919e-05
10 *2570:S *2451:A0 0.000352156
11 *2577:S *2451:A0 1.61831e-05
12 *2708:CLK *2943:A 4.82919e-05
13 *354:38 *2943:A 0
14 *354:38 *372:8 0
*RES
1 *2678:Q *372:8 5.49 
2 *372:8 *2451:A0 7.86 
3 *372:8 *2943:A 5.685 
*END

*D_NET *373 0.000595411
*CONN
*I *2915:A I *D sky130_fd_sc_hd__dlygate4sd3_1
*I *2457:A0 I *D sky130_fd_sc_hd__mux4_1
*I *2679:Q O *D sky130_fd_sc_hd__dfxtp_1
*CAP
1 *2915:A 3.26194e-05
2 *2457:A0 0
3 *2679:Q 8.19528e-05
4 *373:12 0.000114572
5 *2915:A *646:82 7.22354e-05
6 *373:12 *646:61 6.02123e-05
7 *373:12 *646:82 6.76534e-05
8 *2580:S *2915:A 6.1357e-05
9 *2580:S *373:12 5.05521e-05
10 *325:83 *373:12 5.4256e-05
*RES
1 *2679:Q *373:12 8.03 
2 *373:12 *2457:A0 1.6 
3 *373:12 *2915:A 2.74 
*END

*D_NET *374 0.00154363
*CONN
*I *2463:A0 I *D sky130_fd_sc_hd__mux4_1
*I *2908:A I *D sky130_fd_sc_hd__dlygate4sd3_1
*I *2680:Q O *D sky130_fd_sc_hd__dfxtp_1
*CAP
1 *2463:A0 5.21227e-05
2 *2908:A 0.000177621
3 *2680:Q 0.000261796
4 *374:6 0.000491539
5 *2463:A0 *637:104 0.00011852
6 *2463:A0 *639:111 0
7 *374:6 *2581:A0 0.000230435
8 *2680:CLK *2908:A 4.82919e-05
9 *2680:D *2463:A0 2.67022e-05
10 *2680:D *2908:A 1.43717e-05
11 *339:40 *2908:A 0.000110492
12 *339:40 *374:6 1.17437e-05
*RES
1 *2680:Q *374:6 4.81 
2 *374:6 *2908:A 5.2 
3 *374:6 *2463:A0 6.98 
*END

*D_NET *375 0.00209974
*CONN
*I *2873:A I *D sky130_fd_sc_hd__dlygate4sd3_1
*I *2421:A2 I *D sky130_fd_sc_hd__mux4_1
*I *2665:Q O *D sky130_fd_sc_hd__dfxtp_1
*CAP
1 *2873:A 0.000169385
2 *2421:A2 0.000131969
3 *2665:Q 0.00023452
4 *375:10 0.000535874
5 *2421:A2 *2500:A1 8.65961e-05
6 *2421:A2 *667:24 0.000161529
7 *2873:A *2500:A1 0.000176883
8 *2422:A1 *2421:A2 0.000108192
9 *2422:A3 *375:10 3.67779e-05
10 *2520:S *2873:A 2.23407e-05
11 *2520:S *375:10 6.20952e-05
12 *2649:D *2873:A 0.000155941
13 *2787:CLK *2873:A 0
14 *329:20 *375:10 1.74011e-05
15 *329:24 *375:10 5.35969e-06
16 *332:12 *2421:A2 0.000194877
17 *359:123 *2873:A 0
*RES
1 *2665:Q *375:10 6.81 
2 *375:10 *2421:A2 8.1375 
3 *375:10 *2873:A 7.785 
*END

*D_NET *376 0.00294712
*CONN
*I *2428:A2 I *D sky130_fd_sc_hd__mux4_1
*I *2957:A I *D sky130_fd_sc_hd__dlygate4sd3_1
*I *2666:Q O *D sky130_fd_sc_hd__dfxtp_1
*CAP
1 *2428:A2 0.000374354
2 *2957:A 0.000179629
3 *2666:Q 0.000164957
4 *376:6 0.00071894
5 *2428:A2 *2898:A 9.50342e-06
6 *2428:A2 *384:10 5.4003e-05
7 *2428:A2 *644:49 0.000261093
8 *2428:A2 *664:54 2.86623e-05
9 *2957:A *2501:A1 0.000115464
10 *376:6 *644:49 0.000232105
11 *2788:D *2957:A 0.000141626
12 *336:10 *2957:A 8.48111e-05
13 *342:67 *2957:A 0.00058197
*RES
1 *2666:Q *376:6 3.775 
2 *376:6 *2957:A 12.335 
3 *376:6 *2428:A2 10.6587 
*END

*D_NET *377 0.00258744
*CONN
*I *2435:A2 I *D sky130_fd_sc_hd__mux4_1
*I *2884:A I *D sky130_fd_sc_hd__dlygate4sd3_1
*I *2667:Q O *D sky130_fd_sc_hd__dfxtp_1
*CAP
1 *2435:A2 0.000344493
2 *2884:A 0.000112763
3 *2667:Q 0.000182995
4 *377:6 0.00064025
5 *2435:A2 *2435:A3 2.05864e-05
6 *2435:A2 *2435:S1 3.96214e-05
7 *2884:A *2904:A 0.000139933
8 *2616:S *2435:A2 0.000114492
9 *2789:D *2884:A 0
10 *337:107 *2884:A 0.000293733
11 *356:39 *2435:A2 0.000311571
12 *356:41 *2435:A2 0.000112349
13 *356:41 *377:6 0.000274659
*RES
1 *2667:Q *377:6 4.12 
2 *377:6 *2884:A 9.02 
3 *377:6 *2435:A2 11.0787 
*END

*D_NET *378 0.00175028
*CONN
*I *2928:A I *D sky130_fd_sc_hd__dlygate4sd3_1
*I *2441:A2 I *D sky130_fd_sc_hd__mux4_1
*I *2668:Q O *D sky130_fd_sc_hd__dfxtp_1
*CAP
1 *2928:A 0.000124764
2 *2441:A2 0.000244103
3 *2668:Q 0
4 *378:6 0.000368867
5 *2441:A2 *3033:A 0
6 *2441:A2 *573:12 2.75707e-05
7 *2928:A *2852:A 0.00012111
8 *2928:A *3033:A 7.58668e-05
9 *2442:A1 *2441:A2 0.000231836
10 *2614:S *2441:A2 0.000394524
11 *2652:D *2441:A2 9.71137e-05
12 *2652:D *2928:A 6.45236e-05
*RES
1 *2668:Q *378:6 3.6 
2 *378:6 *2441:A2 10.2975 
3 *378:6 *2928:A 7.02 
*END

*D_NET *379 0.00215548
*CONN
*I *2952:A I *D sky130_fd_sc_hd__dlygate4sd3_1
*I *2447:A2 I *D sky130_fd_sc_hd__mux4_1
*I *2669:Q O *D sky130_fd_sc_hd__dfxtp_1
*CAP
1 *2952:A 0.000212538
2 *2447:A2 0.000212655
3 *2669:Q 0.000297251
4 *379:10 0.000722444
5 *2447:A2 *2447:A0 7.11031e-05
6 *2447:A2 *2447:A1 0.00015896
7 *2952:A *2447:S0 0
8 *2952:A *2523:A0 0
9 *2952:A *2523:A1 0
10 *2952:A *3031:A 0
11 *379:10 *2523:A1 0
12 *2504:S *2952:A 0.00011686
13 *2504:S *379:10 0.00015829
14 *347:65 *379:10 0.000154839
15 *347:67 *379:10 5.05437e-05
*RES
1 *2669:Q *379:10 8.01 
2 *379:10 *2447:A2 7.36875 
3 *379:10 *2952:A 7.275 
*END

*D_NET *380 0.00245221
*CONN
*I *2971:A I *D sky130_fd_sc_hd__dlygate4sd3_1
*I *2453:A2 I *D sky130_fd_sc_hd__mux4_1
*I *2670:Q O *D sky130_fd_sc_hd__dfxtp_1
*CAP
1 *2971:A 0.000320513
2 *2453:A2 0.000116968
3 *2670:Q 0.000152741
4 *380:10 0.000590222
5 *2453:A2 *2453:S1 0.000103518
6 *2453:A2 *2524:A0 1.10377e-05
7 *2971:A *2848:A 0.000424525
8 *2971:A *655:10 0.000120655
9 *2971:A *655:36 7.40446e-05
10 *380:10 *2453:S1 0.00011632
11 *380:10 *641:77 7.30547e-05
12 *2454:A1 *2971:A 6.85211e-05
13 *2718:CLK *380:10 0.000121019
14 *332:92 *2453:A2 9.3229e-06
15 *334:80 *2453:A2 6.72338e-05
16 *334:80 *2971:A 1.88904e-05
17 *334:80 *380:10 6.36273e-05
*RES
1 *2670:Q *380:10 7.0125 
2 *380:10 *2453:A2 6.07125 
3 *380:10 *2971:A 9.9225 
*END

*D_NET *381 0.00191865
*CONN
*I *2459:A2 I *D sky130_fd_sc_hd__mux4_1
*I *2978:A I *D sky130_fd_sc_hd__dlygate4sd3_1
*I *2671:Q O *D sky130_fd_sc_hd__dfxtp_1
*CAP
1 *2459:A2 0.000184761
2 *2978:A 0.000221144
3 *2671:Q 0.000105127
4 *381:6 0.000511031
5 *2459:A2 *2459:A0 0.000117441
6 *2459:A2 *2846:A 0.00049217
7 *2978:A *2459:A1 0.000123781
8 *2978:A *2846:A 0
9 *2978:A *607:10 0
10 *2978:A *653:19 0
11 *381:6 *2846:A 0.000163199
*RES
1 *2671:Q *381:6 3.775 
2 *381:6 *2978:A 9.275 
3 *381:6 *2459:A2 7.09375 
*END

*D_NET *382 0.00193165
*CONN
*I *2916:A I *D sky130_fd_sc_hd__dlygate4sd3_1
*I *2465:A2 I *D sky130_fd_sc_hd__mux4_1
*I *2672:Q O *D sky130_fd_sc_hd__dfxtp_1
*CAP
1 *2916:A 0.000355804
2 *2465:A2 4.37377e-05
3 *2672:Q 0.000406637
4 *382:12 0.000806179
5 *2465:A2 *2465:A3 2.10254e-05
6 *2916:A *2465:A3 2.85764e-05
7 *2916:A *2526:A0 0
8 *2916:A *2888:A 0
9 *382:12 *2465:A3 8.69315e-05
10 *2466:A1 *382:12 8.23457e-05
11 *2544:S *2916:A 7.0687e-05
12 *2552:S *2916:A 0
13 *2688:D *2916:A 2.97291e-05
*RES
1 *2672:Q *382:12 7.615 
2 *382:12 *2465:A2 2.83375 
3 *382:12 *2916:A 11.93 
*END

*D_NET *383 0.00158179
*CONN
*I *2421:A3 I *D sky130_fd_sc_hd__mux4_1
*I *2877:A I *D sky130_fd_sc_hd__dlygate4sd3_1
*I *2649:Q O *D sky130_fd_sc_hd__dfxtp_1
*CAP
1 *2421:A3 0.000144097
2 *2877:A 0.000143924
3 *2649:Q 0
4 *383:4 0.000288021
5 *2421:A3 *667:14 1.37864e-05
6 *2421:A3 *667:24 7.23635e-05
7 *2877:A *2858:A 0.000207783
8 *2877:A *667:24 8.8266e-05
9 *2423:A1 *2877:A 8.6099e-05
10 *2609:S *2421:A3 4.46808e-07
11 *2681:D *2421:A3 0.000117825
12 *2787:D *2877:A 0.000139933
13 *264:20 *2421:A3 0.000220078
14 *264:20 *2877:A 3.26822e-05
15 *342:16 *2421:A3 2.64841e-05
*RES
1 *2649:Q *383:4 1.6 
2 *383:4 *2877:A 9.815 
3 *383:4 *2421:A3 9.05 
*END

*D_NET *384 0.00218689
*CONN
*I *2898:A I *D sky130_fd_sc_hd__dlygate4sd3_1
*I *2428:A3 I *D sky130_fd_sc_hd__mux4_1
*I *2650:Q O *D sky130_fd_sc_hd__dfxtp_1
*CAP
1 *2898:A 0.000251627
2 *2428:A3 0
3 *2650:Q 0.000334739
4 *384:10 0.000586365
5 *2898:A *2953:A 0.00019189
6 *2898:A *637:30 5.83121e-06
7 *2898:A *644:82 0.000468933
8 *2898:A *664:54 2.33678e-05
9 *384:10 *2428:S0 4.00949e-05
10 *384:10 *2953:A 5.84378e-05
11 *384:10 *664:54 6.65717e-05
12 *2428:A2 *2898:A 9.50342e-06
13 *2428:A2 *384:10 5.4003e-05
14 *264:20 *2898:A 0
15 *264:20 *384:10 0
16 *361:12 *384:10 9.55262e-05
*RES
1 *2650:Q *384:10 9.12 
2 *384:10 *2428:A3 3.6 
3 *384:10 *2898:A 10.62 
*END

*D_NET *385 0.00146033
*CONN
*I *2435:A3 I *D sky130_fd_sc_hd__mux4_1
*I *2904:A I *D sky130_fd_sc_hd__dlygate4sd3_1
*I *2651:Q O *D sky130_fd_sc_hd__dfxtp_1
*CAP
1 *2435:A3 0.000167581
2 *2904:A 9.45652e-05
3 *2651:Q 0.000225395
4 *385:8 0.000487541
5 *2435:A3 *2435:S1 3.59731e-05
6 *385:8 *662:8 3.00381e-05
7 *2435:A2 *2435:A3 2.05864e-05
8 *2436:A1 *2435:A3 0.00022578
9 *2789:CLK *2904:A 9.50342e-06
10 *2789:D *2904:A 0
11 *2884:A *2904:A 0.000139933
12 *337:107 *2904:A 2.34345e-05
*RES
1 *2651:Q *385:8 4.825 
2 *385:8 *2904:A 7.745 
3 *385:8 *2435:A3 5.5 
*END

*D_NET *386 0.00178785
*CONN
*I *2891:A I *D sky130_fd_sc_hd__dlygate4sd3_1
*I *2441:A3 I *D sky130_fd_sc_hd__mux4_1
*I *2652:Q O *D sky130_fd_sc_hd__dfxtp_1
*CAP
1 *2891:A 0.000175245
2 *2441:A3 0
3 *2652:Q 0.000320952
4 *386:14 0.000496197
5 *2891:A *2441:S0 0
6 *2891:A *659:62 6.71882e-05
7 *386:14 *2441:A0 0
8 *386:14 *2441:S0 0
9 *2442:A1 *2891:A 0.000323305
10 *2442:A1 *386:14 7.70828e-05
11 *2614:S *2891:A 0.000139245
12 *2684:CLK *386:14 4.92935e-05
13 *2684:D *386:14 1.869e-05
14 *329:111 *2891:A 0.000120655
*RES
1 *2652:Q *386:14 8.31 
2 *386:14 *2441:A3 3.6 
3 *386:14 *2891:A 8.67 
*END

*D_NET *387 0.00125607
*CONN
*I *2896:A I *D sky130_fd_sc_hd__dlygate4sd3_1
*I *2447:A3 I *D sky130_fd_sc_hd__mux4_1
*I *2653:Q O *D sky130_fd_sc_hd__dfxtp_1
*CAP
1 *2896:A 0.000183982
2 *2447:A3 0.000178582
3 *2653:Q 0
4 *387:4 0.000362564
5 *2447:A3 *491:10 0
6 *2447:A3 *657:32 3.76596e-05
7 *2896:A *2850:A 0
8 *2896:A *584:10 0
9 *2896:A *657:19 0.000139933
10 *2896:A *657:32 0.000116853
11 *2504:S *2896:A 0
12 *2685:CLK *2447:A3 1.34503e-05
13 *2685:CLK *2896:A 1.56428e-05
14 *2685:D *2896:A 2.66935e-05
15 *347:55 *2447:A3 0.000162325
16 *347:65 *2447:A3 1.83847e-05
*RES
1 *2653:Q *387:4 1.6 
2 *387:4 *2447:A3 9.05 
3 *387:4 *2896:A 9.47 
*END

*D_NET *388 0.00196083
*CONN
*I *2993:A I *D sky130_fd_sc_hd__dlygate4sd3_1
*I *2453:A3 I *D sky130_fd_sc_hd__mux4_1
*I *2654:Q O *D sky130_fd_sc_hd__dfxtp_1
*CAP
1 *2993:A 9.28741e-05
2 *2453:A3 9.83102e-05
3 *2654:Q 0.000325794
4 *388:8 0.000516978
5 *2453:A3 *2453:S0 4.66108e-05
6 *2453:A3 *2524:A0 6.38722e-05
7 *2453:A3 *595:12 0.000112123
8 *2453:A3 *655:38 5.83373e-05
9 *2993:A *595:12 6.21553e-05
10 *2993:A *655:38 5.83373e-05
11 *2993:A *655:62 5.84456e-05
12 *2454:A1 *388:8 0.000166859
13 *2505:S *388:8 0.00015806
14 *332:92 *2453:A3 6.12863e-05
15 *334:80 *2993:A 8.07863e-05
*RES
1 *2654:Q *388:8 7.845 
2 *388:8 *2453:A3 6.465 
3 *388:8 *2993:A 6.255 
*END

*D_NET *389 0.00226462
*CONN
*I *2459:A3 I *D sky130_fd_sc_hd__mux4_1
*I *2893:A I *D sky130_fd_sc_hd__dlygate4sd3_1
*I *2655:Q O *D sky130_fd_sc_hd__dfxtp_1
*CAP
1 *2459:A3 0.000139468
2 *2893:A 0.000115487
3 *2655:Q 0.000525769
4 *389:8 0.000780725
5 *2459:A3 *646:141 0.000224487
6 *2893:A *646:141 0.000116853
7 *389:8 *653:43 5.33172e-05
8 *389:8 *653:56 0.000184148
9 *2655:D *389:8 4.99619e-05
10 *329:38 *2893:A 7.44006e-05
*RES
1 *2655:Q *389:8 10.26 
2 *389:8 *2893:A 6.12 
3 *389:8 *2459:A3 6.255 
*END

*D_NET *390 0.00279947
*CONN
*I *2906:A I *D sky130_fd_sc_hd__dlygate4sd3_1
*I *2465:A3 I *D sky130_fd_sc_hd__mux4_1
*I *2656:Q O *D sky130_fd_sc_hd__dfxtp_1
*CAP
1 *2906:A 0.000260874
2 *2465:A3 0.000540827
3 *2656:Q 0.000223912
4 *390:10 0.00102561
5 *2906:A *2507:A1 6.27347e-05
6 *2906:A *651:71 7.58604e-05
7 *2465:A2 *2465:A3 2.10254e-05
8 *2656:D *2906:A 0
9 *2656:D *390:10 0
10 *2672:D *2906:A 2.46007e-05
11 *2672:D *390:10 1.22762e-05
12 *2688:D *2465:A3 5.39961e-05
13 *2916:A *2465:A3 2.85764e-05
14 *332:80 *2906:A 0.000114492
15 *332:80 *390:10 0.000186092
16 *353:26 *390:10 8.16598e-05
17 *382:12 *2465:A3 8.69315e-05
*RES
1 *2656:Q *390:10 7.575 
2 *390:10 *2465:A3 14.185 
3 *390:10 *2906:A 8.535 
*END

*D_NET *391 0.00194285
*CONN
*I *2976:A I *D sky130_fd_sc_hd__dlygate4sd3_1
*I *2420:A0 I *D sky130_fd_sc_hd__mux4_1
*I *2641:Q O *D sky130_fd_sc_hd__dfxtp_1
*CAP
1 *2976:A 0.00022615
2 *2420:A0 0
3 *2641:Q 0.000126262
4 *391:10 0.000352412
5 *2976:A *2420:A1 0.000346976
6 *2976:A *2619:RESET_B 1.1561e-05
7 *2976:A *2959:A 0.000436282
8 *2976:A *407:8 5.33085e-05
9 *391:10 *2420:A1 8.53113e-06
10 *391:10 *2600:A0 7.23533e-05
11 *391:10 *407:8 0.000139238
12 *391:10 *643:157 3.39944e-05
13 *323:80 *2976:A 1.34503e-05
14 *359:82 *391:10 0.000122331
*RES
1 *2641:Q *391:10 6.375 
2 *391:10 *2420:A0 3.6 
3 *391:10 *2976:A 9.96 
*END

*D_NET *392 0.00192947
*CONN
*I *2980:A I *D sky130_fd_sc_hd__dlygate4sd3_1
*I *2427:A0 I *D sky130_fd_sc_hd__mux4_1
*I *2642:Q O *D sky130_fd_sc_hd__dfxtp_1
*CAP
1 *2980:A 0.000605858
2 *2427:A0 0.000116052
3 *2642:Q 0
4 *392:4 0.00072191
5 *2427:A0 *2427:A1 4.66108e-05
6 *2980:A *2491:A0 2.49909e-05
7 *2642:CLK *2980:A 0.000272984
8 *2642:D *2980:A 0.000141061
*RES
1 *2642:Q *392:4 1.6 
2 *392:4 *2427:A0 3.355 
3 *392:4 *2980:A 10.27 
*END

*D_NET *393 0.0031511
*CONN
*I *2930:A I *D sky130_fd_sc_hd__dlygate4sd3_1
*I *2434:A0 I *D sky130_fd_sc_hd__mux4_1
*I *2643:Q O *D sky130_fd_sc_hd__dfxtp_1
*CAP
1 *2930:A 5.11537e-05
2 *2434:A0 0.000611294
3 *2643:Q 0.000243554
4 *393:10 0.000906002
5 *2434:A0 *2482:A1 0.000120655
6 *2434:A0 *2602:A1 1.01661e-05
7 *2434:A0 *3030:A 5.21706e-05
8 *393:10 *643:31 1.98294e-05
9 *2436:A2 *2434:A0 8.30645e-05
10 *2436:A2 *2930:A 6.52111e-05
11 *2436:A2 *393:10 0.000116165
12 *2635:D *2434:A0 7.55391e-05
13 *2643:D *393:10 4.66826e-05
14 *325:83 *2434:A0 0.000109939
15 *325:93 *2434:A0 0.000179123
16 *327:53 *2434:A0 0.000113247
17 *327:53 *2930:A 4.40643e-05
18 *358:22 *2930:A 0.000187071
19 *358:22 *393:10 0.000116165
*RES
1 *2643:Q *393:10 7.155 
2 *393:10 *2434:A0 18.58 
3 *393:10 *2930:A 5.745 
*END

*D_NET *394 0.00143323
*CONN
*I *2912:A I *D sky130_fd_sc_hd__dlygate4sd3_1
*I *2440:A0 I *D sky130_fd_sc_hd__mux4_1
*I *2644:Q O *D sky130_fd_sc_hd__dfxtp_1
*CAP
1 *2912:A 0.000190675
2 *2440:A0 3.26257e-05
3 *2644:Q 0.00011046
4 *394:12 0.000333761
5 *2440:A0 *650:30 9.66021e-05
6 *2912:A *650:30 0.000182343
7 *394:12 *633:34 2.75145e-05
8 *2442:A3 *2440:A0 9.66021e-05
9 *2442:A3 *2912:A 1.91597e-05
10 *2442:A3 *394:12 7.06865e-05
11 *336:14 *2912:A 0.00018305
12 *337:30 *394:12 0
13 *342:77 *2912:A 8.97486e-05
14 *342:77 *394:12 0
*RES
1 *2644:Q *394:12 7.43 
2 *394:12 *2440:A0 3.085 
3 *394:12 *2912:A 10.61 
*END

*D_NET *395 0.002008
*CONN
*I *2446:A0 I *D sky130_fd_sc_hd__mux4_1
*I *2964:A I *D sky130_fd_sc_hd__dlygate4sd3_1
*I *2645:Q O *D sky130_fd_sc_hd__dfxtp_1
*CAP
1 *2446:A0 0.000338726
2 *2964:A 0.000229337
3 *2645:Q 3.72342e-05
4 *395:8 0.000605297
5 *2446:A0 *2446:A1 0.000195429
6 *2446:A0 *647:67 0
7 *2964:A *634:78 8.57406e-05
8 *2964:A *637:62 0
9 *2964:A *647:67 0
10 *2964:A *658:51 0.000101325
11 *395:8 *2587:A1 1.83756e-05
12 *2448:A2 *2964:A 0.000200165
13 *2814:A *2964:A 0.000196376
*RES
1 *2645:Q *395:8 4.05 
2 *395:8 *2964:A 9.72 
3 *395:8 *2446:A0 8.295 
*END

*D_NET *396 0.00165181
*CONN
*I *3001:A I *D sky130_fd_sc_hd__dlygate4sd3_1
*I *2452:A0 I *D sky130_fd_sc_hd__mux4_1
*I *2646:Q O *D sky130_fd_sc_hd__dfxtp_1
*CAP
1 *3001:A 0.000211214
2 *2452:A0 0.00017672
3 *2646:Q 2.08101e-05
4 *396:6 0.000408744
5 *2452:A0 *420:8 2.75229e-05
6 *2452:A0 *655:75 0
7 *2452:A0 *655:112 0
8 *3001:A *2605:S 0.000104171
9 *3001:A *420:8 0.000100729
10 *3001:A *641:40 6.05513e-05
11 *3001:A *645:30 0.000268745
12 *2646:D *3001:A 0.000186904
13 *339:44 *2452:A0 0
14 *354:26 *3001:A 8.57024e-05
*RES
1 *2646:Q *396:6 1.96 
2 *396:6 *2452:A0 7.94 
3 *396:6 *3001:A 7.93 
*END

*D_NET *397 0.00100463
*CONN
*I *2919:A I *D sky130_fd_sc_hd__dlygate4sd3_1
*I *2458:A0 I *D sky130_fd_sc_hd__mux4_1
*I *2647:Q O *D sky130_fd_sc_hd__dfxtp_1
*CAP
1 *2919:A 0.000132943
2 *2458:A0 0.000147302
3 *2647:Q 0
4 *397:4 0.000280245
5 *2458:A0 *2458:A1 7.63125e-05
6 *2458:A0 *2606:A0 3.09164e-05
7 *2647:D *2458:A0 0
8 *323:102 *2458:A0 6.1357e-05
9 *323:102 *2919:A 0.000275553
*RES
1 *2647:Q *397:4 1.6 
2 *397:4 *2458:A0 8.375 
3 *397:4 *2919:A 4.48 
*END

*D_NET *398 0.00054722
*CONN
*I *2464:A0 I *D sky130_fd_sc_hd__mux4_1
*I *2945:A I *D sky130_fd_sc_hd__dlygate4sd3_1
*I *2648:Q O *D sky130_fd_sc_hd__dfxtp_1
*CAP
1 *2464:A0 6.74627e-05
2 *2945:A 0.00010998
3 *2648:Q 0
4 *398:4 0.000177443
5 *2464:A0 *2497:A1 0
6 *2466:A3 *2464:A0 3.86529e-05
7 *2485:S *2464:A0 0
8 *2648:D *2464:A0 2.87867e-05
9 *2648:D *2945:A 0.000124895
*RES
1 *2648:Q *398:4 1.6 
2 *398:4 *2945:A 3.7 
3 *398:4 *2464:A0 6.98 
*END

*D_NET *399 0.00265461
*CONN
*I *2981:A I *D sky130_fd_sc_hd__dlygate4sd3_1
*I *2420:A1 I *D sky130_fd_sc_hd__mux4_1
*I *2633:Q O *D sky130_fd_sc_hd__dfxtp_1
*CAP
1 *2981:A 0.000201988
2 *2420:A1 0.000603613
3 *2633:Q 0
4 *399:4 0.000805601
5 *2420:A1 *2470:A0 7.23602e-05
6 *2420:A1 *2600:A0 3.64998e-06
7 *2420:A1 *2619:RESET_B 0.000112373
8 *2420:A1 *415:10 4.66108e-05
9 *2420:A1 *643:157 0.000116165
10 *2420:A1 *666:20 0.000152789
11 *2420:A1 *666:28 2.4997e-05
12 *2633:CLK *2420:A1 0
13 *2633:D *2420:A1 0.00015896
14 *2976:A *2420:A1 0.000346976
15 *391:10 *2420:A1 8.53113e-06
*RES
1 *2633:Q *399:4 1.6 
2 *399:4 *2420:A1 17.105 
3 *399:4 *2981:A 4.735 
*END

*D_NET *400 0.00375129
*CONN
*I *2878:A I *D sky130_fd_sc_hd__dlygate4sd3_1
*I *2427:A1 I *D sky130_fd_sc_hd__mux4_1
*I *2634:Q O *D sky130_fd_sc_hd__dfxtp_1
*CAP
1 *2878:A 0.000184144
2 *2427:A1 2.61242e-05
3 *2634:Q 0.000772708
4 *400:10 0.000982976
5 *2878:A *2601:A0 8.23457e-05
6 *2878:A *2601:S 6.38806e-05
7 *2878:A *670:64 0.000193801
8 *400:10 *644:35 8.20569e-05
9 *2427:A0 *2427:A1 4.66108e-05
10 *2634:CLK *400:10 1.56428e-05
11 *2634:D *400:10 3.51254e-06
12 *2770:CLK *2878:A 0.000383684
13 *2770:CLK *400:10 0.000116853
14 *331:50 *2878:A 0.000525613
15 *331:50 *400:10 0.00011852
16 *349:58 *2878:A 0.000152814
*RES
1 *2634:Q *400:10 13.02 
2 *400:10 *2427:A1 4.05 
3 *400:10 *2878:A 11.655 
*END

*D_NET *401 0.0020732
*CONN
*I *2434:A1 I *D sky130_fd_sc_hd__mux4_1
*I *2922:A I *D sky130_fd_sc_hd__dlygate4sd3_1
*I *2635:Q O *D sky130_fd_sc_hd__dfxtp_1
*CAP
1 *2434:A1 0.000179441
2 *2922:A 0.000112628
3 *2635:Q 8.31687e-05
4 *401:8 0.000375238
5 *2434:A1 *2434:A2 0.000102972
6 *2434:A1 *2434:S0 8.53113e-06
7 *2434:A1 *2482:A0 0.000194251
8 *2434:A1 *2854:A 9.42145e-05
9 *2434:A1 *417:6 9.50818e-05
10 *2922:A *2482:A0 7.23602e-05
11 *2922:A *2602:A0 0.000314745
12 *2922:A *633:129 0.000316415
13 *401:8 *2854:A 8.65961e-05
14 *401:8 *3030:A 1.33293e-05
15 *325:93 *2922:A 2.42236e-05
*RES
1 *2635:Q *401:8 4.74 
2 *401:8 *2922:A 7.845 
3 *401:8 *2434:A1 8.55 
*END

*D_NET *402 0.00101531
*CONN
*I *2991:A I *D sky130_fd_sc_hd__dlygate4sd3_1
*I *2440:A1 I *D sky130_fd_sc_hd__mux4_1
*I *2636:Q O *D sky130_fd_sc_hd__dfxtp_1
*CAP
1 *2991:A 6.55354e-05
2 *2440:A1 0.000154694
3 *2636:Q 0.000176111
4 *402:8 0.000396341
5 *402:8 *2493:A0 2.75145e-05
6 *402:8 *2493:A1 5.9074e-05
7 *337:30 *2440:A1 9.19758e-05
8 *337:30 *2991:A 4.40643e-05
9 *342:77 *2440:A1 0
10 *342:77 *2991:A 0
*RES
1 *2636:Q *402:8 5.775 
2 *402:8 *2440:A1 6.255 
3 *402:8 *2991:A 4.98 
*END

*D_NET *403 0.00258886
*CONN
*I *2892:A I *D sky130_fd_sc_hd__dlygate4sd3_1
*I *2446:A1 I *D sky130_fd_sc_hd__mux4_1
*I *2637:Q O *D sky130_fd_sc_hd__dfxtp_1
*CAP
1 *2892:A 8.17492e-05
2 *2446:A1 0.000306621
3 *2637:Q 7.04506e-05
4 *403:8 0.000458821
5 *2446:A1 *2446:A2 3.08098e-05
6 *2446:A1 *2446:S1 0.000314445
7 *2446:A1 *637:62 0.000335865
8 *2446:A1 *647:78 0
9 *2892:A *2446:S1 0.000197599
10 *2892:A *637:62 0.000204463
11 *2892:A *650:30 2.49909e-05
12 *403:8 *633:34 0.000120655
13 *2446:A0 *2446:A1 0.000195429
14 *2798:A *2446:A1 0.000246964
*RES
1 *2637:Q *403:8 4.74 
2 *403:8 *2446:A1 13.275 
3 *403:8 *2892:A 6.45 
*END

*D_NET *404 0.000657198
*CONN
*I *2937:A I *D sky130_fd_sc_hd__dlygate4sd3_1
*I *2452:A1 I *D sky130_fd_sc_hd__mux4_1
*I *2638:Q O *D sky130_fd_sc_hd__dfxtp_1
*CAP
1 *2937:A 6.00213e-05
2 *2452:A1 0.000200329
3 *2638:Q 0
4 *404:6 0.000260351
5 *2452:A1 *2452:A2 2.11084e-05
6 *2452:A1 *412:6 2.11084e-05
7 *2452:A1 *655:112 0
8 *2475:S *2452:A1 3.24046e-05
9 *2475:S *2937:A 6.18754e-05
10 *2638:D *2452:A1 0
11 *2638:D *2937:A 0
12 *339:44 *2452:A1 0
13 *339:44 *2937:A 0
*RES
1 *2638:Q *404:6 3.6 
2 *404:6 *2452:A1 7.155 
3 *404:6 *2937:A 4.98 
*END

*D_NET *405 0.00133806
*CONN
*I *2938:A I *D sky130_fd_sc_hd__dlygate4sd3_1
*I *2458:A1 I *D sky130_fd_sc_hd__mux4_1
*I *2639:Q O *D sky130_fd_sc_hd__dfxtp_1
*CAP
1 *2938:A 9.94695e-05
2 *2458:A1 0.000233639
3 *2639:Q 0.000113086
4 *405:6 0.000446194
5 *2458:A1 *2476:A0 0.000201413
6 *2458:A1 *2486:A0 5.4256e-05
7 *2458:A0 *2458:A1 7.63125e-05
8 *2647:D *2458:A1 0
9 *323:102 *2458:A1 0
10 *325:77 *2458:A1 4.4073e-05
11 *325:77 *2938:A 1.08758e-05
12 *325:83 *2458:A1 5.87417e-05
*RES
1 *2639:Q *405:6 3.085 
2 *405:6 *2458:A1 11.315 
3 *405:6 *2938:A 3.1 
*END

*D_NET *406 0.001062
*CONN
*I *2921:A I *D sky130_fd_sc_hd__dlygate4sd3_1
*I *2464:A1 I *D sky130_fd_sc_hd__mux4_1
*I *2640:Q O *D sky130_fd_sc_hd__dfxtp_1
*CAP
1 *2921:A 8.67587e-05
2 *2464:A1 0.00019096
3 *2640:Q 0.000192343
4 *406:8 0.000470062
5 *2464:A1 *639:124 0
6 *2921:A *639:124 0
7 *406:8 *2839:A 9.43648e-05
8 *2485:S *2464:A1 0
9 *2485:S *2921:A 0
10 *28:17 *2464:A1 2.75145e-05
11 *325:93 *2921:A 0
*RES
1 *2640:Q *406:8 6.12 
2 *406:8 *2464:A1 6.705 
3 *406:8 *2921:A 4.98 
*END

*D_NET *407 0.00242376
*CONN
*I *2959:A I *D sky130_fd_sc_hd__dlygate4sd3_1
*I *2420:A2 I *D sky130_fd_sc_hd__mux4_1
*I *2625:Q O *D sky130_fd_sc_hd__dfxtp_1
*CAP
1 *2959:A 0.000149622
2 *2420:A2 0.000254986
3 *2625:Q 8.61487e-05
4 *407:8 0.000490756
5 *2420:A2 *2895:A 8.53113e-06
6 *2420:A2 *415:10 0.000233019
7 *2420:A2 *667:30 1.21855e-05
8 *2420:A2 *667:51 2.42236e-05
9 *2959:A *2619:RESET_B 0.000103402
10 *407:8 *2600:A0 5.10957e-05
11 *407:8 *2619:RESET_B 0.00014896
12 *2976:A *2959:A 0.000436282
13 *2976:A *407:8 5.33085e-05
14 *323:80 *2959:A 6.58423e-05
15 *323:86 *2959:A 0.000113821
16 *327:34 *2420:A2 5.23362e-05
17 *391:10 *407:8 0.000139238
*RES
1 *2625:Q *407:8 6.765 
2 *407:8 *2420:A2 11.2788 
3 *407:8 *2959:A 8.505 
*END

*D_NET *408 0.00246817
*CONN
*I *2969:A I *D sky130_fd_sc_hd__dlygate4sd3_1
*I *2427:A2 I *D sky130_fd_sc_hd__mux4_1
*I *2626:Q O *D sky130_fd_sc_hd__dfxtp_1
*CAP
1 *2969:A 0.000218872
2 *2427:A2 6.86694e-05
3 *2626:Q 7.84599e-05
4 *408:6 0.000366001
5 *2427:A2 *2427:A3 0.000202095
6 *2427:A2 *2427:S1 2.20665e-05
7 *2969:A *2437:S 0.00055551
8 *2969:A *2471:A0 5.26823e-05
9 *2969:A *634:168 0
10 *408:6 *2437:S 0.000311277
11 *408:6 *664:82 1.91597e-05
12 *2474:S *408:6 0.000120655
13 *2626:D *408:6 2.11084e-05
14 *2634:D *2427:A2 0.000203755
15 *323:20 *2969:A 0.000181249
16 *323:20 *408:6 4.66108e-05
*RES
1 *2626:Q *408:6 4.465 
2 *408:6 *2427:A2 8.19875 
3 *408:6 *2969:A 7.24 
*END

*D_NET *409 0.00272989
*CONN
*I *2434:A2 I *D sky130_fd_sc_hd__mux4_1
*I *2879:A I *D sky130_fd_sc_hd__dlygate4sd3_1
*I *2627:Q O *D sky130_fd_sc_hd__dfxtp_1
*CAP
1 *2434:A2 0.000406199
2 *2879:A 0.000160374
3 *2627:Q 3.82711e-05
4 *409:8 0.000604844
5 *2434:A2 *2434:A3 4.30169e-05
6 *2434:A2 *2434:S0 4.82863e-05
7 *2434:A2 *417:6 3.1562e-06
8 *2879:A *2457:S1 0.000558866
9 *2879:A *2602:A1 0.000245199
10 *2879:A *2607:S 6.4422e-05
11 *409:8 *2457:S1 0.000179922
12 *409:8 *2602:A1 0.000187766
13 *2434:A1 *2434:A2 0.000102972
14 *2436:A1 *2879:A 8.65961e-05
15 *325:93 *2879:A 0
*RES
1 *2627:Q *409:8 5.745 
2 *409:8 *2879:A 9.855 
3 *409:8 *2434:A2 9.00375 
*END

*D_NET *410 0.00268246
*CONN
*I *2440:A2 I *D sky130_fd_sc_hd__mux4_1
*I *2962:A I *D sky130_fd_sc_hd__dlygate4sd3_1
*I *2628:Q O *D sky130_fd_sc_hd__dfxtp_1
*CAP
1 *2440:A2 0.000257667
2 *2962:A 0
3 *2628:Q 0.000299424
4 *410:12 0.000557091
5 *2440:A2 *2473:A1 0.000163199
6 *2440:A2 *2483:A1 7.40446e-05
7 *2440:A2 *418:10 1.54111e-05
8 *2440:A2 *641:10 0.000177257
9 *2440:A2 *659:116 7.00066e-05
10 *410:12 *2467:S 0
11 *410:12 *2473:A1 0.000196376
12 *410:12 *2624:RESET_B 0.000468919
13 *410:12 *632:14 8.53113e-06
14 *2442:A3 *2440:A2 1.30169e-05
15 *2517:S *410:12 7.00066e-05
16 *2636:CLK *2440:A2 0.000197703
17 *2636:D *2440:A2 6.97202e-05
18 *355:67 *2440:A2 2.97004e-06
19 *355:90 *410:12 4.11194e-05
*RES
1 *2628:Q *410:12 12.89 
2 *410:12 *2962:A 1.6 
3 *410:12 *2440:A2 12.8825 
*END

*D_NET *411 0.00294822
*CONN
*I *2961:A I *D sky130_fd_sc_hd__dlygate4sd3_1
*I *2446:A2 I *D sky130_fd_sc_hd__mux4_1
*I *2629:Q O *D sky130_fd_sc_hd__dfxtp_1
*CAP
1 *2961:A 0.000266532
2 *2446:A2 8.33117e-05
3 *2629:Q 0.0004294
4 *411:12 0.000779243
5 *2446:A2 *2446:A3 0.00011133
6 *2446:A2 *2446:S1 6.81315e-05
7 *2446:A2 *647:78 4.58014e-05
8 *2961:A *2446:S1 0.000119227
9 *2961:A *2484:A0 0.000134947
10 *2961:A *647:78 0.000108569
11 *2961:A *650:30 0.000243708
12 *411:12 *657:104 0.000142852
13 *2446:A1 *2446:A2 3.08098e-05
14 *2783:D *2446:A2 9.78012e-05
15 *2783:D *2961:A 7.23602e-05
16 *2798:A *2446:A2 1.59999e-05
17 *348:36 *411:12 3.45588e-05
18 *348:38 *411:12 0.000163636
*RES
1 *2629:Q *411:12 9.69 
2 *411:12 *2446:A2 6.5325 
3 *411:12 *2961:A 10.92 
*END

*D_NET *412 0.00124532
*CONN
*I *2452:A2 I *D sky130_fd_sc_hd__mux4_1
*I *2977:A I *D sky130_fd_sc_hd__dlygate4sd3_1
*I *2630:Q O *D sky130_fd_sc_hd__dfxtp_1
*CAP
1 *2452:A2 0.000316978
2 *2977:A 2.08101e-05
3 *2630:Q 0.000167953
4 *412:6 0.000505742
5 *2452:A2 *2495:A1 1.10377e-05
6 *412:6 *2475:A0 1.7386e-05
7 *412:6 *655:83 0.000163199
8 *2452:A1 *2452:A2 2.11084e-05
9 *2452:A1 *412:6 2.11084e-05
*RES
1 *2630:Q *412:6 4.81 
2 *412:6 *2977:A 1.96 
3 *412:6 *2452:A2 6.40375 
*END

*D_NET *413 0.00230273
*CONN
*I *2458:A2 I *D sky130_fd_sc_hd__mux4_1
*I *2997:A I *D sky130_fd_sc_hd__dlygate4sd3_1
*I *2631:Q O *D sky130_fd_sc_hd__dfxtp_1
*CAP
1 *2458:A2 6.27731e-05
2 *2997:A 0.00020339
3 *2631:Q 0.000162321
4 *413:10 0.000428485
5 *2458:A2 *2458:A3 0.000158297
6 *2458:A2 *2459:S1 5.53249e-06
7 *2458:A2 *2606:A0 2.05864e-05
8 *2458:A2 *643:157 7.63204e-05
9 *2997:A *421:8 3.1835e-05
10 *2997:A *643:157 0.000625089
11 *413:10 *2458:A3 5.63043e-05
12 *413:10 *2606:A1 4.99619e-05
13 *413:10 *2995:A 5.02217e-05
14 *2460:A3 *2458:A2 1.10377e-05
15 *2496:S *2997:A 0.000157393
16 *323:114 *2458:A2 0
17 *323:114 *413:10 0
18 *334:41 *413:10 0.000203178
*RES
1 *2631:Q *413:10 7.32 
2 *413:10 *2997:A 9.915 
3 *413:10 *2458:A2 5.68875 
*END

*D_NET *414 0.00201273
*CONN
*I *2988:A I *D sky130_fd_sc_hd__dlygate4sd3_1
*I *2464:A2 I *D sky130_fd_sc_hd__mux4_1
*I *2632:Q O *D sky130_fd_sc_hd__dfxtp_1
*CAP
1 *2988:A 0.000201099
2 *2464:A2 0.000136376
3 *2632:Q 0.000174392
4 *414:6 0.000511867
5 *2464:A2 *2464:A3 9.67081e-06
6 *2464:A2 *2464:S1 4.55864e-06
7 *2464:A2 *422:10 0.000210194
8 *2988:A *2607:A0 0.000192125
9 *2988:A *652:12 3.57349e-05
10 *2988:A *652:31 0.000116158
11 *414:6 *2607:A0 0.000278111
12 *2466:A3 *2464:A2 1.59999e-05
13 *2466:A3 *2988:A 0.000116158
14 *28:17 *2464:A2 1.0284e-05
15 *323:120 *2464:A2 0
*RES
1 *2632:Q *414:6 4.12 
2 *414:6 *2464:A2 8.5325 
3 *414:6 *2988:A 9.155 
*END

*D_NET *415 0.00166804
*CONN
*I *2420:A3 I *D sky130_fd_sc_hd__mux4_1
*I *2895:A I *D sky130_fd_sc_hd__dlygate4sd3_1
*I *2779:Q O *D sky130_fd_sc_hd__dfxtp_1
*CAP
1 *2420:A3 0
2 *2895:A 0.000160689
3 *2779:Q 0.000230038
4 *415:10 0.000390727
5 *2895:A *643:126 1.86404e-05
6 *2895:A *667:51 7.5416e-05
7 *2895:A *670:80 0.000151572
8 *415:10 *2600:A0 7.87272e-05
9 *415:10 *667:30 1.56428e-05
10 *2420:A1 *415:10 4.66108e-05
11 *2420:A2 *2895:A 8.53113e-06
12 *2420:A2 *415:10 0.000233019
13 *327:34 *2895:A 0.000134538
14 *329:38 *2895:A 3.72916e-05
15 *334:41 *2895:A 8.65961e-05
*RES
1 *2779:Q *415:10 5.965 
2 *415:10 *2895:A 10.58 
3 *415:10 *2420:A3 1.6 
*END

*D_NET *416 0.00184857
*CONN
*I *2427:A3 I *D sky130_fd_sc_hd__mux4_1
*I *2871:A I *D sky130_fd_sc_hd__dlygate4sd3_1
*I *2780:Q O *D sky130_fd_sc_hd__dfxtp_1
*CAP
1 *2427:A3 0.000174584
2 *2871:A 8.30716e-05
3 *2780:Q 3.92715e-05
4 *416:8 0.000296927
5 *2871:A *2601:A0 0.000198945
6 *2871:A *670:64 0.000198945
7 *2427:A2 *2427:A3 0.000202095
8 *2634:D *2427:A3 4.50017e-05
9 *325:26 *416:8 1.4399e-05
10 *333:46 *2427:A3 0.000401347
11 *333:46 *2871:A 3.90266e-05
12 *345:152 *2427:A3 4.28313e-05
13 *345:152 *2871:A 0.000112123
*RES
1 *2780:Q *416:8 4.05 
2 *416:8 *2871:A 6.81 
3 *416:8 *2427:A3 9.09 
*END

*D_NET *417 0.00156959
*CONN
*I *2434:A3 I *D sky130_fd_sc_hd__mux4_1
*I *2894:A I *D sky130_fd_sc_hd__dlygate4sd3_1
*I *2781:Q O *D sky130_fd_sc_hd__dfxtp_1
*CAP
1 *2434:A3 0.000181735
2 *2894:A 0.000124929
3 *2781:Q 0.00019335
4 *417:6 0.000500014
5 *2434:A3 *2434:S0 1.1392e-05
6 *2434:A3 *2460:S1 0
7 *2434:A3 *2854:A 2.24336e-05
8 *2894:A *2434:S0 0.000289004
9 *2894:A *2457:S1 0
10 *2894:A *2482:A0 7.23602e-05
11 *2894:A *2602:A1 0
12 *2434:A1 *417:6 9.50818e-05
13 *2434:A2 *2434:A3 4.30169e-05
14 *2434:A2 *417:6 3.1562e-06
15 *325:93 *2894:A 3.31204e-05
*RES
1 *2781:Q *417:6 3.775 
2 *417:6 *2894:A 9.02 
3 *417:6 *2434:A3 8.045 
*END

*D_NET *418 0.00181716
*CONN
*I *2440:A3 I *D sky130_fd_sc_hd__mux4_1
*I *2975:A I *D sky130_fd_sc_hd__dlygate4sd3_1
*I *2782:Q O *D sky130_fd_sc_hd__dfxtp_1
*CAP
1 *2440:A3 0
2 *2975:A 0.00016476
3 *2782:Q 0.00034738
4 *418:10 0.00051214
5 *2975:A *641:10 2.10433e-05
6 *2975:A *641:12 0.000126762
7 *2975:A *650:32 0.000335163
8 *418:10 *641:10 6.75724e-05
9 *418:10 *650:32 7.70758e-05
10 *2440:A2 *418:10 1.54111e-05
11 *2442:A3 *418:10 1.74351e-05
12 *355:75 *418:10 0.000132415
*RES
1 *2782:Q *418:10 8.37 
2 *418:10 *2975:A 8.325 
3 *418:10 *2440:A3 3.6 
*END

*D_NET *419 0.00211679
*CONN
*I *2872:A I *D sky130_fd_sc_hd__dlygate4sd3_1
*I *2446:A3 I *D sky130_fd_sc_hd__mux4_1
*I *2783:Q O *D sky130_fd_sc_hd__dfxtp_1
*CAP
1 *2872:A 0.000133065
2 *2446:A3 0.00046841
3 *2783:Q 0
4 *419:4 0.000601475
5 *2446:A3 *647:78 7.35443e-05
6 *2446:A3 *650:30 0.000234674
7 *2872:A *639:59 6.97202e-05
8 *2446:A2 *2446:A3 0.00011133
9 *2637:CLK *2872:A 4.80285e-05
10 *2783:D *2446:A3 1.54049e-05
11 *333:108 *2872:A 8.9014e-05
12 *348:32 *2872:A 2.59981e-05
13 *348:36 *2446:A3 0.000149248
14 *348:63 *2872:A 9.68787e-05
*RES
1 *2783:Q *419:4 1.6 
2 *419:4 *2446:A3 12.47 
3 *419:4 *2872:A 9.395 
*END

*D_NET *420 0.00169965
*CONN
*I *2452:A3 I *D sky130_fd_sc_hd__mux4_1
*I *2880:A I *D sky130_fd_sc_hd__dlygate4sd3_1
*I *2784:Q O *D sky130_fd_sc_hd__dfxtp_1
*CAP
1 *2452:A3 5.26998e-05
2 *2880:A 0.00017823
3 *2784:Q 0.000233451
4 *420:8 0.000464381
5 *2452:A3 *2463:S1 9.3062e-06
6 *2452:A3 *2495:A1 7.23602e-05
7 *2452:A3 *641:110 1.82476e-05
8 *2452:A3 *645:55 3.38982e-05
9 *2452:A3 *645:68 2.15738e-05
10 *2880:A *2450:S0 9.33406e-05
11 *2880:A *2495:A1 8.71195e-05
12 *2880:A *645:55 5.28781e-05
13 *2880:A *656:56 3.50033e-05
14 *2452:A0 *420:8 2.75229e-05
15 *2454:A0 *2880:A 0.000164679
16 *3001:A *420:8 0.000100729
17 *339:44 *2880:A 5.42303e-05
*RES
1 *2784:Q *420:8 6.465 
2 *420:8 *2880:A 8.745 
3 *420:8 *2452:A3 5.235 
*END

*D_NET *421 0.000934667
*CONN
*I *2458:A3 I *D sky130_fd_sc_hd__mux4_1
*I *2995:A I *D sky130_fd_sc_hd__dlygate4sd3_1
*I *2785:Q O *D sky130_fd_sc_hd__dfxtp_1
*CAP
1 *2458:A3 0.000131701
2 *2995:A 8.81412e-05
3 *2785:Q 6.67864e-05
4 *421:8 0.000286629
5 *2458:A3 *654:16 0
6 *2458:A3 *654:20 0
7 *2995:A *654:20 0
8 *2458:A2 *2458:A3 0.000158297
9 *2647:D *2458:A3 6.47516e-05
10 *2997:A *421:8 3.1835e-05
11 *323:114 *2995:A 0
12 *413:10 *2458:A3 5.63043e-05
13 *413:10 *2995:A 5.02217e-05
*RES
1 *2785:Q *421:8 4.395 
2 *421:8 *2995:A 4.98 
3 *421:8 *2458:A3 6.81 
*END

*D_NET *422 0.00254663
*CONN
*I *2464:A3 I *D sky130_fd_sc_hd__mux4_1
*I *2901:A I *D sky130_fd_sc_hd__dlygate4sd3_1
*I *2786:Q O *D sky130_fd_sc_hd__dfxtp_1
*CAP
1 *2464:A3 5.73027e-06
2 *2901:A 0.000792516
3 *2786:Q 0.000160677
4 *422:10 0.000958923
5 *2464:A3 *2487:A1 1.92979e-05
6 *422:10 *2487:A1 0.000272787
7 *422:10 *2844:A 8.8266e-05
8 *2464:A2 *2464:A3 9.67081e-06
9 *2464:A2 *422:10 0.000210194
10 *323:120 *422:10 0
11 *334:74 *2901:A 1.92979e-05
12 *340:110 *2901:A 9.26907e-06
*RES
1 *2786:Q *422:10 7.6875 
2 *422:10 *2901:A 6.32717 
3 *422:10 *2464:A3 3.8325 
*END

*D_NET *423 0.00258616
*CONN
*I *2998:A I *D sky130_fd_sc_hd__dlygate4sd3_1
*I *2419:A1 I *D sky130_fd_sc_hd__mux4_1
*I *2657:Q O *D sky130_fd_sc_hd__dfxtp_1
*CAP
1 *2998:A 0.000207658
2 *2419:A1 0.000373293
3 *2657:Q 0.000194419
4 *423:8 0.000775369
5 *2419:A1 *2419:A3 1.83847e-05
6 *2419:A1 *2419:S0 1.56428e-05
7 *2419:A1 *2999:A 6.83447e-05
8 *2419:A1 *637:30 2.09514e-05
9 *2998:A *2421:S0 9.86611e-05
10 *2998:A *2999:A 0.000215562
11 *2998:A *637:30 6.34737e-06
12 *2419:A0 *2419:A1 1.83756e-05
13 *2516:S *2419:A1 2.02559e-05
14 *336:8 *2998:A 0.00026617
15 *337:26 *2998:A 1.88904e-05
16 *337:26 *423:8 0.00026784
*RES
1 *2657:Q *423:8 6.12 
2 *423:8 *2419:A1 8.295 
3 *423:8 *2998:A 8.775 
*END

*D_NET *424 0.00220731
*CONN
*I *2910:A I *D sky130_fd_sc_hd__dlygate4sd3_1
*I *2425:A1 I *D sky130_fd_sc_hd__mux4_1
*I *2658:Q O *D sky130_fd_sc_hd__dfxtp_1
*CAP
1 *2910:A 6.76484e-05
2 *2425:A1 0.000394036
3 *2658:Q 0.000216876
4 *424:8 0.00067856
5 *2425:A1 *2429:S 4.39656e-05
6 *2425:A1 *2529:A0 0.000160635
7 *2425:A1 *2529:A1 6.58955e-06
8 *2425:A1 *2855:A 6.63219e-06
9 *2425:A1 *634:52 0
10 *2425:A1 *634:168 0
11 *2425:A1 *705:12 5.28702e-05
12 *2910:A *2429:S 6.14983e-05
13 *2426:A0 *2425:A1 0.000417892
14 *2426:A1 *424:8 9.05765e-05
15 *2674:D *2425:A1 9.53428e-06
16 *333:98 *2425:A1 0
17 *333:98 *2910:A 0
*RES
1 *2658:Q *424:8 6.12 
2 *424:8 *2425:A1 11.61 
3 *424:8 *2910:A 4.98 
*END

*D_NET *425 0.00147442
*CONN
*I *2433:A1 I *D sky130_fd_sc_hd__mux4_1
*I *3000:A I *D sky130_fd_sc_hd__dlygate4sd3_1
*I *2659:Q O *D sky130_fd_sc_hd__dfxtp_1
*CAP
1 *2433:A1 0
2 *3000:A 0.000190216
3 *2659:Q 0.000199624
4 *425:10 0.00038984
5 *3000:A *650:66 9.2041e-05
6 *2433:A0 *3000:A 0.000245893
7 *2535:S *3000:A 0
8 *2535:S *425:10 0
9 *2659:D *3000:A 0
10 *2659:D *425:10 0
11 *2675:D *3000:A 9.30787e-05
12 *331:56 *3000:A 0.000123225
13 *337:28 *425:10 0
14 *345:20 *3000:A 7.35729e-05
15 *345:72 *3000:A 0
16 *361:22 *425:10 6.69341e-05
*RES
1 *2659:Q *425:10 6.465 
2 *425:10 *3000:A 8.925 
3 *425:10 *2433:A1 3.6 
*END

*D_NET *426 0.0015175
*CONN
*I *2992:A I *D sky130_fd_sc_hd__dlygate4sd3_1
*I *2439:A1 I *D sky130_fd_sc_hd__mux4_1
*I *2660:Q O *D sky130_fd_sc_hd__dfxtp_1
*CAP
1 *2992:A 0.000162799
2 *2439:A1 0.000141367
3 *2660:Q 4.16082e-05
4 *426:8 0.000345774
5 *2439:A1 *2513:A0 0.000229203
6 *2439:A1 *2531:A1 4.82919e-05
7 *2992:A *2439:S0 2.68721e-05
8 *2992:A *2513:A0 6.38291e-05
9 *2533:S *426:8 1.56428e-05
10 *2918:A *2439:A1 1.91597e-05
11 *338:44 *2439:A1 9.52646e-05
12 *342:77 *2439:A1 0.000210838
13 *342:77 *2992:A 0.000116853
*RES
1 *2660:Q *426:8 4.05 
2 *426:8 *2439:A1 8.19 
3 *426:8 *2992:A 6.81 
*END

*D_NET *427 0.00140827
*CONN
*I *2445:A1 I *D sky130_fd_sc_hd__mux4_1
*I *2889:A I *D sky130_fd_sc_hd__dlygate4sd3_1
*I *2661:Q O *D sky130_fd_sc_hd__dfxtp_1
*CAP
1 *2445:A1 0
2 *2889:A 0.000129083
3 *2661:Q 0.000296988
4 *427:10 0.00042607
5 *2889:A *642:113 4.82919e-05
6 *427:10 *2532:A0 3.77036e-05
7 *427:10 *2532:A1 3.09088e-05
8 *2532:S *427:10 0.00019637
9 *2956:A *2889:A 5.53249e-06
10 *2956:A *427:10 0.000158357
11 *371:10 *2889:A 7.89689e-05
*RES
1 *2661:Q *427:10 9.135 
2 *427:10 *2889:A 6.195 
3 *427:10 *2445:A1 3.6 
*END

*D_NET *428 0.00303032
*CONN
*I *2451:A1 I *D sky130_fd_sc_hd__mux4_1
*I *2974:A I *D sky130_fd_sc_hd__dlygate4sd3_1
*I *2662:Q O *D sky130_fd_sc_hd__dfxtp_1
*CAP
1 *2451:A1 7.98036e-05
2 *2974:A 0.000332522
3 *2662:Q 0.000516923
4 *428:10 0.000929249
5 *428:10 *2453:S0 0
6 *2505:S *428:10 0.000104401
7 *2662:D *2451:A1 0.000162325
8 *2662:D *428:10 0.000284045
9 *2676:CLK *2974:A 5.4155e-06
10 *2678:CLK *2974:A 0.000120655
11 *2678:D *2451:A1 7.88397e-05
12 *2678:D *428:10 2.97004e-06
13 *354:38 *2451:A1 0
14 *354:108 *2974:A 0.00041317
*RES
1 *2662:Q *428:10 10.695 
2 *428:10 *2974:A 9.93 
3 *428:10 *2451:A1 6 
*END

*D_NET *429 0.00141531
*CONN
*I *2457:A1 I *D sky130_fd_sc_hd__mux4_1
*I *2946:A I *D sky130_fd_sc_hd__dlygate4sd3_1
*I *2663:Q O *D sky130_fd_sc_hd__dfxtp_1
*CAP
1 *2457:A1 9.74206e-05
2 *2946:A 3.48999e-05
3 *2663:Q 0.00013303
4 *429:8 0.000265351
5 *2457:A1 *2460:S1 0
6 *2457:A1 *2516:A1 2.25161e-05
7 *2457:A1 *2534:A0 3.39069e-05
8 *2457:A1 *654:64 0.000100156
9 *2946:A *2516:A1 1.7396e-05
10 *325:83 *2457:A1 0.000285202
11 *325:83 *2946:A 5.16348e-05
12 *337:95 *2946:A 8.8266e-05
13 *359:14 *2946:A 8.65961e-05
14 *359:14 *429:8 0.000198934
*RES
1 *2663:Q *429:8 5.43 
2 *429:8 *2946:A 5.01 
3 *429:8 *2457:A1 7.02 
*END

*D_NET *430 0.00134334
*CONN
*I *2935:A I *D sky130_fd_sc_hd__dlygate4sd3_1
*I *2463:A1 I *D sky130_fd_sc_hd__mux4_1
*I *2664:Q O *D sky130_fd_sc_hd__dfxtp_1
*CAP
1 *2935:A 9.51458e-05
2 *2463:A1 0.000151881
3 *2664:Q 5.74818e-05
4 *430:8 0.000304509
5 *2463:A1 *637:104 4.40812e-05
6 *2463:A1 *639:111 0
7 *2463:A1 *639:124 0
8 *2463:A1 *652:33 0
9 *2935:A *2462:S1 3.45588e-05
10 *2466:A2 *2463:A1 0.000116151
11 *2466:A2 *2935:A 0.000225175
12 *2466:A3 *2463:A1 5.4256e-05
13 *2466:A3 *2935:A 8.69212e-05
14 *2473:S *430:8 8.65905e-05
15 *2572:S *2935:A 8.65905e-05
*RES
1 *2664:Q *430:8 4.395 
2 *430:8 *2463:A1 7.02 
3 *430:8 *2935:A 7.05 
*END

*D_NET *431 0.00130896
*CONN
*I *2419:A2 I *D sky130_fd_sc_hd__mux4_1
*I *2926:A I *D sky130_fd_sc_hd__dlygate4sd3_1
*I *2705:Q O *D sky130_fd_sc_hd__dfxtp_1
*CAP
1 *2419:A2 0.00020808
2 *2926:A 0
3 *2705:Q 0.000243686
4 *431:8 0.000451766
5 *2419:A2 *2999:A 2.97004e-06
6 *2419:A2 *439:16 4.19967e-05
7 *2419:A2 *637:30 0.000332035
8 *431:8 *2565:A0 1.7386e-05
9 *2516:S *2419:A2 1.10377e-05
10 *264:20 *2419:A2 0
*RES
1 *2705:Q *431:8 5.08 
2 *431:8 *2926:A 1.6 
3 *431:8 *2419:A2 10.1788 
*END

*D_NET *432 0.00264772
*CONN
*I *2958:A I *D sky130_fd_sc_hd__dlygate4sd3_1
*I *2425:A2 I *D sky130_fd_sc_hd__mux4_1
*I *2706:Q O *D sky130_fd_sc_hd__dfxtp_1
*CAP
1 *2958:A 0.000269423
2 *2425:A2 0.000102003
3 *2706:Q 7.85147e-05
4 *432:6 0.00044994
5 *2425:A2 *2425:S1 2.74381e-05
6 *2958:A *2424:S0 3.96653e-05
7 *2958:A *2566:A0 3.739e-05
8 *2958:A *2575:A0 6.43251e-05
9 *2958:A *2575:A1 2.68798e-05
10 *2958:A *665:6 7.3151e-05
11 *2958:A *665:10 0.000452552
12 *432:6 *2424:S0 4.21973e-05
13 *2426:A0 *2425:A2 9.64638e-06
14 *2426:A1 *432:6 4.82919e-05
15 *2575:S *2958:A 4.66108e-05
16 *2578:S *2425:A2 0.000106906
17 *2714:D *2958:A 0.000193801
18 *2714:D *432:6 8.65905e-05
19 *325:34 *2425:A2 0.00021535
20 *338:22 *2958:A 4.66108e-05
21 *338:32 *2958:A 7.14699e-05
22 *338:32 *432:6 0.000158965
*RES
1 *2706:Q *432:6 3.775 
2 *432:6 *2425:A2 8.5325 
3 *432:6 *2958:A 8.965 
*END

*D_NET *433 0.00165172
*CONN
*I *2433:A2 I *D sky130_fd_sc_hd__mux4_1
*I *2911:A I *D sky130_fd_sc_hd__dlygate4sd3_1
*I *2707:Q O *D sky130_fd_sc_hd__dfxtp_1
*CAP
1 *2433:A2 0.000171985
2 *2911:A 0.000359404
3 *2707:Q 0
4 *433:6 0.000531389
5 *2433:A2 *2433:A3 8.0646e-05
6 *2433:A2 *2433:S1 1.70935e-05
7 *2433:A2 *2839:A 5.82049e-05
8 *2911:A *2567:A0 3.00381e-05
9 *2517:S *2911:A 0.00018305
10 *2572:S *2911:A 7.37195e-05
11 *2675:CLK *2433:A2 0
12 *338:109 *2433:A2 9.70699e-05
13 *338:109 *2911:A 4.91189e-05
14 *345:72 *2433:A2 0
15 *345:72 *2911:A 0
*RES
1 *2707:Q *433:6 3.6 
2 *433:6 *2911:A 10.575 
3 *433:6 *2433:A2 7.8225 
*END

*D_NET *434 0.00161827
*CONN
*I *2989:A I *D sky130_fd_sc_hd__dlygate4sd3_1
*I *2439:A2 I *D sky130_fd_sc_hd__mux4_1
*I *2708:Q O *D sky130_fd_sc_hd__dfxtp_1
*CAP
1 *2989:A 4.17823e-05
2 *2439:A2 0.000426326
3 *2708:Q 0
4 *434:6 0.000468108
5 *2439:A2 *2439:A3 4.43871e-06
6 *2439:A2 *2439:S0 0
7 *2439:A2 *2441:S0 0
8 *2439:A2 *2577:A1 8.49205e-05
9 *2439:A2 *641:143 3.98213e-05
10 *2439:A2 *659:116 4.19059e-05
11 *2989:A *641:143 4.91189e-05
12 *2989:A *659:116 4.49328e-05
13 *2533:S *2439:A2 0.000400905
14 *338:44 *2439:A2 1.60083e-05
*RES
1 *2708:Q *434:6 3.6 
2 *434:6 *2439:A2 15.5725 
3 *434:6 *2989:A 4.98 
*END

*D_NET *435 0.00183969
*CONN
*I *2445:A2 I *D sky130_fd_sc_hd__mux4_1
*I *2876:A I *D sky130_fd_sc_hd__dlygate4sd3_1
*I *2709:Q O *D sky130_fd_sc_hd__dfxtp_1
*CAP
1 *2445:A2 0.000332097
2 *2876:A 0.000181468
3 *2709:Q 0.000254081
4 *435:6 0.000767647
5 *2876:A *2532:A1 1.74678e-05
6 *435:6 *2578:A0 2.75229e-05
7 *435:6 *2578:A1 4.80285e-05
8 *2448:A0 *2445:A2 4.66108e-05
9 *2448:A0 *2876:A 3.47837e-05
10 *2448:A1 *2876:A 9.37731e-05
11 *2661:CLK *2876:A 1.56428e-05
12 *2717:D *435:6 1.47347e-05
13 *347:129 *435:6 5.83121e-06
*RES
1 *2709:Q *435:6 5.155 
2 *435:6 *2876:A 8.48 
3 *435:6 *2445:A2 6.4825 
*END

*D_NET *436 0.00168393
*CONN
*I *2924:A I *D sky130_fd_sc_hd__dlygate4sd3_1
*I *2451:A2 I *D sky130_fd_sc_hd__mux4_1
*I *2710:Q O *D sky130_fd_sc_hd__dfxtp_1
*CAP
1 *2924:A 3.59762e-05
2 *2451:A2 0.000165588
3 *2710:Q 0.000231191
4 *436:8 0.000432754
5 *2451:A2 *641:42 0.000212286
6 *2451:A2 *645:121 0
7 *2451:A2 *656:23 4.9968e-05
8 *2924:A *641:42 0.000141606
9 *2924:A *656:23 0.000108329
10 *2924:A *656:56 3.09233e-05
11 *436:8 *2570:A0 4.66826e-05
12 *436:8 *2570:A1 4.47125e-05
13 *2454:A0 *2451:A2 5.92191e-05
14 *2570:S *436:8 8.23457e-05
15 *2577:S *2451:A2 2.12392e-05
16 *2710:D *436:8 2.11084e-05
*RES
1 *2710:Q *436:8 7.155 
2 *436:8 *2451:A2 11.1775 
3 *436:8 *2924:A 5.235 
*END

*D_NET *437 0.00218786
*CONN
*I *2933:A I *D sky130_fd_sc_hd__dlygate4sd3_1
*I *2457:A2 I *D sky130_fd_sc_hd__mux4_1
*I *2711:Q O *D sky130_fd_sc_hd__dfxtp_1
*CAP
1 *2933:A 1.85936e-05
2 *2457:A2 7.5087e-05
3 *2711:Q 0.000203976
4 *437:12 0.000297656
5 *2457:A2 *2457:A3 0.000160658
6 *2933:A *2580:A1 7.3151e-05
7 *437:12 *2571:A0 6.95335e-05
8 *437:12 *2580:A1 0.000471388
9 *2460:A0 *2457:A2 6.10014e-05
10 *2460:A2 *437:12 2.39856e-05
11 *2580:S *2457:A2 9.3229e-06
12 *323:114 *437:12 0.000288997
13 *341:42 *2457:A2 0
14 *341:42 *2933:A 8.40269e-05
15 *341:42 *437:12 0.000350486
*RES
1 *2711:Q *437:12 12.92 
2 *437:12 *2457:A2 7.68875 
3 *437:12 *2933:A 2.395 
*END

*D_NET *438 0.00133779
*CONN
*I *2973:A I *D sky130_fd_sc_hd__dlygate4sd3_1
*I *2463:A2 I *D sky130_fd_sc_hd__mux4_1
*I *2712:Q O *D sky130_fd_sc_hd__dfxtp_1
*CAP
1 *2973:A 0.000115212
2 *2463:A2 0.000250581
3 *2712:Q 0
4 *438:6 0.000365793
5 *2463:A2 *2517:A0 2.87867e-05
6 *2463:A2 *446:8 0.00012148
7 *2973:A *2517:A0 7.07664e-05
8 *2466:A0 *2463:A2 0.000176624
9 *2466:A1 *2463:A2 0
10 *2475:S *2463:A2 0.000121605
11 *2475:S *2973:A 8.08153e-06
12 *323:126 *2973:A 7.88566e-05
*RES
1 *2712:Q *438:6 3.6 
2 *438:6 *2463:A2 9.7125 
3 *438:6 *2973:A 6.255 
*END

*D_NET *439 0.00218156
*CONN
*I *2999:A I *D sky130_fd_sc_hd__dlygate4sd3_1
*I *2419:A3 I *D sky130_fd_sc_hd__mux4_1
*I *2713:Q O *D sky130_fd_sc_hd__dfxtp_1
*CAP
1 *2999:A 0.000131032
2 *2419:A3 2.92165e-05
3 *2713:Q 0.00034944
4 *439:16 0.000509689
5 *2999:A *637:30 0
6 *439:16 *2574:A1 4.80285e-05
7 *439:16 *666:93 2.20732e-05
8 *439:16 *666:106 5.58772e-05
9 *2419:A1 *2419:A3 1.83847e-05
10 *2419:A1 *2999:A 6.83447e-05
11 *2419:A2 *2999:A 2.97004e-06
12 *2419:A2 *439:16 4.19967e-05
13 *2516:S *2419:A3 5.05521e-05
14 *2713:D *439:16 9.47454e-05
15 *2998:A *2999:A 0.000215562
16 *264:20 *2999:A 0.000336076
17 *264:20 *439:16 0.000114492
18 *342:67 *439:16 9.30787e-05
*RES
1 *2713:Q *439:16 13.315 
2 *439:16 *2419:A3 4.395 
3 *439:16 *2999:A 7.785 
*END

*D_NET *440 0.00159153
*CONN
*I *2425:A3 I *D sky130_fd_sc_hd__mux4_1
*I *2897:A I *D sky130_fd_sc_hd__dlygate4sd3_1
*I *2714:Q O *D sky130_fd_sc_hd__dfxtp_1
*CAP
1 *2425:A3 0.00025453
2 *2897:A 0.000162699
3 *2714:Q 0
4 *440:4 0.000417229
5 *2425:A3 *2424:S0 1.50624e-05
6 *2425:A3 *2425:S1 1.17649e-05
7 *2425:A3 *2566:A1 2.7648e-05
8 *2425:A3 *647:89 4.74882e-05
9 *2426:A0 *2425:A3 6.12675e-06
10 *2426:A1 *2425:A3 7.59952e-05
11 *2426:A1 *2897:A 5.55204e-05
12 *2714:D *2897:A 7.30547e-05
13 *325:34 *2425:A3 0.00029783
14 *325:34 *2897:A 0
15 *338:22 *2425:A3 8.49388e-05
16 *345:128 *2897:A 6.16382e-05
*RES
1 *2714:Q *440:4 1.6 
2 *440:4 *2897:A 8.705 
3 *440:4 *2425:A3 10.9362 
*END

*D_NET *441 0.00315422
*CONN
*I *2433:A3 I *D sky130_fd_sc_hd__mux4_1
*I *2887:A I *D sky130_fd_sc_hd__dlygate4sd3_1
*I *2715:Q O *D sky130_fd_sc_hd__dfxtp_1
*CAP
1 *2433:A3 0.000558143
2 *2887:A 0
3 *2715:Q 0.000288605
4 *441:12 0.000846748
5 *2433:A3 *2576:A0 1.91597e-05
6 *2433:A3 *2576:A1 0.000119756
7 *2433:A3 *2839:A 5.24926e-05
8 *2433:A3 *650:66 0
9 *2433:A3 *663:33 0.000136276
10 *2433:A3 *663:37 0.00013521
11 *441:12 *2436:S0 0.000248254
12 *441:12 *2839:A 0.000308719
13 *2433:A2 *2433:A3 8.0646e-05
14 *2576:S *2433:A3 8.96017e-05
15 *2707:CLK *441:12 2.59981e-05
16 *327:65 *441:12 0.000109405
17 *338:109 *2433:A3 0.00013521
*RES
1 *2715:Q *441:12 11.375 
2 *441:12 *2887:A 1.6 
3 *441:12 *2433:A3 15.755 
*END

*D_NET *442 0.0019741
*CONN
*I *2439:A3 I *D sky130_fd_sc_hd__mux4_1
*I *2882:A I *D sky130_fd_sc_hd__dlygate4sd3_1
*I *2716:Q O *D sky130_fd_sc_hd__dfxtp_1
*CAP
1 *2439:A3 0.000276595
2 *2882:A 0.000133143
3 *2716:Q 0.000131059
4 *442:6 0.000540797
5 *2439:A3 *2439:S0 1.43521e-05
6 *2439:A3 *2441:S0 0
7 *2439:A3 *2513:A0 0
8 *2882:A *2441:S0 0.000291372
9 *2439:A2 *2439:A3 4.43871e-06
10 *2442:A0 *2882:A 0.000116165
11 *2442:A1 *2882:A 0
12 *2515:S *2439:A3 0.000265565
13 *2515:S *442:6 0.000200615
*RES
1 *2716:Q *442:6 3.43 
2 *442:6 *2882:A 9.02 
3 *442:6 *2439:A3 9.755 
*END

*D_NET *443 0.0030778
*CONN
*I *2886:A I *D sky130_fd_sc_hd__dlygate4sd3_1
*I *2445:A3 I *D sky130_fd_sc_hd__mux4_1
*I *2717:Q O *D sky130_fd_sc_hd__dfxtp_1
*CAP
1 *2886:A 0.000141867
2 *2445:A3 6.65395e-05
3 *2717:Q 0.00052569
4 *443:10 0.000734096
5 *2886:A *2445:S0 0.00033351
6 *2886:A *669:44 0.000111901
7 *2886:A *678:12 0.00019637
8 *443:10 *2445:S0 8.53113e-06
9 *443:10 *642:113 6.29663e-05
10 *2677:CLK *443:10 9.66106e-05
11 *2677:D *443:10 0.00031503
12 *333:108 *2886:A 0.000181383
13 *333:122 *2886:A 0.000152127
14 *333:122 *443:10 0.000151181
15 *371:10 *443:10 0
*RES
1 *2717:Q *443:10 11.205 
2 *443:10 *2445:A3 4.395 
3 *443:10 *2886:A 9.36 
*END

*D_NET *444 0.000916952
*CONN
*I *2996:A I *D sky130_fd_sc_hd__dlygate4sd3_1
*I *2451:A3 I *D sky130_fd_sc_hd__mux4_1
*I *2718:Q O *D sky130_fd_sc_hd__dfxtp_1
*CAP
1 *2996:A 0
2 *2451:A3 0.000104399
3 *2718:Q 0.000231215
4 *444:8 0.000335614
5 *2451:A3 *2453:S0 0
6 *2451:A3 *641:42 4.18603e-06
7 *2451:A3 *641:50 7.6664e-05
8 *444:8 *641:50 0.000164874
*RES
1 *2718:Q *444:8 4.735 
2 *444:8 *2451:A3 7.745 
3 *444:8 *2996:A 1.6 
*END

*D_NET *445 0.0018648
*CONN
*I *2986:A I *D sky130_fd_sc_hd__dlygate4sd3_1
*I *2457:A3 I *D sky130_fd_sc_hd__mux4_1
*I *2719:Q O *D sky130_fd_sc_hd__dfxtp_1
*CAP
1 *2986:A 0.000292705
2 *2457:A3 7.96112e-05
3 *2719:Q 6.24301e-05
4 *445:6 0.000434747
5 *2457:A3 *654:20 7.88393e-05
6 *2457:A2 *2457:A3 0.000160658
7 *2460:A0 *2457:A3 1.44259e-05
8 *2460:A2 *445:6 0.000162311
9 *341:42 *2986:A 0.000341825
10 *341:42 *445:6 0.000237243
*RES
1 *2719:Q *445:6 3.775 
2 *445:6 *2457:A3 8 
3 *445:6 *2986:A 6.895 
*END

*D_NET *446 0.00161507
*CONN
*I *2463:A3 I *D sky130_fd_sc_hd__mux4_1
*I *2883:A I *D sky130_fd_sc_hd__dlygate4sd3_1
*I *2720:Q O *D sky130_fd_sc_hd__dfxtp_1
*CAP
1 *2463:A3 1.16682e-05
2 *2883:A 0.000133627
3 *2720:Q 0.000317486
4 *446:8 0.000462781
5 *2463:A3 *2463:S0 3.05373e-05
6 *2883:A *2463:S0 8.07785e-05
7 *2883:A *2463:S1 4.82919e-05
8 *2883:A *645:68 7.44375e-05
9 *2463:A2 *446:8 0.00012148
10 *2466:A0 *446:8 9.79629e-06
11 *2466:A1 *2463:A3 4.54719e-05
12 *2466:A1 *2883:A 0.000254488
13 *339:44 *2883:A 2.42236e-05
*RES
1 *2720:Q *446:8 7.5 
2 *446:8 *2883:A 7.47 
3 *446:8 *2463:A3 4.215 
*END

*D_NET *447 0.00292452
*CONN
*I *2900:A I *D sky130_fd_sc_hd__dlygate4sd3_1
*I *2418:A0 I *D sky130_fd_sc_hd__mux4_1
*I *2747:Q O *D sky130_fd_sc_hd__dfxtp_1
*CAP
1 *2900:A 0.000133987
2 *2418:A0 0.000230596
3 *2747:Q 0.000197761
4 *447:10 0.000562343
5 *2418:A0 *2418:A2 0.000148711
6 *447:10 *643:116 0
7 *447:10 *666:86 0.000375057
8 *2422:A2 *2900:A 0.000277223
9 *2534:S *2418:A0 0.000362471
10 *2534:S *2900:A 5.79405e-05
11 *2823:A *447:10 0.000220772
12 *337:26 *2900:A 0.000198945
13 *337:26 *447:10 0
14 *337:28 *447:10 0
15 *359:55 *447:10 0.000158709
*RES
1 *2747:Q *447:10 11.315 
2 *447:10 *2418:A0 7.81 
3 *447:10 *2900:A 5.62 
*END

*D_NET *448 0.00102849
*CONN
*I *2424:A0 I *D sky130_fd_sc_hd__mux4_1
*I *2931:A I *D sky130_fd_sc_hd__dlygate4sd3_1
*I *2748:Q O *D sky130_fd_sc_hd__dfxtp_1
*CAP
1 *2424:A0 0.000113512
2 *2931:A 4.18651e-05
3 *2748:Q 6.04177e-05
4 *448:8 0.000215795
5 *2424:A0 *456:10 6.14983e-05
6 *2483:S *2931:A 2.30292e-05
7 *2706:CLK *2424:A0 4.28313e-05
8 *2748:D *2424:A0 7.23602e-05
9 *2748:D *2931:A 0.000121341
10 *340:24 *2424:A0 0.000109533
11 *340:24 *2931:A 3.17398e-05
12 *360:33 *2931:A 8.40269e-05
13 *360:33 *448:8 5.05437e-05
*RES
1 *2748:Q *448:8 4.395 
2 *448:8 *2931:A 5.265 
3 *448:8 *2424:A0 7.02 
*END

*D_NET *449 0.000863122
*CONN
*I *2951:A I *D sky130_fd_sc_hd__dlygate4sd3_1
*I *2432:A0 I *D sky130_fd_sc_hd__mux4_1
*I *2749:Q O *D sky130_fd_sc_hd__dfxtp_1
*CAP
1 *2951:A 0.000149092
2 *2432:A0 0
3 *2749:Q 3.32616e-05
4 *449:10 0.000182354
5 *2436:A2 *2951:A 0.000178084
6 *2749:D *449:10 0.000117825
7 *340:100 *449:10 0.000116158
8 *342:36 *2951:A 8.63479e-05
*RES
1 *2749:Q *449:10 6.98 
2 *449:10 *2432:A0 1.6 
3 *449:10 *2951:A 4.81 
*END

*D_NET *450 0.00237135
*CONN
*I *2913:A I *D sky130_fd_sc_hd__dlygate4sd3_1
*I *2438:A0 I *D sky130_fd_sc_hd__mux4_1
*I *2750:Q O *D sky130_fd_sc_hd__dfxtp_1
*CAP
1 *2913:A 0.000627124
2 *2438:A0 0.000109203
3 *2750:Q 7.92137e-05
4 *450:12 0.00081554
5 *2913:A *2595:A0 0.000167096
6 *450:12 *637:90 4.82919e-05
7 *2442:A3 *450:12 0.000116853
8 *2586:S *2913:A 0.00031068
9 *2595:S *2913:A 2.49909e-05
10 *2750:D *450:12 7.23602e-05
11 *337:30 *450:12 0
*RES
1 *2750:Q *450:12 7.43 
2 *450:12 *2438:A0 3.085 
3 *450:12 *2913:A 11.185 
*END

*D_NET *451 0.00214818
*CONN
*I *2982:A I *D sky130_fd_sc_hd__dlygate4sd3_1
*I *2444:A0 I *D sky130_fd_sc_hd__mux4_1
*I *2751:Q O *D sky130_fd_sc_hd__dfxtp_1
*CAP
1 *2982:A 0.000182394
2 *2444:A0 0.00061121
3 *2751:Q 0
4 *451:4 0.000793604
5 *2444:A0 *2444:A2 0.000153203
6 *2444:A0 *2444:S0 4.82863e-05
7 *2444:A0 *467:10 6.02202e-05
8 *2444:A0 *634:78 3.95404e-05
9 *2444:A0 *657:104 3.47754e-05
10 *2982:A *639:73 0.000150229
11 *347:47 *2444:A0 7.47145e-05
*RES
1 *2751:Q *451:4 1.6 
2 *451:4 *2444:A0 14.735 
3 *451:4 *2982:A 4.48 
*END

*D_NET *452 0.0005763
*CONN
*I *2450:A0 I *D sky130_fd_sc_hd__mux4_1
*I *2948:A I *D sky130_fd_sc_hd__dlygate4sd3_1
*I *2752:Q O *D sky130_fd_sc_hd__dfxtp_1
*CAP
1 *2450:A0 8.59994e-05
2 *2948:A 0.000117271
3 *2752:Q 0
4 *452:4 0.00020327
5 *2450:A0 *641:77 4.87406e-05
6 *2752:D *2948:A 0.000121019
*RES
1 *2752:Q *452:4 1.6 
2 *452:4 *2948:A 3.7 
3 *452:4 *2450:A0 6.98 
*END

*D_NET *453 0.00130414
*CONN
*I *2927:A I *D sky130_fd_sc_hd__dlygate4sd3_1
*I *2456:A0 I *D sky130_fd_sc_hd__mux4_1
*I *2753:Q O *D sky130_fd_sc_hd__dfxtp_1
*CAP
1 *2927:A 0.000248482
2 *2456:A0 1.23247e-05
3 *2753:Q 0.000365463
4 *453:12 0.00062627
5 *2456:A0 *2456:A1 2.04902e-05
6 *2456:A0 *2456:A2 2.75145e-05
7 *2927:A *2966:A 0
8 *2927:A *469:10 0
9 *453:12 *2456:S0 3.60024e-06
10 *2562:S *453:12 0
*RES
1 *2753:Q *453:12 8.205 
2 *453:12 *2456:A0 4.05 
3 *453:12 *2927:A 7.53 
*END

*D_NET *454 0.00155478
*CONN
*I *2934:A I *D sky130_fd_sc_hd__dlygate4sd3_1
*I *2462:A0 I *D sky130_fd_sc_hd__mux4_1
*I *2754:Q O *D sky130_fd_sc_hd__dfxtp_1
*CAP
1 *2934:A 0.000178196
2 *2462:A0 0.000232383
3 *2754:Q 0.000187521
4 *454:6 0.0005981
5 *2462:A0 *2462:A2 2.04902e-05
6 *2462:A0 *2462:A3 2.75145e-05
7 *2934:A *2844:A 8.70256e-05
8 *454:6 *2844:A 0.000162149
9 *2616:S *2934:A 6.14024e-05
10 *337:107 *2462:A0 0
*RES
1 *2754:Q *454:6 4.12 
2 *454:6 *2462:A0 9.26 
3 *454:6 *2934:A 8.465 
*END

*D_NET *455 0.00191712
*CONN
*I *2870:A I *D sky130_fd_sc_hd__dlygate4sd3_1
*I *2418:A1 I *D sky130_fd_sc_hd__mux4_1
*I *2722:Q O *D sky130_fd_sc_hd__dfxtp_1
*CAP
1 *2870:A 0.000361175
2 *2418:A1 0.000119082
3 *2722:Q 0
4 *455:4 0.000480257
5 *2418:A1 *2939:A 0.000230869
6 *2418:A1 *633:129 0.000226834
7 *2418:A1 *646:82 8.40269e-05
8 *2870:A *2547:A1 5.05716e-06
9 *2870:A *2875:A 7.23602e-05
10 *2870:A *471:8 8.58339e-06
11 *2870:A *643:126 0.00011579
12 *2870:A *646:82 7.23635e-05
13 *2870:A *670:80 1.91597e-05
14 *2722:D *2870:A 4.92062e-05
15 *2747:D *2870:A 7.23602e-05
*RES
1 *2722:Q *455:4 1.6 
2 *455:4 *2418:A1 9.05 
3 *455:4 *2870:A 11.54 
*END

*D_NET *456 0.00197233
*CONN
*I *2990:A I *D sky130_fd_sc_hd__dlygate4sd3_1
*I *2424:A1 I *D sky130_fd_sc_hd__mux4_1
*I *2723:Q O *D sky130_fd_sc_hd__dfxtp_1
*CAP
1 *2990:A 0.000306516
2 *2424:A1 0
3 *2723:Q 0.000305186
4 *456:10 0.000611702
5 *2990:A *2584:A0 4.82919e-05
6 *456:10 *2593:A1 0.000121103
7 *2424:A0 *456:10 6.14983e-05
8 *2706:CLK *456:10 0.000115254
9 *2723:D *456:10 4.82863e-05
10 *331:56 *2990:A 0.000161837
11 *340:24 *2990:A 0
12 *340:24 *456:10 0
13 *341:103 *2990:A 0.000177821
14 *341:103 *456:10 1.27474e-05
15 *345:12 *2990:A 2.0851e-06
*RES
1 *2723:Q *456:10 8.445 
2 *456:10 *2424:A1 3.6 
3 *456:10 *2990:A 10.05 
*END

*D_NET *457 0.00133096
*CONN
*I *2432:A1 I *D sky130_fd_sc_hd__mux4_1
*I *2994:A I *D sky130_fd_sc_hd__dlygate4sd3_1
*I *2724:Q O *D sky130_fd_sc_hd__dfxtp_1
*CAP
1 *2432:A1 0
2 *2994:A 0.000150029
3 *2724:Q 0.000161907
4 *457:10 0.000311936
5 *457:10 *2594:A0 9.37731e-05
6 *2724:CLK *457:10 6.00201e-05
7 *340:100 *2994:A 0.000177534
8 *340:100 *457:10 7.56019e-05
9 *341:59 *2994:A 3.90266e-05
10 *342:36 *2994:A 4.13249e-05
11 *342:36 *457:10 2.34345e-05
12 *356:107 *2994:A 0.000196376
*RES
1 *2724:Q *457:10 6.72 
2 *457:10 *2994:A 7.575 
3 *457:10 *2432:A1 3.6 
*END

*D_NET *458 0.00092773
*CONN
*I *2954:A I *D sky130_fd_sc_hd__dlygate4sd3_1
*I *2438:A1 I *D sky130_fd_sc_hd__mux4_1
*I *2725:Q O *D sky130_fd_sc_hd__dfxtp_1
*CAP
1 *2954:A 6.20124e-05
2 *2438:A1 8.36758e-05
3 *2725:Q 2.08101e-05
4 *458:6 0.000166498
5 *2442:A3 *2438:A1 7.45881e-05
6 *2550:S *2438:A1 5.05521e-05
7 *2550:S *2954:A 0.000160491
8 *2725:D *2438:A1 5.05521e-05
9 *2725:D *2954:A 0.000153482
10 *337:30 *2438:A1 0.000105068
*RES
1 *2725:Q *458:6 1.96 
2 *458:6 *2438:A1 8.54 
3 *458:6 *2954:A 4.12 
*END

*D_NET *459 0.00260004
*CONN
*I *2444:A1 I *D sky130_fd_sc_hd__mux4_1
*I *2907:A I *D sky130_fd_sc_hd__dlygate4sd3_1
*I *2726:Q O *D sky130_fd_sc_hd__dfxtp_1
*CAP
1 *2444:A1 3.83895e-05
2 *2907:A 0.000158427
3 *2726:Q 0.000607497
4 *459:10 0.000804314
5 *2444:A1 *634:78 8.49205e-05
6 *2907:A *2560:A0 9.2741e-05
7 *2907:A *634:78 9.42145e-05
8 *2907:A *637:90 2.05056e-05
9 *459:10 *2551:A1 3.86529e-05
10 *2586:S *2907:A 8.53113e-06
11 *2586:S *459:10 0.000195932
12 *2595:S *2907:A 0.000124007
13 *2726:D *459:10 5.23816e-05
14 *340:24 *459:10 9.37731e-05
15 *341:105 *459:10 0
16 *347:34 *2907:A 0.000100528
17 *347:34 *459:10 8.5225e-05
*RES
1 *2726:Q *459:10 12.3 
2 *459:10 *2907:A 7.68 
3 *459:10 *2444:A1 4.395 
*END

*D_NET *460 0.000996832
*CONN
*I *2917:A I *D sky130_fd_sc_hd__dlygate4sd3_1
*I *2450:A1 I *D sky130_fd_sc_hd__mux4_1
*I *2727:Q O *D sky130_fd_sc_hd__dfxtp_1
*CAP
1 *2917:A 0.000164372
2 *2450:A1 0.000160735
3 *2727:Q 7.81673e-05
4 *460:8 0.000403274
5 *2450:A1 *2450:A3 0
6 *2450:A1 *2890:A 0
7 *2917:A *2890:A 0
8 *2588:S *2917:A 0
9 *2784:CLK *2450:A1 3.05295e-05
10 *2784:CLK *2917:A 8.52172e-05
11 *334:80 *2450:A1 0
12 *346:14 *2917:A 7.4538e-05
*RES
1 *2727:Q *460:8 4.395 
2 *460:8 *2450:A1 6.255 
3 *460:8 *2917:A 7.02 
*END

*D_NET *461 0.00222368
*CONN
*I *2456:A1 I *D sky130_fd_sc_hd__mux4_1
*I *2942:A I *D sky130_fd_sc_hd__dlygate4sd3_1
*I *2728:Q O *D sky130_fd_sc_hd__dfxtp_1
*CAP
1 *2456:A1 0.00067419
2 *2942:A 0.00010804
3 *2728:Q 2.29568e-05
4 *461:8 0.000805187
5 *2456:A1 *2456:A2 7.84167e-05
6 *2456:A1 *2598:A0 7.01303e-05
7 *2456:A1 *646:120 0.00019735
8 *2942:A *2456:S1 0
9 *2942:A *646:42 0.000112182
10 *2942:A *646:120 8.69612e-05
11 *2456:A0 *2456:A1 2.04902e-05
12 *357:26 *461:8 4.77719e-05
*RES
1 *2728:Q *461:8 4.05 
2 *461:8 *2942:A 6 
3 *461:8 *2456:A1 13.005 
*END

*D_NET *462 0.00162557
*CONN
*I *2932:A I *D sky130_fd_sc_hd__dlygate4sd3_1
*I *2462:A1 I *D sky130_fd_sc_hd__mux4_1
*I *2729:Q O *D sky130_fd_sc_hd__dfxtp_1
*CAP
1 *2932:A 0.000216177
2 *2462:A1 0.00044663
3 *2729:Q 0
4 *462:4 0.000662807
5 *2462:A1 *2462:A2 0
6 *2462:A1 *2462:S0 0.00015817
7 *2561:S *2462:A1 0
8 *2572:S *2932:A 5.83121e-06
9 *2729:D *2462:A1 0.000135959
*RES
1 *2729:Q *462:4 1.6 
2 *462:4 *2462:A1 11.57 
3 *462:4 *2932:A 4.735 
*END

*D_NET *463 0.00228683
*CONN
*I *2418:A2 I *D sky130_fd_sc_hd__mux4_1
*I *2939:A I *D sky130_fd_sc_hd__dlygate4sd3_1
*I *2697:Q O *D sky130_fd_sc_hd__dfxtp_1
*CAP
1 *2418:A2 0.000380848
2 *2939:A 0.000184017
3 *2697:Q 0
4 *463:4 0.000564864
5 *2418:A2 *2418:A3 9.50342e-06
6 *2418:A2 *643:116 5.13684e-05
7 *2939:A *633:129 0.000183063
8 *2939:A *666:28 8.07863e-05
9 *2418:A0 *2418:A2 0.000148711
10 *2418:A1 *2939:A 0.000230869
11 *2534:S *2418:A2 1.13785e-05
12 *2583:S *2939:A 0.000424675
13 *2747:D *2418:A2 1.67456e-05
*RES
1 *2697:Q *463:4 1.6 
2 *463:4 *2939:A 12.335 
3 *463:4 *2418:A2 10.6587 
*END

*D_NET *464 0.00221608
*CONN
*I *2424:A2 I *D sky130_fd_sc_hd__mux4_1
*I *2920:A I *D sky130_fd_sc_hd__dlygate4sd3_1
*I *2698:Q O *D sky130_fd_sc_hd__dfxtp_1
*CAP
1 *2424:A2 0.000303892
2 *2920:A 7.69133e-05
3 *2698:Q 9.05452e-05
4 *464:6 0.000471351
5 *2424:A2 *2424:A3 2.87433e-05
6 *2424:A2 *642:54 9.50342e-06
7 *2424:A2 *642:64 0.000127613
8 *2424:A2 *664:10 7.06865e-05
9 *2424:A2 *664:14 1.54111e-05
10 *2424:A2 *664:28 4.38051e-05
11 *464:6 *642:64 0.000119756
12 *2723:D *2424:A2 0.000355657
13 *329:107 *2920:A 0.000249921
14 *336:14 *2920:A 0.000252282
*RES
1 *2698:Q *464:6 2.74 
2 *464:6 *2920:A 8.51 
3 *464:6 *2424:A2 10.8125 
*END

*D_NET *465 0.00237929
*CONN
*I *2950:A I *D sky130_fd_sc_hd__dlygate4sd3_1
*I *2432:A2 I *D sky130_fd_sc_hd__mux4_1
*I *2699:Q O *D sky130_fd_sc_hd__dfxtp_1
*CAP
1 *2950:A 0.000248561
2 *2432:A2 9.34247e-06
3 *2699:Q 0.0007942
4 *465:18 0.0010521
5 *2950:A *2432:A3 4.19967e-05
6 *2950:A *2456:S1 0.00010991
7 *2950:A *2558:A0 0
8 *465:18 *2432:A3 0
9 *465:18 *2432:S1 2.04976e-05
10 *465:18 *2549:A0 8.47303e-05
11 *2436:A2 *2432:A2 1.10377e-05
12 *2724:D *2432:A2 6.90889e-06
13 *2724:D *2950:A 0
14 *329:48 *465:18 0
15 *337:97 *2950:A 0
*RES
1 *2699:Q *465:18 9.12527 
2 *465:18 *2432:A2 3.79875 
3 *465:18 *2950:A 8.325 
*END

*D_NET *466 0.0012691
*CONN
*I *2438:A2 I *D sky130_fd_sc_hd__mux4_1
*I *2967:A I *D sky130_fd_sc_hd__dlygate4sd3_1
*I *2700:Q O *D sky130_fd_sc_hd__dfxtp_1
*CAP
1 *2438:A2 0.00030201
2 *2967:A 3.10752e-05
3 *2700:Q 7.65088e-05
4 *466:6 0.000409594
5 *2438:A2 *2438:A3 2.72814e-05
6 *2438:A2 *634:98 7.69372e-05
7 *2438:A2 *641:18 3.09233e-05
8 *2438:A2 *641:143 0.000137571
9 *2967:A *634:98 8.8266e-05
10 *466:6 *634:98 3.96737e-05
11 *2442:A2 *2438:A2 4.05674e-06
12 *2750:CLK *2438:A2 4.52002e-05
*RES
1 *2700:Q *466:6 3.085 
2 *466:6 *2967:A 2.755 
3 *466:6 *2438:A2 10.3925 
*END

*D_NET *467 0.00257498
*CONN
*I *2444:A2 I *D sky130_fd_sc_hd__mux4_1
*I *2963:A I *D sky130_fd_sc_hd__dlygate4sd3_1
*I *2701:Q O *D sky130_fd_sc_hd__dfxtp_1
*CAP
1 *2444:A2 0.000137405
2 *2963:A 0
3 *2701:Q 0.000543912
4 *467:10 0.000681317
5 *2444:A2 *634:78 9.11997e-05
6 *2444:A2 *657:104 0.000183036
7 *467:10 *639:73 7.40046e-05
8 *467:10 *657:104 0.000113797
9 *2444:A0 *2444:A2 0.000153203
10 *2444:A0 *467:10 6.02202e-05
11 *347:47 *467:10 0.000536879
*RES
1 *2701:Q *467:10 11.64 
2 *467:10 *2963:A 3.6 
3 *467:10 *2444:A2 7.7475 
*END

*D_NET *468 0.00128954
*CONN
*I *2450:A2 I *D sky130_fd_sc_hd__mux4_1
*I *2944:A I *D sky130_fd_sc_hd__dlygate4sd3_1
*I *2702:Q O *D sky130_fd_sc_hd__dfxtp_1
*CAP
1 *2450:A2 0.000126274
2 *2944:A 0.000169984
3 *2702:Q 0.00016686
4 *468:8 0.000463118
5 *2450:A2 *641:77 3.7161e-05
6 *2944:A *2561:A0 0
7 *2454:A2 *2450:A2 0.000113175
8 *2454:A2 *468:8 1.83756e-05
9 *2561:S *2944:A 0
10 *346:63 *2944:A 8.68724e-05
11 *346:65 *2944:A 0.000107716
*RES
1 *2702:Q *468:8 4.135 
2 *468:8 *2944:A 9.53 
3 *468:8 *2450:A2 4.2925 
*END

*D_NET *469 0.00204038
*CONN
*I *2966:A I *D sky130_fd_sc_hd__dlygate4sd3_1
*I *2456:A2 I *D sky130_fd_sc_hd__mux4_1
*I *2703:Q O *D sky130_fd_sc_hd__dfxtp_1
*CAP
1 *2966:A 5.71065e-05
2 *2456:A2 0.000452119
3 *2703:Q 0.000240529
4 *469:10 0.000749754
5 *2456:A2 *646:120 1.26747e-05
6 *2456:A0 *2456:A2 2.75145e-05
7 *2456:A1 *2456:A2 7.84167e-05
8 *2562:S *2456:A2 7.10578e-05
9 *2562:S *469:10 5.51158e-05
10 *2927:A *2966:A 0
11 *2927:A *469:10 0
12 *329:48 *2966:A 0.000110683
13 *329:48 *469:10 0.000185405
*RES
1 *2703:Q *469:10 7.575 
2 *469:10 *2456:A2 9.69375 
3 *469:10 *2966:A 4.98 
*END

*D_NET *470 0.00234195
*CONN
*I *2979:A I *D sky130_fd_sc_hd__dlygate4sd3_1
*I *2462:A2 I *D sky130_fd_sc_hd__mux4_1
*I *2704:Q O *D sky130_fd_sc_hd__dfxtp_1
*CAP
1 *2979:A 0.000140872
2 *2462:A2 0.000633344
3 *2704:Q 5.54879e-05
4 *470:8 0.000829704
5 *2462:A2 *2462:A3 9.52406e-05
6 *2462:A2 *2563:A1 5.65627e-05
7 *470:8 *2844:A 2.05056e-05
8 *470:8 *618:14 7.60965e-05
9 *470:8 *651:21 8.49205e-05
10 *2462:A0 *2462:A2 2.04902e-05
11 *2462:A1 *2462:A2 0
12 *2507:S *2462:A2 0
13 *2507:S *2979:A 0
14 *2561:S *2462:A2 7.70758e-05
15 *2616:S *2462:A2 3.05373e-05
16 *337:107 *2462:A2 0.000106349
17 *337:107 *2979:A 0.000114761
18 *340:110 *2462:A2 0
*RES
1 *2704:Q *470:8 5.085 
2 *470:8 *2462:A2 16.8625 
3 *470:8 *2979:A 6.45 
*END

*D_NET *471 0.00259544
*CONN
*I *2875:A I *D sky130_fd_sc_hd__dlygate4sd3_1
*I *2418:A3 I *D sky130_fd_sc_hd__mux4_1
*I *2689:Q O *D sky130_fd_sc_hd__dfxtp_1
*CAP
1 *2875:A 0.000433521
2 *2418:A3 5.44786e-05
3 *2689:Q 0.000311925
4 *471:8 0.000799925
5 *2418:A3 *643:126 0.000116645
6 *2875:A *2547:A1 0.000271303
7 *2875:A *643:126 0.000183738
8 *2875:A *666:86 1.91597e-05
9 *471:8 *646:82 1.74678e-05
10 *471:8 *670:80 4.23703e-05
11 *2418:A2 *2418:A3 9.50342e-06
12 *2722:D *471:8 4.65607e-05
13 *2747:D *2418:A3 7.09921e-05
14 *2747:D *2875:A 5.74445e-05
15 *2870:A *2875:A 7.23602e-05
16 *2870:A *471:8 8.58339e-06
17 *341:8 *2875:A 7.94673e-05
*RES
1 *2689:Q *471:8 7.155 
2 *471:8 *2418:A3 5.235 
3 *471:8 *2875:A 10.95 
*END

*D_NET *472 0.00143765
*CONN
*I *2965:A I *D sky130_fd_sc_hd__dlygate4sd3_1
*I *2424:A3 I *D sky130_fd_sc_hd__mux4_1
*I *2690:Q O *D sky130_fd_sc_hd__dfxtp_1
*CAP
1 *2965:A 6.1224e-05
2 *2424:A3 0.000206863
3 *2690:Q 7.56888e-05
4 *472:8 0.000343776
5 *2424:A3 *642:54 0
6 *2424:A3 *664:14 0.000129814
7 *2424:A3 *664:28 0
8 *2424:A2 *2424:A3 2.87433e-05
9 *2426:A1 *2424:A3 0.000227064
10 *2811:A *2424:A3 0
11 *2811:A *2965:A 0
12 *264:20 *2965:A 2.05641e-05
13 *329:107 *2424:A3 0.000235585
14 *329:107 *2965:A 0.000108329
*RES
1 *2690:Q *472:8 4.395 
2 *472:8 *2424:A3 9.81 
3 *472:8 *2965:A 4.98 
*END

*D_NET *473 0.0021432
*CONN
*I *2885:A I *D sky130_fd_sc_hd__dlygate4sd3_1
*I *2432:A3 I *D sky130_fd_sc_hd__mux4_1
*I *2691:Q O *D sky130_fd_sc_hd__dfxtp_1
*CAP
1 *2885:A 6.08004e-05
2 *2432:A3 0.000564189
3 *2691:Q 0.000110856
4 *473:10 0.000735845
5 *2432:A3 *2456:S1 0.000161801
6 *2724:CLK *2432:A3 0.000100804
7 *2724:D *2432:A3 2.96897e-05
8 *2950:A *2432:A3 4.19967e-05
9 *329:48 *2885:A 0.000129056
10 *329:48 *473:10 3.86607e-05
11 *337:97 *2885:A 0.000132721
12 *337:97 *473:10 3.67779e-05
13 *465:18 *2432:A3 0
*RES
1 *2691:Q *473:10 5.265 
2 *473:10 *2432:A3 15.31 
3 *473:10 *2885:A 6.255 
*END

*D_NET *474 0.00220782
*CONN
*I *2438:A3 I *D sky130_fd_sc_hd__mux4_1
*I *2983:A I *D sky130_fd_sc_hd__dlygate4sd3_1
*I *2692:Q O *D sky130_fd_sc_hd__dfxtp_1
*CAP
1 *2438:A3 0.0005613
2 *2983:A 0.000221047
3 *2692:Q 0
4 *474:4 0.000782347
5 *2438:A3 *2624:RESET_B 2.39642e-05
6 *2438:A3 *637:98 0
7 *2438:A3 *641:40 0.000150775
8 *2438:A3 *659:116 2.89319e-05
9 *2983:A *2467:S 0
10 *2983:A *2550:A1 0.000118513
11 *2983:A *2624:RESET_B 3.84318e-05
12 *2983:A *641:40 4.99619e-05
13 *2983:A *661:47 0.000101317
14 *2438:A2 *2438:A3 2.72814e-05
15 *2559:S *2438:A3 0
16 *2692:CLK *2438:A3 7.47366e-05
17 *2692:CLK *2983:A 1.03423e-05
18 *2750:CLK *2438:A3 1.88656e-05
*RES
1 *2692:Q *474:4 1.6 
2 *474:4 *2983:A 10.49 
3 *474:4 *2438:A3 13.3926 
*END

*D_NET *475 0.00111122
*CONN
*I *2444:A3 I *D sky130_fd_sc_hd__mux4_1
*I *2902:A I *D sky130_fd_sc_hd__dlygate4sd3_1
*I *2693:Q O *D sky130_fd_sc_hd__dfxtp_1
*CAP
1 *2444:A3 0.000178903
2 *2902:A 1.60636e-05
3 *2693:Q 0.000162297
4 *475:8 0.000357263
5 *2444:A3 *2444:S1 5.42473e-05
6 *2587:S *2444:A3 1.34503e-05
7 *341:105 *2444:A3 0
8 *347:10 *2444:A3 9.91257e-05
9 *347:10 *2902:A 4.00541e-06
10 *347:10 *475:8 0.000140947
11 *347:12 *475:8 8.49205e-05
*RES
1 *2693:Q *475:8 4.48 
2 *475:8 *2902:A 1.96 
3 *475:8 *2444:A3 9.065 
*END

*D_NET *476 0.00220386
*CONN
*I *2890:A I *D sky130_fd_sc_hd__dlygate4sd3_1
*I *2450:A3 I *D sky130_fd_sc_hd__mux4_1
*I *2694:Q O *D sky130_fd_sc_hd__dfxtp_1
*CAP
1 *2890:A 0.000337753
2 *2450:A3 0.000136776
3 *2694:Q 0.000428331
4 *476:8 0.000902861
5 *2450:A3 *641:77 5.52924e-05
6 *2890:A *2465:S1 0
7 *2450:A1 *2450:A3 0
8 *2450:A1 *2890:A 0
9 *2454:A2 *2450:A3 3.29947e-05
10 *2588:S *2890:A 0.000181376
11 *2727:D *476:8 8.84839e-06
12 *2917:A *2890:A 0
13 *346:59 *476:8 0.000119631
*RES
1 *2694:Q *476:8 8.535 
2 *476:8 *2450:A3 6.03 
3 *476:8 *2890:A 9.09 
*END

*D_NET *477 0.00315418
*CONN
*I *2456:A3 I *D sky130_fd_sc_hd__mux4_1
*I *2905:A I *D sky130_fd_sc_hd__dlygate4sd3_1
*I *2695:Q O *D sky130_fd_sc_hd__dfxtp_1
*CAP
1 *2456:A3 0.000197713
2 *2905:A 0.000266672
3 *2695:Q 0.000531924
4 *477:8 0.000996309
5 *2456:A3 *2456:S1 0.000406771
6 *2905:A *2456:S1 9.17261e-05
7 *2905:A *2589:A0 0.000161985
8 *2905:A *2589:A1 0.000124473
9 *2728:D *2905:A 0
10 *2728:D *477:8 7.34397e-05
11 *336:65 *2905:A 6.21247e-05
12 *357:26 *2456:A3 0
13 *357:26 *477:8 3.44946e-05
14 *357:30 *477:8 0.00020655
*RES
1 *2695:Q *477:8 10.26 
2 *477:8 *2905:A 8.745 
3 *477:8 *2456:A3 8.295 
*END

*D_NET *478 0.00281173
*CONN
*I *2462:A3 I *D sky130_fd_sc_hd__mux4_1
*I *2899:A I *D sky130_fd_sc_hd__dlygate4sd3_1
*I *2696:Q O *D sky130_fd_sc_hd__dfxtp_1
*CAP
1 *2462:A3 0.000641324
2 *2899:A 0.000295645
3 *2696:Q 3.58965e-05
4 *478:8 0.000972866
5 *2462:A3 *2563:A1 0.000119221
6 *2899:A *2554:A1 3.86529e-05
7 *2462:A0 *2462:A3 2.75145e-05
8 *2462:A2 *2462:A3 9.52406e-05
9 *2507:S *2462:A3 0
10 *2507:S *2899:A 0
11 *2561:S *2462:A3 4.14009e-05
12 *2561:S *2899:A 0.000405111
13 *2563:S *2462:A3 4.41506e-05
14 *2729:CLK *478:8 2.75145e-05
15 *337:107 *2462:A3 6.71882e-05
*RES
1 *2696:Q *478:8 4.05 
2 *478:8 *2899:A 9.78 
3 *478:8 *2462:A3 13.35 
*END

*D_NET *479 0.00133489
*CONN
*I *2941:A I *D sky130_fd_sc_hd__dlygate4sd3_1
*I *2421:A0 I *D sky130_fd_sc_hd__mux4_1
*I *2681:Q O *D sky130_fd_sc_hd__dfxtp_1
*CAP
1 *2941:A 0.000197988
2 *2421:A0 7.48789e-05
3 *2681:Q 0.000162615
4 *479:10 0.000435482
5 *2421:A0 *2421:A1 8.65905e-05
6 *2941:A *2421:A1 0.000174227
7 *479:10 *2421:A1 1.52184e-05
8 *2422:A1 *2421:A0 1.83756e-05
9 *2422:A1 *479:10 0
10 *2681:CLK *479:10 3.07153e-05
11 *322:31 *479:10 0
12 *327:26 *2941:A 0
13 *327:26 *479:10 0
14 *332:12 *2421:A0 0.000138799
15 *334:12 *479:10 0
*RES
1 *2681:Q *479:10 6.03 
2 *479:10 *2421:A0 5.775 
3 *479:10 *2941:A 7.53 
*END

*D_NET *480 0.00215976
*CONN
*I *2953:A I *D sky130_fd_sc_hd__dlygate4sd3_1
*I *2428:A0 I *D sky130_fd_sc_hd__mux4_1
*I *2682:Q O *D sky130_fd_sc_hd__dfxtp_1
*CAP
1 *2953:A 0.000292367
2 *2428:A0 8.96972e-05
3 *2682:Q 3.49915e-05
4 *480:6 0.000417055
5 *2428:A0 *2428:A1 0.000100913
6 *2428:A0 *644:49 7.53048e-05
7 *2953:A *2428:A1 8.92899e-05
8 *2953:A *2428:S0 0.000168495
9 *2953:A *2437:S 1.83847e-05
10 *2953:A *2501:A0 2.75229e-05
11 *2898:A *2953:A 0.00019189
12 *264:20 *2428:A0 0.00015829
13 *264:20 *2953:A 8.48111e-05
14 *329:107 *2428:A0 0.000155928
15 *361:12 *2953:A 0.000148089
16 *361:12 *480:6 4.82919e-05
17 *384:10 *2953:A 5.84378e-05
*RES
1 *2682:Q *480:6 2.05 
2 *480:6 *2428:A0 8.645 
3 *480:6 *2953:A 12.995 
*END

*D_NET *481 0.00132082
*CONN
*I *2923:A I *D sky130_fd_sc_hd__dlygate4sd3_1
*I *2435:A0 I *D sky130_fd_sc_hd__mux4_1
*I *2683:Q O *D sky130_fd_sc_hd__dfxtp_1
*CAP
1 *2923:A 0.000140593
2 *2435:A0 0
3 *2683:Q 9.87695e-05
4 *481:10 0.000239362
5 *2923:A *2539:A0 0.000115464
6 *2923:A *2611:A0 0.000212515
7 *481:10 *2539:A0 0.000139238
8 *340:110 *2923:A 0.000150453
9 *340:110 *481:10 0.000139238
10 *356:39 *481:10 8.51879e-05
*RES
1 *2683:Q *481:10 6.03 
2 *481:10 *2435:A0 3.6 
3 *481:10 *2923:A 7.32 
*END

*D_NET *482 0.00113402
*CONN
*I *2909:A I *D sky130_fd_sc_hd__dlygate4sd3_1
*I *2441:A0 I *D sky130_fd_sc_hd__mux4_1
*I *2684:Q O *D sky130_fd_sc_hd__dfxtp_1
*CAP
1 *2909:A 0.000300894
2 *2441:A0 0.000139677
3 *2684:Q 0
4 *482:4 0.000440571
5 *2441:A0 *490:10 0.00011852
6 *2541:S *2441:A0 2.65814e-06
7 *2541:S *2909:A 0.000131704
8 *386:14 *2441:A0 0
*RES
1 *2684:Q *482:4 1.6 
2 *482:4 *2441:A0 7.775 
3 *482:4 *2909:A 5.77 
*END

*D_NET *483 0.00248879
*CONN
*I *2972:A I *D sky130_fd_sc_hd__dlygate4sd3_1
*I *2447:A0 I *D sky130_fd_sc_hd__mux4_1
*I *2685:Q O *D sky130_fd_sc_hd__dfxtp_1
*CAP
1 *2972:A 0.000200202
2 *2447:A0 0.0008813
3 *2685:Q 0
4 *483:4 0.0010815
5 *2447:A0 *2447:A1 6.0011e-05
6 *2447:A0 *2447:S1 0.000194672
7 *2447:A0 *2850:A 0
8 *2447:A2 *2447:A0 7.11031e-05
*RES
1 *2685:Q *483:4 1.6 
2 *483:4 *2447:A0 17.285 
3 *483:4 *2972:A 4.48 
*END

*D_NET *484 0.000982974
*CONN
*I *2453:A0 I *D sky130_fd_sc_hd__mux4_1
*I *2970:A I *D sky130_fd_sc_hd__dlygate4sd3_1
*I *2686:Q O *D sky130_fd_sc_hd__dfxtp_1
*CAP
1 *2453:A0 0.000172527
2 *2970:A 0.000205819
3 *2686:Q 0
4 *484:4 0.000378346
5 *2453:A0 *2542:A1 8.97486e-05
6 *2453:A0 *492:12 6.28765e-05
7 *2453:A0 *655:38 7.36562e-05
*RES
1 *2686:Q *484:4 1.6 
2 *484:4 *2970:A 4.735 
3 *484:4 *2453:A0 9.02 
*END

*D_NET *485 0.00234051
*CONN
*I *2960:A I *D sky130_fd_sc_hd__dlygate4sd3_1
*I *2459:A0 I *D sky130_fd_sc_hd__mux4_1
*I *2687:Q O *D sky130_fd_sc_hd__dfxtp_1
*CAP
1 *2960:A 0.000216632
2 *2459:A0 0.000465441
3 *2687:Q 0
4 *485:4 0.000682073
5 *2459:A0 *2458:S0 3.48035e-05
6 *2459:A0 *2459:S1 3.64998e-06
7 *2459:A0 *2543:A0 6.53286e-05
8 *2459:A0 *2846:A 5.25333e-06
9 *2459:A0 *646:141 4.49263e-05
10 *2960:A *2458:S0 0.000194794
11 *2960:A *2543:A0 1.74532e-05
12 *2960:A *2615:A0 0.000139245
13 *2960:A *653:105 7.73272e-05
14 *2459:A2 *2459:A0 0.000117441
15 *332:42 *2960:A 5.44672e-05
16 *357:119 *2960:A 7.67634e-05
17 *357:121 *2960:A 0.000123225
18 *357:147 *2960:A 2.16917e-05
*RES
1 *2687:Q *485:4 1.6 
2 *485:4 *2459:A0 12.515 
3 *485:4 *2960:A 11.57 
*END

*D_NET *486 0.00124462
*CONN
*I *2955:A I *D sky130_fd_sc_hd__dlygate4sd3_1
*I *2465:A0 I *D sky130_fd_sc_hd__mux4_1
*I *2688:Q O *D sky130_fd_sc_hd__dfxtp_1
*CAP
1 *2955:A 0.000152581
2 *2465:A0 0.000147702
3 *2688:Q 0
4 *486:4 0.000300283
5 *2465:A0 *2544:A0 0.000116165
6 *2465:A0 *494:14 0.000112284
7 *2466:A1 *2465:A0 0.000158536
8 *2466:A1 *2955:A 3.6355e-05
9 *2588:S *2955:A 0.000220712
*RES
1 *2688:Q *486:4 1.6 
2 *486:4 *2465:A0 8.465 
3 *486:4 *2955:A 8.705 
*END

*D_NET *487 0.00151978
*CONN
*I *2929:A I *D sky130_fd_sc_hd__dlygate4sd3_1
*I *2421:A1 I *D sky130_fd_sc_hd__mux4_1
*I *2787:Q O *D sky130_fd_sc_hd__dfxtp_1
*CAP
1 *2929:A 8.84265e-05
2 *2421:A1 0.000304392
3 *2787:Q 0.000128302
4 *487:8 0.00052112
5 *2421:A1 *2537:A0 0
6 *487:8 *667:10 0.000201503
7 *2421:A0 *2421:A1 8.65905e-05
8 *2609:S *2421:A1 0
9 *2609:S *2929:A 0
10 *2941:A *2421:A1 0.000174227
11 *334:12 *2421:A1 0
12 *342:16 *2421:A1 0
13 *479:10 *2421:A1 1.52184e-05
*RES
1 *2787:Q *487:8 5.43 
2 *487:8 *2421:A1 9.345 
3 *487:8 *2929:A 4.98 
*END

*D_NET *488 0.00253116
*CONN
*I *2987:A I *D sky130_fd_sc_hd__dlygate4sd3_1
*I *2428:A1 I *D sky130_fd_sc_hd__mux4_1
*I *2788:Q O *D sky130_fd_sc_hd__dfxtp_1
*CAP
1 *2987:A 0.000418605
2 *2428:A1 0.000326509
3 *2788:Q 0
4 *488:4 0.000745114
5 *2428:A1 *2428:S0 0
6 *2428:A1 *2520:A1 3.03775e-05
7 *2428:A1 *644:49 6.13162e-05
8 *2987:A *2520:A1 5.85534e-05
9 *2987:A *637:30 0.000162325
10 *2987:A *644:35 0.000275553
11 *2987:A *664:82 8.07911e-05
12 *2428:A0 *2428:A1 0.000100913
13 *2682:D *2987:A 0.000120655
14 *2953:A *2428:A1 8.92899e-05
15 *264:20 *2428:A1 6.11586e-05
16 *341:103 *2987:A 0
*RES
1 *2788:Q *488:4 1.6 
2 *488:4 *2428:A1 10.865 
3 *488:4 *2987:A 13.91 
*END

*D_NET *489 0.00170771
*CONN
*I *2874:A I *D sky130_fd_sc_hd__dlygate4sd3_1
*I *2435:A1 I *D sky130_fd_sc_hd__mux4_1
*I *2789:Q O *D sky130_fd_sc_hd__dfxtp_1
*CAP
1 *2874:A 6.57868e-05
2 *2435:A1 0
3 *2789:Q 0.000306776
4 *489:12 0.000372563
5 *2874:A *643:41 0.000154098
6 *2874:A *646:16 0.000270415
7 *489:12 *2539:A0 0.000116158
8 *489:12 *2539:A1 6.10014e-05
9 *334:74 *489:12 0.000210846
10 *340:110 *489:12 0.000117411
11 *341:59 *489:12 3.26566e-05
*RES
1 *2789:Q *489:12 12.125 
2 *489:12 *2435:A1 1.6 
3 *489:12 *2874:A 4.12 
*END

*D_NET *490 0.00140557
*CONN
*I *2984:A I *D sky130_fd_sc_hd__dlygate4sd3_1
*I *2441:A1 I *D sky130_fd_sc_hd__mux4_1
*I *2790:Q O *D sky130_fd_sc_hd__dfxtp_1
*CAP
1 *2984:A 0.000126663
2 *2441:A1 3.37454e-05
3 *2790:Q 0.000332156
4 *490:10 0.000492565
5 *2984:A *2441:S0 0
6 *2441:A0 *490:10 0.00011852
7 *2541:S *490:10 0.000159262
8 *2684:D *490:10 0
9 *334:93 *490:10 0.000142661
*RES
1 *2790:Q *490:10 10.215 
2 *490:10 *2441:A1 4.05 
3 *490:10 *2984:A 5.745 
*END

*D_NET *491 0.0018551
*CONN
*I *2985:A I *D sky130_fd_sc_hd__dlygate4sd3_1
*I *2447:A1 I *D sky130_fd_sc_hd__mux4_1
*I *2791:Q O *D sky130_fd_sc_hd__dfxtp_1
*CAP
1 *2985:A 0.000200472
2 *2447:A1 9.22566e-05
3 *2791:Q 0.000263807
4 *491:10 0.000556536
5 *2985:A *2447:S0 0.000160658
6 *2985:A *2613:A0 4.66108e-05
7 *2985:A *657:34 7.25441e-05
8 *2985:A *657:60 1.47347e-05
9 *491:10 *2447:S0 8.53113e-06
10 *491:10 *657:32 0
11 *2447:A0 *2447:A1 6.0011e-05
12 *2447:A2 *2447:A1 0.00015896
13 *2447:A3 *491:10 0
14 *2504:S *2985:A 4.92014e-05
15 *2504:S *491:10 0.000126734
16 *2541:S *491:10 4.40446e-05
17 *347:55 *491:10 0
*RES
1 *2791:Q *491:10 8.415 
2 *491:10 *2447:A1 5.775 
3 *491:10 *2985:A 8.01 
*END

*D_NET *492 0.000924555
*CONN
*I *2968:A I *D sky130_fd_sc_hd__dlygate4sd3_1
*I *2453:A1 I *D sky130_fd_sc_hd__mux4_1
*I *2792:Q O *D sky130_fd_sc_hd__dfxtp_1
*CAP
1 *2968:A 1.37561e-05
2 *2453:A1 0
3 *2792:Q 0.000264322
4 *492:12 0.000278078
5 *2968:A *2453:S0 2.75229e-05
6 *492:12 *2614:A0 2.46089e-05
7 *492:12 *2614:A1 0.000160641
8 *2453:A0 *492:12 6.28765e-05
9 *2792:D *492:12 6.52265e-05
10 *332:92 *2968:A 2.75229e-05
*RES
1 *2792:Q *492:12 9.5 
2 *492:12 *2453:A1 1.6 
3 *492:12 *2968:A 2.05 
*END

*D_NET *493 0.00130126
*CONN
*I *2949:A I *D sky130_fd_sc_hd__dlygate4sd3_1
*I *2459:A1 I *D sky130_fd_sc_hd__mux4_1
*I *2793:Q O *D sky130_fd_sc_hd__dfxtp_1
*CAP
1 *2949:A 0.000341757
2 *2459:A1 0.000206506
3 *2793:Q 0
4 *493:6 0.000548263
5 *2459:A1 *607:10 0
6 *2949:A *607:10 0
7 *2687:CLK *2459:A1 5.42473e-05
8 *2687:D *2459:A1 2.67022e-05
9 *2978:A *2459:A1 0.000123781
*RES
1 *2793:Q *493:6 3.6 
2 *493:6 *2459:A1 8.295 
3 *493:6 *2949:A 8.535 
*END

*D_NET *494 0.00221058
*CONN
*I *2888:A I *D sky130_fd_sc_hd__dlygate4sd3_1
*I *2465:A1 I *D sky130_fd_sc_hd__mux4_1
*I *2794:Q O *D sky130_fd_sc_hd__dfxtp_1
*CAP
1 *2888:A 0.000233435
2 *2465:A1 1.38185e-05
3 *2794:Q 0.000414916
4 *494:14 0.00066217
5 *2465:A1 *2465:S0 4.77757e-05
6 *2888:A *2544:A0 0.000190606
7 *2888:A *2616:A1 1.05476e-05
8 *2888:A *651:59 2.0514e-05
9 *494:14 *2465:S1 0
10 *494:14 *2544:A0 0.000163696
11 *2465:A0 *494:14 0.000112284
12 *2544:S *2465:A1 1.77665e-05
13 *2544:S *2888:A 1.77709e-05
14 *2616:S *2888:A 0.000212278
15 *2794:D *494:14 9.3002e-05
16 *2916:A *2888:A 0
*RES
1 *2794:Q *494:14 11.115 
2 *494:14 *2465:A1 4.05 
3 *494:14 *2888:A 13.24 
*END

*D_NET *495 0.00100432
*CONN
*I *2360:A1 I *D sky130_fd_sc_hd__o31a_1
*I *3002:X O *D sky130_fd_sc_hd__clkbuf_1
*CAP
1 *2360:A1 0.000316896
2 *3002:X 0.000316896
3 *2360:A1 *606:6 0.000323033
4 *2360:A1 *678:10 0
5 *3013:A *2360:A1 4.7496e-05
*RES
1 *3002:X *2360:A1 13.77 
*END

*D_NET *496 0.000641659
*CONN
*I *2293:A I *D sky130_fd_sc_hd__inv_2
*I *3003:X O *D sky130_fd_sc_hd__clkbuf_1
*CAP
1 *2293:A 0.000320829
2 *3003:X 0.000320829
3 *2293:A *3025:A 0
*RES
1 *3003:X *2293:A 11.1 
*END

*D_NET *497 0.00126702
*CONN
*I *2496:A0 I *D sky130_fd_sc_hd__mux2_1
*I *2919:X O *D sky130_fd_sc_hd__dlygate4sd3_1
*CAP
1 *2496:A0 0.000269046
2 *2919:X 0.000269046
3 *2496:A0 *2476:A0 0.000247567
4 *2496:A0 *643:157 0.000233792
5 *325:83 *2496:A0 0.000247567
*RES
1 *2919:X *2496:A0 12.285 
*END

*D_NET *498 0.000843151
*CONN
*I *2557:A0 I *D sky130_fd_sc_hd__mux2_1
*I *2920:X O *D sky130_fd_sc_hd__dlygate4sd3_1
*CAP
1 *2557:A0 0.000235376
2 *2920:X 0.000235376
3 *2557:A0 *2557:A1 0.000201503
4 *2557:S *2557:A0 5.30673e-05
5 *2690:D *2557:A0 1.4389e-05
6 *337:30 *2557:A0 0
7 *342:77 *2557:A0 0.00010344
*RES
1 *2920:X *2557:A0 12.54 
*END

*D_NET *499 0.000272929
*CONN
*I *2487:A0 I *D sky130_fd_sc_hd__mux2_1
*I *2921:X O *D sky130_fd_sc_hd__dlygate4sd3_1
*CAP
1 *2487:A0 0.000136464
2 *2921:X 0.000136464
*RES
1 *2921:X *2487:A0 5.03 
*END

*D_NET *500 0.00139204
*CONN
*I *2482:A0 I *D sky130_fd_sc_hd__mux2_1
*I *2922:X O *D sky130_fd_sc_hd__dlygate4sd3_1
*CAP
1 *2482:A0 0.000231486
2 *2922:X 0.000231486
3 *2482:A0 *2434:S0 4.40085e-05
4 *2482:A0 *2602:A0 0.000124007
5 *2434:A1 *2482:A0 0.000194251
6 *2894:A *2482:A0 7.23602e-05
7 *2922:A *2482:A0 7.23602e-05
8 *325:93 *2482:A0 0.000422079
*RES
1 *2922:X *2482:A0 13.29 
*END

*D_NET *501 0.000850483
*CONN
*I *2539:A0 I *D sky130_fd_sc_hd__mux2_1
*I *2923:X O *D sky130_fd_sc_hd__dlygate4sd3_1
*CAP
1 *2539:A0 0.000167861
2 *2923:X 0.000167861
3 *2539:A0 *2539:A1 1.95374e-05
4 *2539:A0 *2611:A0 3.86607e-05
5 *2923:A *2539:A0 0.000115464
6 *356:39 *2539:A0 8.57024e-05
7 *481:10 *2539:A0 0.000139238
8 *489:12 *2539:A0 0.000116158
*RES
1 *2923:X *2539:A0 10.905 
*END

*D_NET *502 0.000489336
*CONN
*I *2570:A0 I *D sky130_fd_sc_hd__mux2_1
*I *2924:X O *D sky130_fd_sc_hd__dlygate4sd3_1
*CAP
1 *2570:A0 8.12446e-05
2 *2924:X 8.12446e-05
3 *2454:A1 *2570:A0 0.000140912
4 *339:44 *2570:A0 0.000139252
5 *436:8 *2570:A0 4.66826e-05
*RES
1 *2924:X *2570:A0 9.63 
*END

*D_NET *503 0.000974648
*CONN
*I *2565:A0 I *D sky130_fd_sc_hd__mux2_1
*I *2926:X O *D sky130_fd_sc_hd__dlygate4sd3_1
*CAP
1 *2565:A0 0.000423124
2 *2926:X 0.000423124
3 *2520:S *2565:A0 3.86607e-05
4 *2705:D *2565:A0 7.23533e-05
5 *431:8 *2565:A0 1.7386e-05
*RES
1 *2926:X *2565:A0 12.315 
*END

*D_NET *504 0.000691957
*CONN
*I *2598:A0 I *D sky130_fd_sc_hd__mux2_1
*I *2927:X O *D sky130_fd_sc_hd__dlygate4sd3_1
*CAP
1 *2598:A0 0.000196334
2 *2927:X 0.000196334
3 *2598:A0 *2456:S0 0
4 *2598:A0 *646:120 0.000187759
5 *2598:A0 *653:71 4.14009e-05
6 *2456:A1 *2598:A0 7.01303e-05
*RES
1 *2927:X *2598:A0 10.905 
*END

*D_NET *505 0.000335559
*CONN
*I *2522:A0 I *D sky130_fd_sc_hd__mux2_1
*I *2928:X O *D sky130_fd_sc_hd__dlygate4sd3_1
*CAP
1 *2522:A0 0.000143636
2 *2928:X 0.000143636
3 *2522:A0 *2852:A 0
4 *2505:S *2522:A0 4.82863e-05
*RES
1 *2928:X *2522:A0 9.285 
*END

*D_NET *506 0.00029114
*CONN
*I *2609:A0 I *D sky130_fd_sc_hd__mux2_1
*I *2929:X O *D sky130_fd_sc_hd__dlygate4sd3_1
*CAP
1 *2609:A0 8.83579e-05
2 *2929:X 8.83579e-05
3 *325:67 *2609:A0 0.000114424
*RES
1 *2929:X *2609:A0 5.03 
*END

*D_NET *507 0.000443229
*CONN
*I *2868:A I *D sky130_fd_sc_hd__buf_2
*I *3004:X O *D sky130_fd_sc_hd__clkbuf_1
*CAP
1 *2868:A 0.000151992
2 *3004:X 0.000151992
3 *2868:A *2860:A 0.000139245
4 *3004:A *2868:A 0
*RES
1 *3004:X *2868:A 9.63 
*END

*D_NET *508 0.00037272
*CONN
*I *2492:A0 I *D sky130_fd_sc_hd__mux2_1
*I *2930:X O *D sky130_fd_sc_hd__dlygate4sd3_1
*CAP
1 *2492:A0 4.62626e-05
2 *2930:X 4.62626e-05
3 *2492:A0 *663:10 0.000134509
4 *2492:A0 *663:16 9.50342e-06
5 *339:32 *2492:A0 0.000136182
*RES
1 *2930:X *2492:A0 8.835 
*END

*D_NET *509 0.000632834
*CONN
*I *2593:A0 I *D sky130_fd_sc_hd__mux2_1
*I *2931:X O *D sky130_fd_sc_hd__dlygate4sd3_1
*CAP
1 *2593:A0 0.000193313
2 *2931:X 0.000193313
3 *2593:A0 *2444:S1 0
4 *2674:CLK *2593:A0 9.91257e-05
5 *341:103 *2593:A0 5.16418e-05
6 *341:105 *2593:A0 9.54399e-05
*RES
1 *2931:X *2593:A0 10.32 
*END

*D_NET *510 0.000751928
*CONN
*I *2590:A0 I *D sky130_fd_sc_hd__mux2_1
*I *2932:X O *D sky130_fd_sc_hd__dlygate4sd3_1
*CAP
1 *2590:A0 0.00013092
2 *2932:X 0.00013092
3 *2590:A0 *2462:S0 4.4196e-05
4 *2590:A0 *2590:A1 0.000195946
5 *2590:A0 *3035:A 6.32041e-05
6 *2588:S *2590:A0 6.23541e-06
7 *2590:S *2590:A0 0.000121643
8 *340:110 *2590:A0 5.88634e-05
*RES
1 *2932:X *2590:A0 11.01 
*END

*D_NET *511 0.00176439
*CONN
*I *2571:A0 I *D sky130_fd_sc_hd__mux2_1
*I *2933:X O *D sky130_fd_sc_hd__dlygate4sd3_1
*CAP
1 *2571:A0 0.00043211
2 *2933:X 0.00043211
3 *2571:A0 *2571:A1 0.000162318
4 *2571:A0 *2580:A0 0.000160658
5 *2571:A0 *2580:A1 0.000419376
6 *2460:A2 *2571:A0 3.1562e-06
7 *2719:D *2571:A0 2.67022e-05
8 *323:114 *2571:A0 5.84248e-05
9 *334:66 *2571:A0 0
10 *437:12 *2571:A0 6.95335e-05
*RES
1 *2933:X *2571:A0 15.705 
*END

*D_NET *512 0.00032525
*CONN
*I *2599:A0 I *D sky130_fd_sc_hd__mux2_1
*I *2934:X O *D sky130_fd_sc_hd__dlygate4sd3_1
*CAP
1 *2599:A0 0.00012756
2 *2934:X 0.00012756
3 *334:74 *2599:A0 0
4 *340:110 *2599:A0 7.01303e-05
*RES
1 *2934:X *2599:A0 8.865 
*END

*D_NET *513 0.00103142
*CONN
*I *2517:A0 I *D sky130_fd_sc_hd__mux2_1
*I *2935:X O *D sky130_fd_sc_hd__dlygate4sd3_1
*CAP
1 *2517:A0 0.000326874
2 *2935:X 0.000326874
3 *2463:A2 *2517:A0 2.87867e-05
4 *2485:S *2517:A0 0
5 *2572:S *2517:A0 0.000278117
6 *2664:D *2517:A0 0
7 *2973:A *2517:A0 7.07664e-05
*RES
1 *2935:X *2517:A0 12.63 
*END

*D_NET *514 0.000368774
*CONN
*I *2485:A0 I *D sky130_fd_sc_hd__mux2_1
*I *2937:X O *D sky130_fd_sc_hd__dlygate4sd3_1
*CAP
1 *2485:A0 8.53641e-05
2 *2937:X 8.53641e-05
3 *2485:A0 *2485:A1 0.000198046
*RES
1 *2937:X *2485:A0 5.03 
*END

*D_NET *515 0.000542172
*CONN
*I *2486:A0 I *D sky130_fd_sc_hd__mux2_1
*I *2938:X O *D sky130_fd_sc_hd__dlygate4sd3_1
*CAP
1 *2486:A0 0.000166492
2 *2938:X 0.000166492
3 *2486:A0 *2486:A1 3.00381e-05
4 *2458:A1 *2486:A0 5.4256e-05
5 *2486:S *2486:A0 0.000124895
6 *2639:D *2486:A0 0
*RES
1 *2938:X *2486:A0 10.665 
*END

*D_NET *516 0.001793
*CONN
*I *2556:A0 I *D sky130_fd_sc_hd__mux2_1
*I *2939:X O *D sky130_fd_sc_hd__dlygate4sd3_1
*CAP
1 *2556:A0 0.000422507
2 *2939:X 0.000422507
3 *2556:A0 *2460:S0 0.000237249
4 *2556:A0 *2460:S1 0
5 *2556:A0 *2556:A1 0.00014531
6 *2689:CLK *2556:A0 0.000185405
7 *327:53 *2556:A0 0.000330062
8 *359:14 *2556:A0 4.99619e-05
*RES
1 *2939:X *2556:A0 16.815 
*END

*D_NET *517 0.000744779
*CONN
*I *2528:A0 I *D sky130_fd_sc_hd__mux2_1
*I *2940:X O *D sky130_fd_sc_hd__dlygate4sd3_1
*CAP
1 *2528:A0 0.000159082
2 *2940:X 0.000159082
3 *2528:A0 *648:117 9.40228e-05
4 *2528:A0 *666:106 0.000241856
5 *2657:D *2528:A0 7.23602e-05
6 *2673:CLK *2528:A0 1.83756e-05
*RES
1 *2940:X *2528:A0 10.56 
*END

*D_NET *518 0.00731697
*CONN
*I *2861:A I *D sky130_fd_sc_hd__buf_2
*I *2768:CLK I *D sky130_fd_sc_hd__dfrtp_2
*I *2767:CLK I *D sky130_fd_sc_hd__dfrtp_2
*I *2860:A I *D sky130_fd_sc_hd__buf_2
*I *3005:X O *D sky130_fd_sc_hd__clkbuf_1
*CAP
1 *2861:A 7.26071e-05
2 *2768:CLK 0.000149005
3 *2767:CLK 3.37585e-05
4 *2860:A 0.000276134
5 *3005:X 0
6 *518:40 0.00113213
7 *518:25 0.00221883
8 *518:4 0.00155068
9 *2768:CLK *674:16 5.73739e-05
10 *2860:A *2863:A 4.82919e-05
11 *2860:A *2867:A 0.000319167
12 *2860:A *673:8 4.65515e-05
13 *2861:A *2739:D 0
14 *2861:A *2768:D 0.000139238
15 *518:25 *2390:B 0
16 *518:25 *2767:D 0
17 *518:25 *2867:A 0
18 *518:25 *3029:A 2.75718e-05
19 *518:25 *551:26 2.66935e-05
20 *518:25 *622:12 0.000270353
21 *518:40 *2767:D 0
22 *518:40 *2768:RESET_B 1.53577e-05
23 *518:40 *2864:A 3.1835e-05
24 *518:40 *674:8 5.43869e-05
25 *518:40 *674:12 4.03215e-05
26 *518:40 *674:16 3.99879e-05
27 rd_data[1] *518:25 8.42298e-05
28 *2868:A *2860:A 0.000139245
29 *3004:A *2860:A 0
30 *3005:A *2860:A 0
31 *3005:A *518:25 5.4003e-05
32 *3006:A *518:25 0.000401665
33 *3008:A *518:25 8.75474e-05
*RES
1 *3005:X *518:4 1.6 
2 *518:4 *2860:A 11.555 
3 *518:4 *518:25 26.45 
4 *518:25 *2767:CLK 4.05 
5 *518:25 *518:40 13.385 
6 *518:40 *2768:CLK 3.7 
7 *518:40 *2861:A 7.235 
*END

*D_NET *519 0.000375268
*CONN
*I *2537:A0 I *D sky130_fd_sc_hd__mux2_1
*I *2941:X O *D sky130_fd_sc_hd__dlygate4sd3_1
*CAP
1 *2537:A0 0.000139624
2 *2941:X 0.000139624
3 *2537:A0 *2537:A1 4.99619e-05
4 *2421:A1 *2537:A0 0
5 *2609:S *2537:A0 0
6 *327:26 *2537:A0 4.60584e-05
*RES
1 *2941:X *2537:A0 9.21 
*END

*D_NET *520 0.000387013
*CONN
*I *2589:A0 I *D sky130_fd_sc_hd__mux2_1
*I *2942:X O *D sky130_fd_sc_hd__dlygate4sd3_1
*CAP
1 *2589:A0 3.5614e-05
2 *2942:X 3.5614e-05
3 *2589:A0 *2589:A1 2.30292e-05
4 *2589:S *2589:A0 8.77516e-05
5 *2905:A *2589:A0 0.000161985
6 *336:65 *2589:A0 4.30188e-05
*RES
1 *2942:X *2589:A0 5.03 
*END

*D_NET *521 0.00055523
*CONN
*I *2533:A0 I *D sky130_fd_sc_hd__mux2_1
*I *2943:X O *D sky130_fd_sc_hd__dlygate4sd3_1
*CAP
1 *2533:A0 0.000176678
2 *2943:X 0.000176678
3 *2533:A0 *656:32 4.82863e-05
4 *2533:S *2533:A0 0.000134429
5 *2570:S *2533:A0 1.91597e-05
*RES
1 *2943:X *2533:A0 5.84 
*END

*D_NET *522 0.000267914
*CONN
*I *2561:A0 I *D sky130_fd_sc_hd__mux2_1
*I *2944:X O *D sky130_fd_sc_hd__dlygate4sd3_1
*CAP
1 *2561:A0 0.000119563
2 *2944:X 0.000119563
3 *2944:A *2561:A0 0
4 *332:80 *2561:A0 2.87867e-05
*RES
1 *2944:X *2561:A0 8.865 
*END

*D_NET *523 0.000548553
*CONN
*I *2497:A0 I *D sky130_fd_sc_hd__mux2_1
*I *2945:X O *D sky130_fd_sc_hd__dlygate4sd3_1
*CAP
1 *2497:A0 0.000150028
2 *2945:X 0.000150028
3 *2497:A0 *2436:S0 0
4 *2495:S *2497:A0 0.000120186
5 *2707:CLK *2497:A0 8.53113e-06
6 *28:17 *2497:A0 8.88631e-05
7 *327:65 *2497:A0 3.09164e-05
*RES
1 *2945:X *2497:A0 10.32 
*END

*D_NET *524 0.000809699
*CONN
*I *2516:A0 I *D sky130_fd_sc_hd__mux2_1
*I *2946:X O *D sky130_fd_sc_hd__dlygate4sd3_1
*CAP
1 *2516:A0 9.70986e-05
2 *2946:X 9.70986e-05
3 *2516:A0 *2434:S0 7.09999e-05
4 *2516:A0 *2516:A1 4.60584e-05
5 *2516:S *2516:A0 0.000236128
6 *325:83 *2516:A0 7.21296e-06
7 *340:73 *2516:A0 1.61831e-05
8 *345:76 *2516:A0 0.000238919
*RES
1 *2946:X *2516:A0 11.01 
*END

*D_NET *525 0.00060179
*CONN
*I *2597:A0 I *D sky130_fd_sc_hd__mux2_1
*I *2948:X O *D sky130_fd_sc_hd__dlygate4sd3_1
*CAP
1 *2597:A0 0.000193988
2 *2948:X 0.000193988
3 *2597:A0 *655:62 4.19797e-05
4 *2597:S *2597:A0 3.09233e-05
5 *334:80 *2597:A0 0.000140912
*RES
1 *2948:X *2597:A0 10.32 
*END

*D_NET *526 0.000599655
*CONN
*I *2615:A0 I *D sky130_fd_sc_hd__mux2_1
*I *2949:X O *D sky130_fd_sc_hd__dlygate4sd3_1
*CAP
1 *2615:A0 0.00017035
2 *2949:X 0.00017035
3 *2615:A0 *2543:A0 7.14241e-05
4 *2960:A *2615:A0 0.000139245
5 *332:42 *2615:A0 4.82863e-05
*RES
1 *2949:X *2615:A0 10.56 
*END

*D_NET *527 0.00128523
*CONN
*I *2558:A0 I *D sky130_fd_sc_hd__mux2_1
*I *2950:X O *D sky130_fd_sc_hd__dlygate4sd3_1
*CAP
1 *2558:A0 0.000279454
2 *2950:X 0.000279454
3 *2558:A0 *2432:S1 0
4 *2724:D *2558:A0 0.000137988
5 *2950:A *2558:A0 0
6 *337:97 *2558:A0 0.000426021
7 *356:117 *2558:A0 0.000162311
*RES
1 *2950:X *2558:A0 13.635 
*END

*D_NET *528 0.000330046
*CONN
*I *2594:A0 I *D sky130_fd_sc_hd__mux2_1
*I *2951:X O *D sky130_fd_sc_hd__dlygate4sd3_1
*CAP
1 *2594:A0 3.67673e-05
2 *2951:X 3.67673e-05
3 *340:100 *2594:A0 1.94723e-05
4 *342:36 *2594:A0 0.000143266
5 *457:10 *2594:A0 9.37731e-05
*RES
1 *2951:X *2594:A0 8.835 
*END

*D_NET *529 0.0012346
*CONN
*I *2390:B I *D sky130_fd_sc_hd__and2b_2
*I *3006:X O *D sky130_fd_sc_hd__clkbuf_1
*CAP
1 *2390:B 0.000290894
2 *3006:X 0.000290894
3 *2390:B *2867:A 0.000280987
4 *2390:B *3029:A 5.39961e-05
5 *2390:B *622:12 7.5431e-05
6 *2390:B *625:10 0.000107634
7 *3006:A *2390:B 0.000134761
8 *518:25 *2390:B 0
*RES
1 *3006:X *2390:B 15.66 
*END

*D_NET *530 0.000607165
*CONN
*I *2523:A0 I *D sky130_fd_sc_hd__mux2_1
*I *2952:X O *D sky130_fd_sc_hd__dlygate4sd3_1
*CAP
1 *2523:A0 0.000152371
2 *2952:X 0.000152371
3 *2523:A0 *2523:A1 5.19417e-05
4 *2523:A0 *3031:A 0.000125874
5 *2523:S *2523:A0 4.82863e-05
6 *2791:D *2523:A0 7.63204e-05
7 *2952:A *2523:A0 0
*RES
1 *2952:X *2523:A0 11.325 
*END

*D_NET *531 0.000325552
*CONN
*I *2538:A0 I *D sky130_fd_sc_hd__mux2_1
*I *2953:X O *D sky130_fd_sc_hd__dlygate4sd3_1
*CAP
1 *2538:A0 0.000102681
2 *2953:X 0.000102681
3 *2538:A0 *2437:S 9.18292e-06
4 *2538:A0 *2501:A0 7.23533e-05
5 *340:16 *2538:A0 3.86529e-05
*RES
1 *2953:X *2538:A0 8.865 
*END

*D_NET *532 0.000356866
*CONN
*I *2586:A0 I *D sky130_fd_sc_hd__mux2_1
*I *2954:X O *D sky130_fd_sc_hd__dlygate4sd3_1
*CAP
1 *2586:A0 8.72621e-05
2 *2954:X 8.72621e-05
3 *2586:A0 *2586:A1 4.82919e-05
4 *2586:A0 *2595:A0 2.30292e-05
5 *2701:CLK *2586:A0 7.23602e-05
6 *329:107 *2586:A0 3.86607e-05
*RES
1 *2954:X *2586:A0 8.865 
*END

*D_NET *533 0.00154625
*CONN
*I *2544:A0 I *D sky130_fd_sc_hd__mux2_1
*I *2955:X O *D sky130_fd_sc_hd__dlygate4sd3_1
*CAP
1 *2544:A0 0.000272167
2 *2955:X 0.000272167
3 *2544:A0 *651:59 5.22859e-05
4 *2544:A0 *651:65 4.77719e-05
5 *2465:A0 *2544:A0 0.000116165
6 *2544:S *2544:A0 6.94735e-06
7 *2794:D *2544:A0 0.00042444
8 *2888:A *2544:A0 0.000190606
9 *494:14 *2544:A0 0.000163696
*RES
1 *2955:X *2544:A0 14.58 
*END

*D_NET *534 0.000358888
*CONN
*I *2532:A0 I *D sky130_fd_sc_hd__mux2_1
*I *2956:X O *D sky130_fd_sc_hd__dlygate4sd3_1
*CAP
1 *2532:A0 6.7332e-05
2 *2956:X 6.7332e-05
3 *2532:A0 *2532:A1 4.99619e-05
4 *2532:S *2532:A0 8.8266e-05
5 *2956:A *2532:A0 4.82919e-05
6 *427:10 *2532:A0 3.77036e-05
*RES
1 *2956:X *2532:A0 5.03 
*END

*D_NET *535 0.000786519
*CONN
*I *2520:A0 I *D sky130_fd_sc_hd__mux2_1
*I *2957:X O *D sky130_fd_sc_hd__dlygate4sd3_1
*CAP
1 *2520:A0 0.000186439
2 *2957:X 0.000186439
3 *2520:A0 *2520:A1 8.57024e-05
4 *2520:S *2520:A0 0.000249921
5 *2650:D *2520:A0 2.67022e-05
6 *329:96 *2520:A0 5.13155e-05
7 *342:67 *2520:A0 0
*RES
1 *2957:X *2520:A0 11.25 
*END

*D_NET *536 0.000310198
*CONN
*I *2470:A0 I *D sky130_fd_sc_hd__mux2_1
*I *2959:X O *D sky130_fd_sc_hd__dlygate4sd3_1
*CAP
1 *2470:A0 5.85929e-05
2 *2959:X 5.85929e-05
3 *2470:A0 *666:20 7.23602e-05
4 *2420:A1 *2470:A0 7.23602e-05
5 *332:42 *2470:A0 4.82919e-05
*RES
1 *2959:X *2470:A0 8.52 
*END

*D_NET *537 0.00145469
*CONN
*I *2543:A0 I *D sky130_fd_sc_hd__mux2_1
*I *2960:X O *D sky130_fd_sc_hd__dlygate4sd3_1
*CAP
1 *2543:A0 0.000384294
2 *2960:X 0.000384294
3 *2543:A0 *653:56 6.2553e-05
4 *2543:A0 *653:65 0.000233561
5 *2543:A0 *653:105 0.000235787
6 *2459:A0 *2543:A0 6.53286e-05
7 *2615:A0 *2543:A0 7.14241e-05
8 *2960:A *2543:A0 1.74532e-05
*RES
1 *2960:X *2543:A0 15.285 
*END

*D_NET *538 0.000402207
*CONN
*I *2474:A0 I *D sky130_fd_sc_hd__mux2_1
*I *2961:X O *D sky130_fd_sc_hd__dlygate4sd3_1
*CAP
1 *2474:A0 0.00017391
2 *2961:X 0.00017391
3 *2474:A0 *2444:S1 0
4 *2474:A0 *650:30 5.43869e-05
5 *341:105 *2474:A0 0
*RES
1 *2961:X *2474:A0 9.555 
*END

*D_NET *539 0.000416564
*CONN
*I *2473:A0 I *D sky130_fd_sc_hd__mux2_1
*I *2962:X O *D sky130_fd_sc_hd__dlygate4sd3_1
*CAP
1 *2473:A0 0.000124791
2 *2962:X 0.000124791
3 *2473:A0 *2467:S 2.87867e-05
4 *2473:A0 *2473:A1 7.23533e-05
5 *2473:A0 *632:14 6.58423e-05
*RES
1 *2962:X *2473:A0 9.21 
*END

*D_NET *540 0.0042045
*CONN
*I *2857:A I *D sky130_fd_sc_hd__clkbuf_2
*I *2858:A I *D sky130_fd_sc_hd__buf_1
*I *3007:X O *D sky130_fd_sc_hd__buf_1
*CAP
1 *2857:A 0.000458462
2 *2858:A 0.000614418
3 *3007:X 0.000457356
4 *540:10 0.00153024
5 *2857:A *2423:A0 4.99619e-05
6 *2858:A *667:10 0.000216213
7 *540:10 *2423:A0 0.000100057
8 *540:10 *3028:A 0.000177564
9 *2423:A1 *2858:A 5.50989e-05
10 *2423:S *2857:A 2.75145e-05
11 *2461:S *540:10 5.92191e-05
12 *2617:D *2857:A 2.11084e-05
13 *2877:A *2858:A 0.000207783
14 *264:20 *2858:A 0.000200845
15 *264:20 *540:10 2.86623e-05
*RES
1 *3007:X *540:10 12.75 
2 *540:10 *2858:A 15.495 
3 *540:10 *2857:A 10.26 
*END

*D_NET *541 0.00110876
*CONN
*I *2560:A0 I *D sky130_fd_sc_hd__mux2_1
*I *2963:X O *D sky130_fd_sc_hd__dlygate4sd3_1
*CAP
1 *2560:A0 0.000169386
2 *2963:X 0.000169386
3 *2560:A0 *2551:A0 4.99619e-05
4 *2560:A0 *637:90 0.000168175
5 *2560:A0 *647:41 4.82919e-05
6 *2560:A0 *658:25 0.000311288
7 *2560:S *2560:A0 8.8266e-05
8 *2595:S *2560:A0 1.12578e-05
9 *2907:A *2560:A0 9.2741e-05
*RES
1 *2963:X *2560:A0 8.48 
*END

*D_NET *542 0.000424614
*CONN
*I *2494:A0 I *D sky130_fd_sc_hd__mux2_1
*I *2964:X O *D sky130_fd_sc_hd__dlygate4sd3_1
*CAP
1 *2494:A0 0.000144271
2 *2964:X 0.000144271
3 *2494:A0 *2449:S 1.34503e-05
4 *2494:A0 *2621:CLK 0
5 *2494:A0 *634:78 4.66108e-05
6 *2494:A0 *669:44 7.23602e-05
7 *2449:A1 *2494:A0 3.64998e-06
*RES
1 *2964:X *2494:A0 9.21 
*END

*D_NET *543 0.000785795
*CONN
*I *2548:A1 I *D sky130_fd_sc_hd__mux2_1
*I *2965:X O *D sky130_fd_sc_hd__dlygate4sd3_1
*CAP
1 *2548:A1 0.000191549
2 *2965:X 0.000191549
3 *2548:A1 *2557:A1 3.31103e-05
4 *2548:A1 *664:14 1.83756e-05
5 *2690:D *2548:A1 5.51158e-05
6 *337:28 *2548:A1 0
7 *342:77 *2548:A1 0.000296094
*RES
1 *2965:X *2548:A1 11.76 
*END

*D_NET *544 0.000431534
*CONN
*I *2562:A0 I *D sky130_fd_sc_hd__mux2_1
*I *2966:X O *D sky130_fd_sc_hd__dlygate4sd3_1
*CAP
1 *2562:A0 0.000149369
2 *2966:X 0.000149369
3 *2562:A0 *2553:A0 1.71013e-05
4 *2562:A0 *653:25 6.74079e-05
5 *2562:S *2562:A0 4.82863e-05
6 *329:48 *2562:A0 0
*RES
1 *2966:X *2562:A0 9.975 
*END

*D_NET *545 0.00044738
*CONN
*I *2559:A0 I *D sky130_fd_sc_hd__mux2_1
*I *2967:X O *D sky130_fd_sc_hd__dlygate4sd3_1
*CAP
1 *2559:A0 0.000133985
2 *2967:X 0.000133985
3 *2559:A0 *2605:S 8.40269e-05
4 *2559:A0 *634:98 2.30292e-05
5 *2559:A0 *659:116 7.23533e-05
*RES
1 *2967:X *2559:A0 9.21 
*END

*D_NET *546 0.000493252
*CONN
*I *2614:A0 I *D sky130_fd_sc_hd__mux2_1
*I *2968:X O *D sky130_fd_sc_hd__dlygate4sd3_1
*CAP
1 *2614:A0 0.000192763
2 *2968:X 0.000192763
3 *332:92 *2614:A0 8.31173e-05
4 *492:12 *2614:A0 2.46089e-05
*RES
1 *2968:X *2614:A0 9.9 
*END

*D_NET *547 0.000601223
*CONN
*I *2542:A0 I *D sky130_fd_sc_hd__mux2_1
*I *2970:X O *D sky130_fd_sc_hd__dlygate4sd3_1
*CAP
1 *2542:A0 0.000212961
2 *2970:X 0.000212961
3 *2542:A0 *2542:A1 0.000113293
4 *334:80 *2542:A0 1.34594e-05
5 *334:93 *2542:A0 4.85494e-05
*RES
1 *2970:X *2542:A0 10.245 
*END

*D_NET *548 0.00205906
*CONN
*I *2524:A0 I *D sky130_fd_sc_hd__mux2_1
*I *2971:X O *D sky130_fd_sc_hd__dlygate4sd3_1
*CAP
1 *2524:A0 0.000679538
2 *2971:X 0.000679538
3 *2524:A0 *2453:S0 0.00023468
4 *2524:A0 *655:38 2.67022e-05
5 *2453:A2 *2524:A0 1.10377e-05
6 *2453:A3 *2524:A0 6.38722e-05
7 *2524:S *2524:A0 8.64421e-05
8 *332:92 *2524:A0 0.000277252
*RES
1 *2971:X *2524:A0 17.43 
*END

*D_NET *549 0.000925189
*CONN
*I *2541:A0 I *D sky130_fd_sc_hd__mux2_1
*I *2972:X O *D sky130_fd_sc_hd__dlygate4sd3_1
*CAP
1 *2541:A0 0.000446039
2 *2972:X 0.000446039
3 *2685:D *2541:A0 3.31103e-05
*RES
1 *2972:X *2541:A0 14.115 
*END

*D_NET *550 0.00118558
*CONN
*I *2572:A0 I *D sky130_fd_sc_hd__mux2_1
*I *2973:X O *D sky130_fd_sc_hd__dlygate4sd3_1
*CAP
1 *2572:A0 0.000263912
2 *2973:X 0.000263912
3 *2572:S *2572:A0 0.00027299
4 *2597:S *2572:A0 0.000135532
5 *334:74 *2572:A0 0.000249234
*RES
1 *2973:X *2572:A0 12.63 
*END

*D_NET *551 0.0105256
*CONN
*I *2856:A I *D sky130_fd_sc_hd__buf_1
*I *2855:A I *D sky130_fd_sc_hd__clkbuf_2
*I *3008:X O *D sky130_fd_sc_hd__buf_1
*CAP
1 *2856:A 0
2 *2855:A 0.00141516
3 *3008:X 0.00219941
4 *551:26 0.00361457
5 *2855:A *2394:A1 0.00045101
6 *2855:A *634:52 7.6883e-06
7 *2855:A *642:37 0.000235825
8 *551:26 *2336:A 3.38341e-05
9 *551:26 *2394:A1 8.23457e-05
10 *551:26 *2401:A 2.30292e-05
11 *551:26 *2732:CLK 0.000168614
12 *551:26 *2732:RESET_B 0.000259315
13 *551:26 *2735:D 0.000160635
14 *551:26 *2735:RESET_B 8.07616e-05
15 *551:26 *2867:A 0
16 *551:26 *634:26 7.20849e-05
17 *551:26 *634:40 3.57349e-05
18 *551:26 *634:44 4.82863e-05
19 *551:26 *668:79 0.000183622
20 *551:26 *708:10 9.26565e-05
21 *551:26 *720:18 0.000379058
22 *2407:A1 *551:26 9.82645e-05
23 *2407:C1 *551:26 4.66108e-05
24 *2425:A1 *2855:A 6.63219e-06
25 *2575:S *2855:A 0.000400995
26 *2578:S *2855:A 0.000192934
27 *2723:D *2855:A 6.95945e-05
28 *264:18 *2855:A 0
29 *267:12 *551:26 1.31371e-05
30 *340:24 *2855:A 0.000127057
31 *518:25 *551:26 2.66935e-05
*RES
1 *3008:X *551:26 36.965 
2 *551:26 *2855:A 11.4079 
3 *551:26 *2856:A 1.6 
*END

*D_NET *552 0.000750103
*CONN
*I *2515:A0 I *D sky130_fd_sc_hd__mux2_1
*I *2974:X O *D sky130_fd_sc_hd__dlygate4sd3_1
*CAP
1 *2515:A0 0.00010686
2 *2974:X 0.00010686
3 *2515:A0 *2515:A1 4.99619e-05
4 *2515:A0 *2852:A 0
5 *2451:A0 *2515:A0 0.000163199
6 *2515:S *2515:A0 0.000139746
7 *2570:S *2515:A0 1.91597e-05
8 *2577:S *2515:A0 2.7441e-05
9 *372:8 *2515:A0 0.000136877
*RES
1 *2974:X *2515:A0 10.665 
*END

*D_NET *553 0.000392876
*CONN
*I *2603:A1 I *D sky130_fd_sc_hd__mux2_1
*I *2975:X O *D sky130_fd_sc_hd__dlygate4sd3_1
*CAP
1 *2603:A1 6.87261e-05
2 *2975:X 6.87261e-05
3 *2603:A1 *2605:S 0.00011852
4 *2603:A1 *661:60 0.00011852
5 *2820:A *2603:A1 1.83847e-05
*RES
1 *2975:X *2603:A1 9.03 
*END

*D_NET *554 0.000705985
*CONN
*I *2490:A0 I *D sky130_fd_sc_hd__mux2_1
*I *2976:X O *D sky130_fd_sc_hd__dlygate4sd3_1
*CAP
1 *2490:A0 0.00019819
2 *2976:X 0.00019819
3 *2490:A0 *2519:A0 0
4 *323:80 *2490:A0 7.06865e-05
5 *332:42 *2490:A0 0.000238919
*RES
1 *2976:X *2490:A0 10.245 
*END

*D_NET *555 0.000239683
*CONN
*I *2475:A0 I *D sky130_fd_sc_hd__mux2_1
*I *2977:X O *D sky130_fd_sc_hd__dlygate4sd3_1
*CAP
1 *2475:A0 7.49683e-05
2 *2977:X 7.49683e-05
3 *2475:A0 *655:112 7.23602e-05
4 *2630:D *2475:A0 0
5 *412:6 *2475:A0 1.7386e-05
*RES
1 *2977:X *2475:A0 8.52 
*END

*D_NET *556 0.000407338
*CONN
*I *2525:A0 I *D sky130_fd_sc_hd__mux2_1
*I *2978:X O *D sky130_fd_sc_hd__dlygate4sd3_1
*CAP
1 *2525:A0 0.000133937
2 *2978:X 0.000133937
3 *2525:A0 *2525:A1 4.82863e-05
4 *2525:A0 *607:10 2.67022e-05
5 *2525:A0 *653:6 4.82919e-05
6 *332:52 *2525:A0 1.61831e-05
*RES
1 *2978:X *2525:A0 9.21 
*END

*D_NET *557 0.00100998
*CONN
*I *2563:A0 I *D sky130_fd_sc_hd__mux2_1
*I *2979:X O *D sky130_fd_sc_hd__dlygate4sd3_1
*CAP
1 *2563:A0 0.000184993
2 *2979:X 0.000184993
3 *2507:S *2563:A0 0.00031916
4 *332:70 *2563:A0 0.000320834
*RES
1 *2979:X *2563:A0 12.015 
*END

*D_NET *558 0.00036286
*CONN
*I *2480:A0 I *D sky130_fd_sc_hd__mux2_1
*I *2981:X O *D sky130_fd_sc_hd__dlygate4sd3_1
*CAP
1 *2480:A0 0.000146805
2 *2981:X 0.000146805
3 *2480:A0 *666:14 5.30673e-05
4 *2480:A0 *666:20 1.61831e-05
5 *2480:A0 *670:80 0
*RES
1 *2981:X *2480:A0 9.21 
*END

*D_NET *559 0.00112534
*CONN
*I *2596:A0 I *D sky130_fd_sc_hd__mux2_1
*I *2982:X O *D sky130_fd_sc_hd__dlygate4sd3_1
*CAP
1 *2596:A0 0.000131431
2 *2982:X 0.000131431
3 *2596:A0 *657:104 7.63282e-05
4 *2596:A0 *669:44 0.000197017
5 *2596:A0 *678:12 0.000426206
6 *2596:S *2596:A0 8.65961e-05
7 *347:47 *2596:A0 7.63282e-05
*RES
1 *2982:X *2596:A0 12.735 
*END

*D_NET *560 0.000775981
*CONN
*I *2550:A1 I *D sky130_fd_sc_hd__mux2_1
*I *2983:X O *D sky130_fd_sc_hd__dlygate4sd3_1
*CAP
1 *2550:A1 0.000271888
2 *2983:X 0.000271888
3 *2550:A1 *2624:RESET_B 0.000113691
4 *2983:A *2550:A1 0.000118513
*RES
1 *2983:X *2550:A1 11.1 
*END

*D_NET *561 0.000331583
*CONN
*I *2612:A0 I *D sky130_fd_sc_hd__mux2_1
*I *2984:X O *D sky130_fd_sc_hd__dlygate4sd3_1
*CAP
1 *2612:A0 0.00011659
2 *2984:X 0.00011659
3 *2612:A0 *2612:A1 2.75145e-05
4 *2523:S *2612:A0 2.03356e-05
5 *342:83 *2612:A0 5.05521e-05
*RES
1 *2984:X *2612:A0 5.03 
*END

*D_NET *562 0.00689959
*CONN
*I *2854:A I *D sky130_fd_sc_hd__buf_1
*I *2853:A I *D sky130_fd_sc_hd__clkbuf_2
*I *3009:X O *D sky130_fd_sc_hd__buf_1
*CAP
1 *2854:A 0.001202
2 *2853:A 0.000167524
3 *3009:X 0.000375267
4 *562:10 0.00174479
5 *2853:A *662:120 0
6 *2854:A *2434:S0 0.000404416
7 *2854:A *2460:S1 0
8 *2854:A *2585:A0 0.000308129
9 *2854:A *3030:A 0.000527965
10 *2854:A *643:39 0
11 *2854:A *662:48 0.000157379
12 *2854:A *662:55 0.000384091
13 *2854:A *662:74 0.000386215
14 *562:10 *3030:A 0.000190732
15 *2434:A1 *2854:A 9.42145e-05
16 *2434:A3 *2854:A 2.24336e-05
17 *2635:CLK *2854:A 0.000224698
18 *2635:D *2854:A 0.000160919
19 *325:83 *2854:A 0
20 *329:48 *2853:A 0.000339893
21 *332:70 *2853:A 0
22 *356:20 *2854:A 0.000122325
23 *401:8 *2854:A 8.65961e-05
*RES
1 *3009:X *562:10 7 
2 *562:10 *2853:A 9.53 
3 *562:10 *2854:A 32.795 
*END

*D_NET *563 0.000362019
*CONN
*I *2613:A0 I *D sky130_fd_sc_hd__mux2_1
*I *2985:X O *D sky130_fd_sc_hd__dlygate4sd3_1
*CAP
1 *2613:A0 5.58482e-05
2 *2985:X 5.58482e-05
3 *2613:A0 *2523:A1 2.75229e-05
4 *2613:A0 *657:34 8.95933e-05
5 *2613:S *2613:A0 8.65961e-05
6 *2985:A *2613:A0 4.66108e-05
*RES
1 *2985:X *2613:A0 5.03 
*END

*D_NET *564 0.00194721
*CONN
*I *2580:A1 I *D sky130_fd_sc_hd__mux2_1
*I *2986:X O *D sky130_fd_sc_hd__dlygate4sd3_1
*CAP
1 *2580:A1 0.00035314
2 *2986:X 0.00035314
3 *2460:A2 *2580:A1 2.20732e-05
4 *2571:A0 *2580:A1 0.000419376
5 *2719:D *2580:A1 0
6 *2933:A *2580:A1 7.3151e-05
7 *341:42 *2580:A1 0.000254939
8 *437:12 *2580:A1 0.000471388
*RES
1 *2986:X *2580:A1 16.02 
*END

*D_NET *565 0.00164129
*CONN
*I *2610:A0 I *D sky130_fd_sc_hd__mux2_1
*I *2987:X O *D sky130_fd_sc_hd__dlygate4sd3_1
*CAP
1 *2610:A0 0.000383952
2 *2987:X 0.000383952
3 *2610:A0 *2610:A1 0.000278111
4 *2610:A0 *637:30 0.000131882
5 *2429:A0 *2610:A0 7.23602e-05
6 *2610:S *2610:A0 8.65961e-05
7 *333:58 *2610:A0 0.000304433
8 *341:103 *2610:A0 0
*RES
1 *2987:X *2610:A0 16.5 
*END

*D_NET *566 0.00101825
*CONN
*I *2477:A0 I *D sky130_fd_sc_hd__mux2_1
*I *2988:X O *D sky130_fd_sc_hd__dlygate4sd3_1
*CAP
1 *2477:A0 0.000207912
2 *2988:X 0.000207912
3 *2477:A0 *2462:S1 4.82863e-05
4 *2477:A0 *2487:A1 7.89767e-05
5 *2466:A2 *2477:A0 0.00043044
6 *323:120 *2477:A0 2.30292e-05
7 *323:126 *2477:A0 2.16917e-05
*RES
1 *2988:X *2477:A0 12.735 
*END

*D_NET *567 0.00106431
*CONN
*I *2568:A0 I *D sky130_fd_sc_hd__mux2_1
*I *2989:X O *D sky130_fd_sc_hd__dlygate4sd3_1
*CAP
1 *2568:A0 0.000336859
2 *2989:X 0.000336859
3 *2568:A0 *2455:A0 9.23772e-05
4 *2568:A0 *2852:A 0.000248254
5 *2943:A *2568:A0 0
6 *338:44 *2568:A0 4.99619e-05
*RES
1 *2989:X *2568:A0 12.735 
*END

*D_NET *568 0.000363178
*CONN
*I *2584:A0 I *D sky130_fd_sc_hd__mux2_1
*I *2990:X O *D sky130_fd_sc_hd__dlygate4sd3_1
*CAP
1 *2584:A0 8.29746e-05
2 *2990:X 8.29746e-05
3 *2584:A0 *2584:A1 4.99619e-05
4 *2584:S *2584:A0 2.30292e-05
5 *2990:A *2584:A0 4.82919e-05
6 *331:56 *2584:A0 2.59835e-05
7 *345:12 *2584:A0 4.99619e-05
*RES
1 *2990:X *2584:A0 5.03 
*END

*D_NET *569 0.00124019
*CONN
*I *2513:A0 I *D sky130_fd_sc_hd__mux2_1
*I *2992:X O *D sky130_fd_sc_hd__dlygate4sd3_1
*CAP
1 *2513:A0 0.000219808
2 *2992:X 0.000219808
3 *2513:A0 *2439:S0 0.000318473
4 *2439:A1 *2513:A0 0.000229203
5 *2439:A3 *2513:A0 0
6 *2513:S *2513:A0 3.68682e-05
7 *2515:S *2513:A0 2.75707e-05
8 *2992:A *2513:A0 6.38291e-05
9 *342:77 *2513:A0 0.000124632
*RES
1 *2992:X *2513:A0 14.19 
*END

*D_NET *570 0.00029322
*CONN
*I *2505:A1 I *D sky130_fd_sc_hd__mux2_1
*I *2993:X O *D sky130_fd_sc_hd__dlygate4sd3_1
*CAP
1 *2505:A1 8.27986e-05
2 *2993:X 8.27986e-05
3 *2505:A1 *2453:S1 7.01359e-05
4 *2505:A1 *2524:A1 1.08758e-05
5 *2505:A1 *655:10 4.66108e-05
*RES
1 *2993:X *2505:A1 8.52 
*END

*D_NET *571 0.000977818
*CONN
*I *2585:A0 I *D sky130_fd_sc_hd__mux2_1
*I *2994:X O *D sky130_fd_sc_hd__dlygate4sd3_1
*CAP
1 *2585:A0 0.000140813
2 *2994:X 0.000140813
3 *2585:A0 *3030:A 8.3319e-05
4 *2585:S *2585:A0 0.000159329
5 *2854:A *2585:A0 0.000308129
6 *340:100 *2585:A0 0.000116165
7 *340:110 *2585:A0 2.92496e-05
8 *341:59 *2585:A0 0
*RES
1 *2994:X *2585:A0 11.7 
*END

*D_NET *572 0.001485
*CONN
*I *2606:A1 I *D sky130_fd_sc_hd__mux2_1
*I *2995:X O *D sky130_fd_sc_hd__dlygate4sd3_1
*CAP
1 *2606:A1 0.000324148
2 *2995:X 0.000324148
3 *2606:A1 *2606:A0 1.91597e-05
4 *2460:A1 *2606:A1 0.000506001
5 *2460:A3 *2606:A1 4.66108e-05
6 *323:114 *2606:A1 0.000149741
7 *334:41 *2606:A1 6.52265e-05
8 *413:10 *2606:A1 4.99619e-05
*RES
1 *2995:X *2606:A1 14.37 
*END

*D_NET *573 0.00651742
*CONN
*I *2851:A I *D sky130_fd_sc_hd__clkbuf_2
*I *2852:A I *D sky130_fd_sc_hd__buf_1
*I *3010:X O *D sky130_fd_sc_hd__buf_1
*CAP
1 *2851:A 0
2 *2852:A 0.00102778
3 *3010:X 0.0017254
4 *573:12 0.00275318
5 *2852:A *2455:S 0
6 *2852:A *2624:RESET_B 0
7 *2852:A *3033:A 0
8 *2852:A *630:10 0
9 *2852:A *645:18 7.3039e-05
10 *2852:A *659:116 0
11 *573:12 *3033:A 0.000281639
12 *2441:A2 *573:12 2.75707e-05
13 *2515:A0 *2852:A 0
14 *2522:A0 *2852:A 0
15 *2568:A0 *2852:A 0.000248254
16 *2614:S *2852:A 0.000111901
17 *2652:D *2852:A 9.54469e-05
18 *2652:D *573:12 0
19 *2668:D *2852:A 0
20 *2708:D *2852:A 5.20968e-05
21 *2790:CLK *573:12 0
22 *2928:A *2852:A 0.00012111
*RES
1 *3010:X *573:12 27.545 
2 *573:12 *2852:A 23.6 
3 *573:12 *2851:A 1.6 
*END

*D_NET *574 0.000741063
*CONN
*I *2579:A1 I *D sky130_fd_sc_hd__mux2_1
*I *2996:X O *D sky130_fd_sc_hd__dlygate4sd3_1
*CAP
1 *2579:A1 0.000284712
2 *2996:X 0.000284712
3 *2579:A1 *2848:A 0
4 *2579:A1 *641:50 0.000106106
5 *2454:A1 *2579:A1 6.55328e-05
*RES
1 *2996:X *2579:A1 11.445 
*END

*D_NET *575 0.00271608
*CONN
*I *2476:A0 I *D sky130_fd_sc_hd__mux2_1
*I *2997:X O *D sky130_fd_sc_hd__dlygate4sd3_1
*CAP
1 *2476:A0 0.000308868
2 *2997:X 0.000308868
3 *2476:A0 *2458:S0 2.73736e-05
4 *2476:A0 *2486:A1 8.65905e-05
5 *2476:A0 *2606:A0 0
6 *2476:A0 *653:112 4.99619e-05
7 *2476:A0 *654:14 7.21296e-06
8 *2458:A1 *2476:A0 0.000201413
9 *2460:A3 *2476:A0 6.9117e-05
10 *2496:A0 *2476:A0 0.000247567
11 *2647:D *2476:A0 0.000128642
12 *323:102 *2476:A0 0.000404293
13 *325:83 *2476:A0 7.46281e-05
14 *332:42 *2476:A0 0.00080154
*RES
1 *2997:X *2476:A0 19.245 
*END

*D_NET *576 0.00108866
*CONN
*I *2510:A0 I *D sky130_fd_sc_hd__mux2_1
*I *2998:X O *D sky130_fd_sc_hd__dlygate4sd3_1
*CAP
1 *2510:A0 0.000279416
2 *2998:X 0.000279416
3 *2422:A0 *2510:A0 0
4 *2516:S *2510:A0 7.22354e-05
5 *333:12 *2510:A0 9.19143e-05
6 *336:8 *2510:A0 0.000124895
7 *341:103 *2510:A0 0.000240782
*RES
1 *2998:X *2510:A0 12.39 
*END

*D_NET *577 0.00116559
*CONN
*I *2574:A1 I *D sky130_fd_sc_hd__mux2_1
*I *2999:X O *D sky130_fd_sc_hd__dlygate4sd3_1
*CAP
1 *2574:A1 0.00020669
2 *2999:X 0.00020669
3 *2574:A1 *666:93 3.00381e-05
4 *2574:A1 *666:106 2.75145e-05
5 *2419:A0 *2574:A1 8.32626e-05
6 *336:10 *2574:A1 0.000107912
7 *342:67 *2574:A1 0.000455452
8 *439:16 *2574:A1 4.80285e-05
*RES
1 *2999:X *2574:A1 13.455 
*END

*D_NET *578 0.000613386
*CONN
*I *2512:A0 I *D sky130_fd_sc_hd__mux2_1
*I *3000:X O *D sky130_fd_sc_hd__dlygate4sd3_1
*CAP
1 *2512:A0 4.81753e-05
2 *3000:X 4.81753e-05
3 *331:56 *2512:A0 0.000277223
4 *345:20 *2512:A0 0.000239813
*RES
1 *3000:X *2512:A0 5.72 
*END

*D_NET *579 0.000432636
*CONN
*I *2495:A0 I *D sky130_fd_sc_hd__mux2_1
*I *3001:X O *D sky130_fd_sc_hd__dlygate4sd3_1
*CAP
1 *2495:A0 0.000132114
2 *3001:X 0.000132114
3 *2495:A0 *2624:CLK 0
4 *2495:A0 *639:111 2.75538e-05
5 *2495:A0 *641:40 7.06865e-05
6 *2495:S *2495:A0 1.71013e-05
7 *354:26 *2495:A0 5.30673e-05
*RES
1 *3001:X *2495:A0 9.63 
*END

*D_NET *580 0.000379477
*CONN
*I *2601:A1 I *D sky130_fd_sc_hd__mux2_1
*I *2871:X O *D sky130_fd_sc_hd__dlygate4sd3_1
*CAP
1 *2601:A1 0.000109424
2 *2871:X 0.000109424
3 *2601:A1 *670:64 0.00016063
*RES
1 *2871:X *2601:A1 4.685 
*END

*D_NET *581 0.00038829
*CONN
*I *2604:A1 I *D sky130_fd_sc_hd__mux2_1
*I *2872:X O *D sky130_fd_sc_hd__dlygate4sd3_1
*CAP
1 *2604:A1 4.41877e-05
2 *2872:X 4.41877e-05
3 *2604:A1 *633:22 8.49205e-05
4 *2604:A1 *633:34 4.66108e-05
5 *2604:A1 *639:59 1.19928e-05
6 *2637:CLK *2604:A1 0.00015639
*RES
1 *2872:X *2604:A1 4.685 
*END

*D_NET *582 0.000276184
*CONN
*I *2519:A0 I *D sky130_fd_sc_hd__mux2_1
*I *2873:X O *D sky130_fd_sc_hd__dlygate4sd3_1
*CAP
1 *2519:A0 0.000111656
2 *2873:X 0.000111656
3 *2490:A0 *2519:A0 0
4 *2787:CLK *2519:A0 2.67022e-05
5 *327:26 *2519:A0 2.61704e-05
*RES
1 *2873:X *2519:A0 8.865 
*END

*D_NET *583 0.00116904
*CONN
*I *2611:A0 I *D sky130_fd_sc_hd__mux2_1
*I *2874:X O *D sky130_fd_sc_hd__dlygate4sd3_1
*CAP
1 *2611:A0 0.00036367
2 *2874:X 0.00036367
3 *2611:A0 *2539:A1 0.000141599
4 *2611:A0 *662:40 4.89295e-05
5 *2539:A0 *2611:A0 3.86607e-05
6 *2923:A *2611:A0 0.000212515
*RES
1 *2874:X *2611:A0 13.77 
*END

*D_NET *584 0.00513401
*CONN
*I *2850:A I *D sky130_fd_sc_hd__buf_1
*I *2849:A I *D sky130_fd_sc_hd__clkbuf_2
*I *3011:X O *D sky130_fd_sc_hd__buf_1
*CAP
1 *2850:A 0.000863027
2 *2849:A 2.04193e-05
3 *3011:X 0.000634053
4 *584:10 0.0015175
5 *2849:A *657:8 4.82863e-05
6 *2850:A *2578:A1 1.15688e-05
7 *2850:A *637:90 4.66108e-05
8 *2850:A *657:32 0
9 *2850:A *657:60 7.44453e-05
10 *2850:A *657:71 0.000187416
11 *2850:A *657:82 9.68865e-05
12 *2850:A *658:10 2.49909e-05
13 *2447:A0 *2850:A 0
14 *2448:A1 *2850:A 0.000258571
15 *2578:S *2850:A 0.000683229
16 *2685:D *2850:A 0.000139933
17 *2896:A *2850:A 0
18 *2896:A *584:10 0
19 *338:32 *2850:A 0.000527074
*RES
1 *3011:X *584:10 11.115 
2 *584:10 *2849:A 4.05 
3 *584:10 *2850:A 26.085 
*END

*D_NET *585 0.0017558
*CONN
*I *2547:A1 I *D sky130_fd_sc_hd__mux2_1
*I *2875:X O *D sky130_fd_sc_hd__dlygate4sd3_1
*CAP
1 *2547:A1 0.000565493
2 *2875:X 0.000565493
3 *2547:A1 *633:123 0
4 *2547:A1 *666:69 0.000147098
5 *2547:A1 *666:86 0.000163199
6 *2547:A1 *670:80 1.92979e-05
7 *2870:A *2547:A1 5.05716e-06
8 *2875:A *2547:A1 0.000271303
9 *336:65 *2547:A1 1.88602e-05
10 *340:63 *2547:A1 0
*RES
1 *2875:X *2547:A1 13.2439 
*END

*D_NET *586 0.000443455
*CONN
*I *2569:A0 I *D sky130_fd_sc_hd__mux2_1
*I *2876:X O *D sky130_fd_sc_hd__dlygate4sd3_1
*CAP
1 *2569:A0 0.000140963
2 *2876:X 0.000140963
3 *2569:A0 *2569:A1 0.000161529
*RES
1 *2876:X *2569:A0 5.03 
*END

*D_NET *587 0.00139927
*CONN
*I *2500:A1 I *D sky130_fd_sc_hd__mux2_1
*I *2877:X O *D sky130_fd_sc_hd__dlygate4sd3_1
*CAP
1 *2500:A1 0.000331008
2 *2877:X 0.000331008
3 *2500:A1 *667:24 0.000191967
4 *2500:A1 *667:30 2.75145e-05
5 *2421:A2 *2500:A1 8.65961e-05
6 *2423:A1 *2500:A1 0
7 *2873:A *2500:A1 0.000176883
8 *332:12 *2500:A1 0.000131966
9 *332:18 *2500:A1 0.000122331
*RES
1 *2877:X *2500:A1 15.18 
*END

*D_NET *588 0.000727208
*CONN
*I *2481:A0 I *D sky130_fd_sc_hd__mux2_1
*I *2878:X O *D sky130_fd_sc_hd__dlygate4sd3_1
*CAP
1 *2481:A0 0.000191553
2 *2878:X 0.000191553
3 *2481:A0 *670:64 0.000231423
4 *323:20 *2481:A0 3.86529e-05
5 *333:46 *2481:A0 7.4027e-05
*RES
1 *2878:X *2481:A0 10.245 
*END

*D_NET *589 0.00108001
*CONN
*I *2472:A0 I *D sky130_fd_sc_hd__mux2_1
*I *2879:X O *D sky130_fd_sc_hd__dlygate4sd3_1
*CAP
1 *2472:A0 0.000223148
2 *2879:X 0.000223148
3 *2436:A1 *2472:A0 0.000238919
4 *323:120 *2472:A0 0.000140844
5 *356:24 *2472:A0 0.000253949
*RES
1 *2879:X *2472:A0 12.285 
*END

*D_NET *590 0.000200748
*CONN
*I *2605:A1 I *D sky130_fd_sc_hd__mux2_1
*I *2880:X O *D sky130_fd_sc_hd__dlygate4sd3_1
*CAP
1 *2605:A1 6.60089e-05
2 *2880:X 6.60089e-05
3 *2605:A1 *2605:S 9.50342e-06
4 *2454:A1 *2605:A1 5.92269e-05
*RES
1 *2880:X *2605:A1 8.58 
*END

*D_NET *591 0.000344554
*CONN
*I *2577:A1 I *D sky130_fd_sc_hd__mux2_1
*I *2882:X O *D sky130_fd_sc_hd__dlygate4sd3_1
*CAP
1 *2577:A1 0.00011049
2 *2882:X 0.00011049
3 *2577:A1 *641:143 3.86529e-05
4 *2577:A1 *659:116 0
5 *2439:A2 *2577:A1 8.49205e-05
*RES
1 *2882:X *2577:A1 8.865 
*END

*D_NET *592 0.00041237
*CONN
*I *2581:A1 I *D sky130_fd_sc_hd__mux2_1
*I *2883:X O *D sky130_fd_sc_hd__dlygate4sd3_1
*CAP
1 *2581:A1 0.000128716
2 *2883:X 0.000128716
3 *2581:A1 *2463:S1 0
4 *2581:A1 *2581:A0 3.00381e-05
5 *2581:A1 *645:72 0.0001249
6 *2475:S *2581:A1 0
*RES
1 *2883:X *2581:A1 9.72 
*END

*D_NET *593 0.000380563
*CONN
*I *2521:A0 I *D sky130_fd_sc_hd__mux2_1
*I *2884:X O *D sky130_fd_sc_hd__dlygate4sd3_1
*CAP
1 *2521:A0 0.000144031
2 *2884:X 0.000144031
3 *2521:A0 *662:40 3.99879e-05
4 *2521:S *2521:A0 2.75229e-05
5 *332:52 *2521:A0 2.49909e-05
*RES
1 *2884:X *2521:A0 5.03 
*END

*D_NET *594 0.000206231
*CONN
*I *2549:A1 I *D sky130_fd_sc_hd__mux2_1
*I *2885:X O *D sky130_fd_sc_hd__dlygate4sd3_1
*CAP
1 *2549:A1 9.29466e-05
2 *2885:X 9.29466e-05
3 *2549:A1 *2549:A0 7.00889e-06
4 *2549:S *2549:A1 1.33293e-05
5 *329:48 *2549:A1 0
6 *332:52 *2549:A1 0
*RES
1 *2885:X *2549:A1 8.52 
*END

*D_NET *595 0.00566069
*CONN
*I *2848:A I *D sky130_fd_sc_hd__buf_1
*I *2847:A I *D sky130_fd_sc_hd__clkbuf_2
*I *3012:X O *D sky130_fd_sc_hd__buf_1
*CAP
1 *2848:A 0.000587036
2 *2847:A 0
3 *3012:X 0.00113551
4 *595:12 0.00172254
5 *2848:A *2579:A0 0.000111439
6 *2848:A *655:62 0
7 *595:12 *2542:A1 0.000149151
8 *595:12 *655:38 5.43042e-05
9 *2453:A3 *595:12 0.000112123
10 *2454:A1 *2848:A 0.0004262
11 *2579:A1 *2848:A 0
12 *2718:D *2848:A 0.000141606
13 *2971:A *2848:A 0.000424525
14 *2993:A *595:12 6.21553e-05
15 *334:80 *595:12 0.000734097
*RES
1 *3012:X *595:12 24.125 
2 *595:12 *2847:A 1.6 
3 *595:12 *2848:A 18.77 
*END

*D_NET *596 0.00148286
*CONN
*I *2578:A1 I *D sky130_fd_sc_hd__mux2_1
*I *2886:X O *D sky130_fd_sc_hd__dlygate4sd3_1
*CAP
1 *2578:A1 0.000293743
2 *2886:X 0.000293743
3 *2578:A1 *678:12 0.00023468
4 *2448:A1 *2578:A1 0.000310424
5 *2578:S *2578:A1 0.000290677
6 *2850:A *2578:A1 1.15688e-05
7 *435:6 *2578:A1 4.80285e-05
*RES
1 *2886:X *2578:A1 13.845 
*END

*D_NET *597 0.000511119
*CONN
*I *2576:A1 I *D sky130_fd_sc_hd__mux2_1
*I *2887:X O *D sky130_fd_sc_hd__dlygate4sd3_1
*CAP
1 *2576:A1 6.6712e-05
2 *2887:X 6.6712e-05
3 *2576:A1 *2576:A0 2.67275e-05
4 *2433:A3 *2576:A1 0.000119756
5 *2576:S *2576:A1 0.000231211
*RES
1 *2887:X *2576:A1 5.375 
*END

*D_NET *598 0.000536798
*CONN
*I *2616:A0 I *D sky130_fd_sc_hd__mux2_1
*I *2888:X O *D sky130_fd_sc_hd__dlygate4sd3_1
*CAP
1 *2616:A0 0.000116943
2 *2888:X 0.000116943
3 *2616:A0 *2462:S0 1.31227e-05
4 *2616:A0 *2616:A1 2.43962e-05
5 *2616:A0 *651:44 4.63425e-05
6 *2588:S *2616:A0 0.000134379
7 *2616:S *2616:A0 8.46717e-05
*RES
1 *2888:X *2616:A0 9.975 
*END

*D_NET *599 0.000892072
*CONN
*I *2514:A0 I *D sky130_fd_sc_hd__mux2_1
*I *2889:X O *D sky130_fd_sc_hd__dlygate4sd3_1
*CAP
1 *2514:A0 0.000317435
2 *2889:X 0.000317435
3 *2514:A0 *2514:A1 4.99619e-05
4 *2514:S *2514:A0 4.66108e-05
5 *331:102 *2514:A0 0
6 *331:110 *2514:A0 0.00016063
*RES
1 *2889:X *2514:A0 12.735 
*END

*D_NET *600 0.000794503
*CONN
*I *2552:A1 I *D sky130_fd_sc_hd__mux2_1
*I *2890:X O *D sky130_fd_sc_hd__dlygate4sd3_1
*CAP
1 *2552:A1 0.000223298
2 *2890:X 0.000223298
3 *2552:A1 *2465:S1 7.23602e-05
4 *2552:S *2552:A1 0
5 *346:33 *2552:A1 0.000275548
*RES
1 *2890:X *2552:A1 10.59 
*END

*D_NET *601 0.000508927
*CONN
*I *2503:A1 I *D sky130_fd_sc_hd__mux2_1
*I *2891:X O *D sky130_fd_sc_hd__dlygate4sd3_1
*CAP
1 *2503:A1 9.54549e-05
2 *2891:X 9.54549e-05
3 *2503:A1 *3033:A 0.000117832
4 *2503:S *2503:A1 0.000116158
5 *2505:S *2503:A1 4.66108e-05
6 *329:111 *2503:A1 3.74161e-05
*RES
1 *2891:X *2503:A1 9.375 
*END

*D_NET *602 0.000429398
*CONN
*I *2506:A1 I *D sky130_fd_sc_hd__mux2_1
*I *2893:X O *D sky130_fd_sc_hd__dlygate4sd3_1
*CAP
1 *2506:A1 0.000162202
2 *2893:X 0.000162202
3 *2506:A1 *653:25 0
4 *2506:S *2506:A1 6.28765e-05
5 *329:38 *2506:A1 1.4399e-05
6 *329:48 *2506:A1 2.77183e-05
*RES
1 *2893:X *2506:A1 9.72 
*END

*D_NET *603 0.00131899
*CONN
*I *2602:A1 I *D sky130_fd_sc_hd__mux2_1
*I *2894:X O *D sky130_fd_sc_hd__dlygate4sd3_1
*CAP
1 *2602:A1 0.00023227
2 *2894:X 0.00023227
3 *2602:A1 *2457:S1 9.68787e-05
4 *2434:A0 *2602:A1 1.01661e-05
5 *2635:D *2602:A1 0.000314445
6 *2879:A *2602:A1 0.000245199
7 *2894:A *2602:A1 0
8 *325:93 *2602:A1 0
9 *409:8 *2602:A1 0.000187766
*RES
1 *2894:X *2602:A1 14.19 
*END

*D_NET *604 0.000499655
*CONN
*I *2600:A1 I *D sky130_fd_sc_hd__mux2_1
*I *2895:X O *D sky130_fd_sc_hd__dlygate4sd3_1
*CAP
1 *2600:A1 0.000133716
2 *2895:X 0.000133716
3 *2600:A1 *2600:A0 5.33085e-05
4 *2600:A1 *2619:RESET_B 1.08194e-05
5 *2600:A1 *633:123 6.17113e-06
6 *2600:A1 *633:129 5.53249e-06
7 *334:41 *2600:A1 0.00015639
*RES
1 *2895:X *2600:A1 9.3 
*END

*D_NET *605 0.000276669
*CONN
*I *2504:A1 I *D sky130_fd_sc_hd__mux2_1
*I *2896:X O *D sky130_fd_sc_hd__dlygate4sd3_1
*CAP
1 *2504:A1 7.91874e-05
2 *2896:X 7.91874e-05
3 *2504:A1 *2504:A0 0.000118294
*RES
1 *2896:X *2504:A1 5.03 
*END

*D_NET *606 0.00170168
*CONN
*I *2358:B1 I *D sky130_fd_sc_hd__o21a_1
*I *2357:A I *D sky130_fd_sc_hd__or3_1
*I *3013:X O *D sky130_fd_sc_hd__clkbuf_1
*CAP
1 *2358:B1 4.99332e-05
2 *2357:A 8.47334e-05
3 *3013:X 0.000399379
4 *606:6 0.000534046
5 *2357:B *2357:A 0
6 *2357:C *2357:A 4.61658e-05
7 *2360:A1 *606:6 0.000323033
8 *2360:A2 *606:6 0.000200615
9 *2360:A3 *2358:B1 4.99619e-05
10 *2360:A3 *606:6 9.80943e-06
11 *2360:B1 *2357:A 0
12 *239:8 *2358:B1 4.00541e-06
*RES
1 *3013:X *606:6 8.95 
2 *606:6 *2357:A 7.235 
3 *606:6 *2358:B1 2.665 
*END

*D_NET *607 0.00679044
*CONN
*I *2845:A I *D sky130_fd_sc_hd__clkbuf_2
*I *2846:A I *D sky130_fd_sc_hd__buf_1
*I *3014:X O *D sky130_fd_sc_hd__buf_1
*CAP
1 *2845:A 0
2 *2846:A 0.00183201
3 *3014:X 0.000747479
4 *607:10 0.00257949
5 *2846:A *2459:S1 0.000283844
6 *2846:A *2606:A0 0.000573308
7 *2846:A *653:19 0
8 *2846:A *654:14 4.67945e-05
9 *607:10 *653:19 0
10 *2459:A0 *2846:A 5.25333e-06
11 *2459:A1 *607:10 0
12 *2459:A2 *2846:A 0.00049217
13 *2460:A1 *2846:A 3.79854e-05
14 *2460:A3 *2846:A 2.19562e-06
15 *2525:A0 *607:10 2.67022e-05
16 *2949:A *607:10 0
17 *2978:A *2846:A 0
18 *2978:A *607:10 0
19 *381:6 *2846:A 0.000163199
*RES
1 *3014:X *607:10 12.99 
2 *607:10 *2846:A 27.945 
3 *607:10 *2845:A 3.6 
*END

*D_NET *608 0.00124265
*CONN
*I *2575:A1 I *D sky130_fd_sc_hd__mux2_1
*I *2897:X O *D sky130_fd_sc_hd__dlygate4sd3_1
*CAP
1 *2575:A1 0.00031851
2 *2897:X 0.00031851
3 *2575:A1 *2511:A1 7.00889e-06
4 *2575:A1 *2566:A0 1.93583e-05
5 *2575:A1 *2575:A0 3.36322e-05
6 *2575:A1 *665:12 1.16465e-05
7 *2575:A1 *665:46 0.000109859
8 *2958:A *2575:A1 2.68798e-05
9 *327:103 *2575:A1 0.000325309
10 *331:56 *2575:A1 3.24942e-05
11 *331:94 *2575:A1 3.94429e-05
*RES
1 *2897:X *2575:A1 14.22 
*END

*D_NET *609 0.00035363
*CONN
*I *2501:A1 I *D sky130_fd_sc_hd__mux2_1
*I *2898:X O *D sky130_fd_sc_hd__dlygate4sd3_1
*CAP
1 *2501:A1 8.89767e-05
2 *2898:X 8.89767e-05
3 *2957:A *2501:A1 0.000115464
4 *336:10 *2501:A1 6.02123e-05
*RES
1 *2898:X *2501:A1 9.03 
*END

*D_NET *610 0.000233995
*CONN
*I *2554:A1 I *D sky130_fd_sc_hd__mux2_1
*I *2899:X O *D sky130_fd_sc_hd__dlygate4sd3_1
*CAP
1 *2554:A1 6.91567e-05
2 *2899:X 6.91567e-05
3 *2507:S *2554:A1 3.86529e-05
4 *2899:A *2554:A1 3.86529e-05
5 *336:81 *2554:A1 1.83756e-05
*RES
1 *2899:X *2554:A1 8.52 
*END

*D_NET *611 0.0010921
*CONN
*I *2592:A0 I *D sky130_fd_sc_hd__mux2_1
*I *2900:X O *D sky130_fd_sc_hd__dlygate4sd3_1
*CAP
1 *2592:A0 0.000398131
2 *2900:X 0.000398131
3 *2592:A0 *643:126 0.000138544
4 *2592:A0 *666:86 6.52819e-05
5 *2520:S *2592:A0 0
6 *2722:D *2592:A0 9.20132e-05
7 *359:66 *2592:A0 0
*RES
1 *2900:X *2592:A0 17.935 
*END

*D_NET *612 0.000320435
*CONN
*I *2607:A1 I *D sky130_fd_sc_hd__mux2_1
*I *2901:X O *D sky130_fd_sc_hd__dlygate4sd3_1
*CAP
1 *2607:A1 0.000131259
2 *2901:X 0.000131259
3 *2607:A1 *2607:A0 0
4 *2607:A1 *2607:S 6.60261e-06
5 *341:59 *2607:A1 5.13155e-05
*RES
1 *2901:X *2607:A1 9.12 
*END

*D_NET *613 0.000956543
*CONN
*I *2551:A1 I *D sky130_fd_sc_hd__mux2_1
*I *2902:X O *D sky130_fd_sc_hd__dlygate4sd3_1
*CAP
1 *2551:A1 0.00026122
2 *2902:X 0.00026122
3 *2551:S *2551:A1 3.00381e-05
4 *2587:S *2551:A1 4.99619e-05
5 *2726:CLK *2551:A1 0.00013994
6 *340:24 *2551:A1 2.16306e-05
7 *341:105 *2551:A1 0.00010727
8 *348:38 *2551:A1 4.66108e-05
9 *459:10 *2551:A1 3.86529e-05
*RES
1 *2902:X *2551:A1 12.645 
*END

*D_NET *614 0.000578361
*CONN
*I *2502:A1 I *D sky130_fd_sc_hd__mux2_1
*I *2904:X O *D sky130_fd_sc_hd__dlygate4sd3_1
*CAP
1 *2502:A1 0.000182548
2 *2904:X 0.000182548
3 *2502:A1 *2502:A0 3.64998e-06
4 *2507:S *2502:A1 9.53428e-06
5 *329:48 *2502:A1 0.000200081
6 *332:70 *2502:A1 0
*RES
1 *2904:X *2502:A1 10.515 
*END

*D_NET *615 0.000229688
*CONN
*I *2553:A1 I *D sky130_fd_sc_hd__mux2_1
*I *2905:X O *D sky130_fd_sc_hd__dlygate4sd3_1
*CAP
1 *2553:A1 6.55884e-05
2 *2905:X 6.55884e-05
3 *2553:S *2553:A1 4.99619e-05
4 *336:65 *2553:A1 4.85494e-05
*RES
1 *2905:X *2553:A1 4.685 
*END

*D_NET *616 0.000599572
*CONN
*I *2507:A1 I *D sky130_fd_sc_hd__mux2_1
*I *2906:X O *D sky130_fd_sc_hd__dlygate4sd3_1
*CAP
1 *2507:A1 0.000149899
2 *2906:X 0.000149899
3 *2507:A1 *651:71 0.00011852
4 *2906:A *2507:A1 6.27347e-05
5 *332:70 *2507:A1 0.00011852
*RES
1 *2906:X *2507:A1 10.065 
*END

*D_NET *617 0.00162728
*CONN
*I *2587:A0 I *D sky130_fd_sc_hd__mux2_1
*I *2907:X O *D sky130_fd_sc_hd__dlygate4sd3_1
*CAP
1 *2587:A0 0.000407899
2 *2907:X 0.000407899
3 *2587:A0 *647:67 9.62357e-05
4 *2587:A0 *658:10 0.000419392
5 *2587:A0 *658:51 4.82919e-05
6 *2578:S *2587:A0 0.000247567
*RES
1 *2907:X *2587:A0 14.355 
*END

*D_NET *618 0.00498125
*CONN
*I *2844:A I *D sky130_fd_sc_hd__buf_1
*I *2843:A I *D sky130_fd_sc_hd__clkbuf_2
*I *3015:X O *D sky130_fd_sc_hd__buf_1
*CAP
1 *2844:A 0.00128824
2 *2843:A 0
3 *3015:X 0.000495101
4 *618:14 0.00178335
5 *2844:A *651:21 0.000246682
6 *2599:S *2844:A 6.27438e-05
7 *2704:CLK *618:14 0
8 *2704:D *618:14 0.000141599
9 *2754:CLK *2844:A 0.000204793
10 *2754:D *2844:A 0.000147305
11 *2786:D *2844:A 1.43717e-05
12 *2934:A *2844:A 8.70256e-05
13 *336:81 *618:14 0.000163019
14 *422:10 *2844:A 8.8266e-05
15 *454:6 *2844:A 0.000162149
16 *470:8 *2844:A 2.05056e-05
17 *470:8 *618:14 7.60965e-05
*RES
1 *3015:X *618:14 13.91 
2 *618:14 *2843:A 1.6 
3 *618:14 *2844:A 23.26 
*END

*D_NET *619 0.000404317
*CONN
*I *2364:B I *D sky130_fd_sc_hd__and2b_1
*I *3016:X O *D sky130_fd_sc_hd__clkbuf_1
*CAP
1 *2364:B 0.000176882
2 *3016:X 0.000176882
3 *2364:B *3027:A 0
4 *2364:B *623:10 0
5 *3016:A *2364:B 5.05521e-05
*RES
1 *3016:X *2364:B 9.885 
*END

*D_NET *620 0.000640898
*CONN
*I *3024:A I *D sky130_fd_sc_hd__buf_2
*I *2730:Q O *D sky130_fd_sc_hd__dfstp_1
*CAP
1 *3024:A 0.000146517
2 *2730:Q 0.000146517
3 *3024:A *649:14 0.000164679
4 aempty *3024:A 7.4538e-05
5 *3019:A *3024:A 0.000108647
*RES
1 *2730:Q *3024:A 10.8975 
*END

*D_NET *621 0.000360463
*CONN
*I *3025:A I *D sky130_fd_sc_hd__buf_2
*I *2741:Q O *D sky130_fd_sc_hd__dfrtp_1
*CAP
1 *3025:A 0.000163596
2 *2741:Q 0.000163596
3 afull *3025:A 3.32709e-05
4 *2293:A *3025:A 0
*RES
1 *2741:Q *3025:A 9.63 
*END

*D_NET *622 0.00179453
*CONN
*I *2390:A_N I *D sky130_fd_sc_hd__and2b_2
*I *3026:A I *D sky130_fd_sc_hd__buf_2
*I *2721:Q O *D sky130_fd_sc_hd__dfstp_1
*CAP
1 *2390:A_N 0
2 *3026:A 0.000371489
3 *2721:Q 0.000110818
4 *622:12 0.000482307
5 *3026:A *2431:A0 0.000347023
6 *622:12 *625:10 5.38986e-06
7 rd_data[1] *622:12 8.17606e-05
8 *2390:B *622:12 7.5431e-05
9 *2618:D *3026:A 4.99619e-05
10 *518:25 *622:12 0.000270353
*RES
1 *2721:Q *622:12 9.0425 
2 *622:12 *3026:A 7.585 
3 *622:12 *2390:A_N 1.6 
*END

*D_NET *623 0.000909383
*CONN
*I *3027:A I *D sky130_fd_sc_hd__buf_2
*I *2364:A_N I *D sky130_fd_sc_hd__and2b_1
*I *2740:Q O *D sky130_fd_sc_hd__dfrtp_1
*CAP
1 *3027:A 0.000100468
2 *2364:A_N 0.00016045
3 *2740:Q 0.000178416
4 *623:10 0.000439334
5 *623:10 *2740:RESET_B 3.07153e-05
6 *2364:B *3027:A 0
7 *2364:B *623:10 0
*RES
1 *2740:Q *623:10 6.285 
2 *623:10 *2364:A_N 5.775 
3 *623:10 *3027:A 5.235 
*END

*D_NET *624 0.00134756
*CONN
*I *3028:A I *D sky130_fd_sc_hd__buf_2
*I *2423:A0 I *D sky130_fd_sc_hd__mux2_1
*I *2617:Q O *D sky130_fd_sc_hd__dfrtp_1
*CAP
1 *3028:A 0.000235182
2 *2423:A0 0.000149643
3 *2617:Q 6.04047e-05
4 *624:8 0.000445229
5 *2423:A0 *677:73 3.24046e-05
6 *3028:A *677:73 4.65643e-05
7 *624:8 *2617:RESET_B 5.05521e-05
8 *2617:D *2423:A0 0
9 *2857:A *2423:A0 4.99619e-05
10 *3007:A *3028:A 0
11 *540:10 *2423:A0 0.000100057
12 *540:10 *3028:A 0.000177564
*RES
1 *2617:Q *624:8 4.395 
2 *624:8 *2423:A0 6.96 
3 *624:8 *3028:A 9.06 
*END

*D_NET *625 0.00151424
*CONN
*I *2431:A0 I *D sky130_fd_sc_hd__mux2_1
*I *3029:A I *D sky130_fd_sc_hd__buf_2
*I *2618:Q O *D sky130_fd_sc_hd__dfrtp_1
*CAP
1 *2431:A0 0.000117252
2 *3029:A 0.000127444
3 *2618:Q 8.09395e-05
4 *625:10 0.000325635
5 *2431:A0 *2431:S 4.80285e-05
6 *3029:A *2867:A 0
7 rd_data[1] *3029:A 0.00013882
8 rd_data[1] *625:10 0.000104132
9 *2390:B *3029:A 5.39961e-05
10 *2390:B *625:10 0.000107634
11 *3026:A *2431:A0 0.000347023
12 *264:10 *2431:A0 3.03775e-05
13 *518:25 *3029:A 2.75718e-05
14 *622:12 *625:10 5.38986e-06
*RES
1 *2618:Q *625:10 5.43 
2 *625:10 *3029:A 6.45 
3 *625:10 *2431:A0 6.81 
*END

*D_NET *626 0.00847959
*CONN
*I *2437:A0 I *D sky130_fd_sc_hd__mux2_1
*I *3030:A I *D sky130_fd_sc_hd__buf_2
*I *2619:Q O *D sky130_fd_sc_hd__dfrtp_1
*CAP
1 *2437:A0 0.000432895
2 *3030:A 0.00217811
3 *2619:Q 0
4 *626:4 0.00261101
5 *2437:A0 *633:129 0
6 *2437:A0 *643:31 6.59893e-05
7 *3030:A *2436:S1 8.49205e-05
8 *3030:A *2460:S1 0.000189291
9 *3030:A *2472:A1 4.82919e-05
10 *3030:A *639:124 1.52184e-05
11 *3030:A *663:10 1.1561e-05
12 *2434:A0 *3030:A 5.21706e-05
13 *2436:A0 *3030:A 4.80285e-05
14 *2436:A2 *3030:A 0.00030448
15 *2585:A0 *3030:A 8.3319e-05
16 *2585:S *3030:A 0.000159329
17 *2619:D *2437:A0 0.000162311
18 *2627:D *3030:A 8.49205e-05
19 *2635:CLK *3030:A 0.000106246
20 *2635:D *3030:A 5.59371e-05
21 *2643:CLK *2437:A0 0.000174409
22 *2724:D *3030:A 8.696e-05
23 *2854:A *3030:A 0.000527965
24 *3009:A *3030:A 3.06427e-05
25 *327:53 *3030:A 0.000192125
26 *327:65 *3030:A 0.000337531
27 *338:109 *2437:A0 0.000164679
28 *356:20 *3030:A 6.71882e-05
29 *401:8 *3030:A 1.33293e-05
30 *562:10 *3030:A 0.000190732
*RES
1 *2619:Q *626:4 1.6 
2 *626:4 *3030:A 44.66 
3 *626:4 *2437:A0 13.34 
*END

*D_NET *627 0.0010111
*CONN
*I *2354:A I *D sky130_fd_sc_hd__or3_1
*I *2355:B1 I *D sky130_fd_sc_hd__o21a_1
*I *3017:X O *D sky130_fd_sc_hd__clkbuf_1
*CAP
1 *2354:A 0
2 *2355:B1 0.000144495
3 *3017:X 0.000274289
4 *627:8 0.000418784
5 *2353:A *2355:B1 0
6 *2354:B *627:8 9.53428e-06
7 *2354:C *2355:B1 5.43807e-05
8 *2355:A1 *2355:B1 8.65905e-05
9 *236:6 *2355:B1 2.30292e-05
*RES
1 *3017:X *627:8 5.515 
2 *627:8 *2355:B1 4.405 
3 *627:8 *2354:A 1.6 
*END

*D_NET *628 0.00467323
*CONN
*I *2443:A0 I *D sky130_fd_sc_hd__mux2_1
*I *3031:A I *D sky130_fd_sc_hd__buf_2
*I *2620:Q O *D sky130_fd_sc_hd__dfrtp_1
*CAP
1 *2443:A0 0.000510898
2 *3031:A 0.00119874
3 *2620:Q 0.000104695
4 *628:8 0.00181433
5 *2443:A0 *2551:A0 7.58604e-05
6 *2443:A0 *2596:A1 0
7 *628:8 *678:12 0.000163199
8 *2523:A0 *3031:A 0.000125874
9 *2533:S *3031:A 0
10 *2560:S *2443:A0 0.000541107
11 *2596:S *2443:A0 0
12 *2653:D *3031:A 0
13 *2669:D *3031:A 0
14 *2701:D *2443:A0 3.26909e-05
15 *2709:D *3031:A 0
16 *2751:D *2443:A0 0
17 *2791:CLK *3031:A 0.000105841
18 *2791:D *3031:A 0
19 *2952:A *3031:A 0
20 *3011:A *3031:A 0
21 *347:34 *2443:A0 0
*RES
1 *2620:Q *628:8 5.085 
2 *628:8 *3031:A 23.595 
3 *628:8 *2443:A0 12.975 
*END

*D_NET *629 0.00558612
*CONN
*I *3032:A I *D sky130_fd_sc_hd__buf_2
*I *2449:A0 I *D sky130_fd_sc_hd__mux2_1
*I *2621:Q O *D sky130_fd_sc_hd__dfrtp_1
*CAP
1 *3032:A 0.00119244
2 *2449:A0 0.000799559
3 *2621:Q 0
4 *629:4 0.001992
5 *2449:A0 *2449:S 0
6 *2449:A0 *648:20 2.84703e-05
7 *3032:A *2338:A 5.30673e-05
8 *3032:A *648:20 0.000219015
9 *3032:A *678:10 0.000406764
10 *2361:A1 *3032:A 2.75145e-05
11 *2361:A2 *3032:A 0.000199833
12 *2361:B1 *3032:A 0.000331634
13 *2362:B2 *3032:A 0
14 *2621:D *2449:A0 0.000172629
15 *221:14 *3032:A 0.000163199
*RES
1 *2621:Q *629:4 1.6 
2 *629:4 *2449:A0 11.2 
3 *629:4 *3032:A 28.01 
*END

*D_NET *630 0.0040949
*CONN
*I *2455:A0 I *D sky130_fd_sc_hd__mux2_1
*I *3033:A I *D sky130_fd_sc_hd__buf_2
*I *2622:Q O *D sky130_fd_sc_hd__dfrtp_1
*CAP
1 *2455:A0 0.000213745
2 *3033:A 0.00108937
3 *2622:Q 0.000120012
4 *630:10 0.00142312
5 *2455:A0 *2455:S 4.82919e-05
6 *3033:A *2540:A1 0.000337531
7 *3033:A *659:29 8.18852e-05
8 *3033:A *659:58 0
9 *3033:A *659:84 0
10 *3033:A *659:95 0
11 *3033:A *659:116 0
12 *630:10 *659:116 0
13 *630:10 *678:26 4.82919e-05
14 rd_data[5] *3033:A 2.75229e-05
15 *2441:A2 *3033:A 0
16 *2455:A1 *2455:A0 2.75145e-05
17 *2503:A1 *3033:A 0.000117832
18 *2503:S *3033:A 1.1561e-05
19 *2568:A0 *2455:A0 9.23772e-05
20 *2708:D *3033:A 3.68682e-05
21 *2716:D *3033:A 6.14689e-05
22 *2790:D *3033:A 0
23 *2852:A *3033:A 0
24 *2852:A *630:10 0
25 *2928:A *3033:A 7.58668e-05
26 *573:12 *3033:A 0.000281639
*RES
1 *2622:Q *630:10 5.43 
2 *630:10 *3033:A 25.395 
3 *630:10 *2455:A0 7.5 
*END

*D_NET *631 0.00167641
*CONN
*I *3034:A I *D sky130_fd_sc_hd__buf_2
*I *2461:A0 I *D sky130_fd_sc_hd__mux2_1
*I *2623:Q O *D sky130_fd_sc_hd__dfrtp_1
*CAP
1 *3034:A 0.000372751
2 *2461:A0 0.000308828
3 *2623:Q 4.03419e-05
4 *631:6 0.000721921
5 *2461:A0 *2617:CLK 0.000145184
6 *3034:A *677:73 7.83873e-05
7 *631:6 *677:73 8.99732e-06
*RES
1 *2623:Q *631:6 2.05 
2 *631:6 *2461:A0 9.92 
3 *631:6 *3034:A 11.195 
*END

*D_NET *632 0.0074215
*CONN
*I *2467:A0 I *D sky130_fd_sc_hd__mux2_1
*I *3035:A I *D sky130_fd_sc_hd__buf_2
*I *2624:Q O *D sky130_fd_sc_hd__dfrtp_1
*CAP
1 *2467:A0 0
2 *3035:A 0.00224675
3 *2624:Q 0.000279532
4 *632:14 0.00252628
5 *3035:A *651:29 2.39856e-05
6 *632:14 *2467:S 4.82863e-05
7 *632:14 *2473:A1 8.23457e-05
8 *632:14 *2624:RESET_B 0.000124402
9 *2473:A0 *632:14 6.58423e-05
10 *2473:S *3035:A 0.000684934
11 *2517:S *632:14 0.000185405
12 *2552:S *3035:A 0.000119756
13 *2590:A0 *3035:A 6.32041e-05
14 *2590:S *3035:A 0.000194898
15 *2624:D *3035:A 2.11084e-05
16 *2664:CLK *3035:A 0.000139487
17 *2664:D *3035:A 2.90223e-05
18 *2729:D *3035:A 0.000199498
19 *336:81 *3035:A 0.00023468
20 *353:95 *3035:A 2.49909e-05
21 *353:102 *3035:A 0.000118553
22 *410:12 *632:14 8.53113e-06
*RES
1 *2624:Q *632:14 11.75 
2 *632:14 *3035:A 36.19 
3 *632:14 *2467:A0 1.6 
*END

*D_NET *633 0.0393584
*CONN
*I *2414:B I *D sky130_fd_sc_hd__and2b_1
*I *2386:B I *D sky130_fd_sc_hd__xnor2_1
*I *2600:S I *D sky130_fd_sc_hd__mux2_1
*I *2602:S I *D sky130_fd_sc_hd__mux2_1
*I *2607:S I *D sky130_fd_sc_hd__mux2_1
*I *2415:B I *D sky130_fd_sc_hd__xnor2_1
*I *2601:S I *D sky130_fd_sc_hd__mux2_1
*I *2604:S I *D sky130_fd_sc_hd__mux2_1
*I *2603:S I *D sky130_fd_sc_hd__mux2_1
*I *2605:S I *D sky130_fd_sc_hd__mux2_1
*I *2827:X O *D sky130_fd_sc_hd__buf_4
*CAP
1 *2414:B 0
2 *2386:B 7.97456e-05
3 *2600:S 0
4 *2602:S 0
5 *2607:S 0.000809504
6 *2415:B 2.56208e-05
7 *2601:S 0.00052134
8 *2604:S 0
9 *2603:S 0
10 *2605:S 0.00169253
11 *2827:X 0
12 *633:129 0.00250946
13 *633:123 0.00476631
14 *633:99 0.00337469
15 *633:93 0.00037835
16 *633:34 0.00377763
17 *633:22 0.00331512
18 *633:14 0.0025288
19 *633:8 0.00111806
20 *633:6 0.000464766
21 *2386:B *2755:D 0
22 *2386:B *677:31 0.000114492
23 *2601:S *2601:A0 0.000576418
24 *2601:S *670:64 7.03516e-05
25 *2605:S *2624:RESET_B 0
26 *2605:S *634:98 0.000221386
27 *2605:S *645:30 0.000268745
28 *2605:S *659:116 0.000917447
29 *2605:S *661:60 0.000250158
30 *2607:S *2457:S1 0
31 *2607:S *2464:S1 0
32 *2607:S *2487:A1 0.00011852
33 *2607:S *2607:A0 5.35969e-06
34 *2607:S *2839:A 9.92583e-05
35 *633:8 *2415:A 0
36 *633:14 *2761:CLK 4.41506e-05
37 *633:14 *2761:D 0
38 *633:14 *2775:D 0.000118294
39 *633:14 *2936:A 8.65961e-05
40 *633:14 *670:64 2.49909e-05
41 *633:14 *675:32 2.03578e-05
42 *633:22 *2491:A0 0
43 *633:22 *2755:D 2.42236e-05
44 *633:22 *2759:D 0
45 *633:22 *2760:CLK 5.56629e-05
46 *633:22 *2770:D 9.30787e-05
47 *633:22 *639:26 0.0003824
48 *633:22 *639:59 5.83121e-06
49 *633:22 *642:37 2.64991e-05
50 *633:22 *650:30 0.000125533
51 *633:22 *670:58 0.000263504
52 *633:34 *2474:A1 3.70809e-05
53 *633:93 *2745:D 0.000198939
54 *633:93 *2829:A 0.000148089
55 *633:93 *732:25 0.000124895
56 *633:99 *2755:D 0
57 *633:99 *2829:A 0.000233792
58 *633:99 *677:31 0.000271341
59 *633:123 *2372:A 2.49909e-05
60 *633:123 *2384:A 8.49205e-05
61 *633:123 *2619:RESET_B 1.88602e-05
62 *633:123 *635:38 8.41015e-06
63 *633:123 *635:63 1.01911e-05
64 *633:129 *2600:A0 1.01661e-05
65 *633:129 *2602:A0 0.000272344
66 *633:129 *2619:RESET_B 0.000470922
67 *633:129 *666:28 0
68 *633:129 *670:80 0.000877976
69 *2383:A *2386:B 2.49909e-05
70 *2388:B *633:123 0.000122325
71 *2388:C *633:123 9.61248e-05
72 *2418:A1 *633:129 0.000226834
73 *2430:A0 *633:22 0.000236331
74 *2437:A0 *633:129 0
75 *2442:A2 *2605:S 0.000155948
76 *2454:A1 *2605:S 9.50342e-06
77 *2474:S *633:34 7.22354e-05
78 *2479:B *633:123 1.19928e-05
79 *2485:S *2607:S 0.00011852
80 *2535:S *633:34 0.000124331
81 *2547:A1 *633:123 0
82 *2559:A0 *2605:S 8.40269e-05
83 *2575:S *633:22 4.61701e-06
84 *2583:S *633:129 3.16707e-06
85 *2600:A1 *633:123 6.17113e-06
86 *2600:A1 *633:129 5.53249e-06
87 *2603:A1 *2605:S 0.00011852
88 *2604:A1 *633:22 8.49205e-05
89 *2604:A1 *633:34 4.66108e-05
90 *2605:A1 *2605:S 9.50342e-06
91 *2607:A1 *2607:S 6.60261e-06
92 *2637:CLK *633:34 0.000316708
93 *2637:D *633:34 4.82319e-06
94 *2640:CLK *2607:S 2.75229e-05
95 *2640:D *2607:S 6.85082e-05
96 *2642:D *633:22 7.70938e-05
97 *2644:CLK *633:34 4.82919e-05
98 *2644:D *633:34 0.000237533
99 *2646:D *2605:S 0.000225208
100 *2674:D *633:22 8.18011e-05
101 *2700:CLK *2605:S 3.09179e-05
102 *2700:D *2605:S 0.000432511
103 *2750:CLK *2605:S 6.12868e-05
104 *2784:D *2605:S 0
105 *2827:A *633:93 2.20732e-05
106 *2827:A *633:99 6.72792e-05
107 *2878:A *2601:S 6.38806e-05
108 *2879:A *2607:S 6.4422e-05
109 *2922:A *633:129 0.000316415
110 *2939:A *633:129 0.000183063
111 *3001:A *2605:S 0.000104171
112 *174:8 *2386:B 4.66108e-05
113 *249:37 *633:123 0.000307043
114 *251:10 *633:123 4.14782e-05
115 *325:67 *633:123 1.41626e-05
116 *325:93 *2607:S 0.00030462
117 *329:20 *633:123 0.000119143
118 *331:102 *633:22 1.08012e-05
119 *333:98 *633:22 0.00107732
120 *333:108 *633:22 0.000415068
121 *338:109 *633:129 0
122 *339:44 *2605:S 4.71081e-05
123 *340:73 *633:129 7.74394e-05
124 *345:72 *633:129 0.000222571
125 *345:174 *2415:B 1.83847e-05
126 *354:26 *2605:S 0.000134544
127 *355:10 *2605:S 2.79004e-05
128 *363:10 *633:8 0
129 *363:10 *633:14 0
130 *364:8 *633:8 0.000191151
131 *364:8 *633:93 8.44359e-05
132 *394:12 *633:34 2.75145e-05
133 *403:8 *633:34 0.000120655
*RES
1 *2827:X *633:6 3.6 
2 *633:6 *633:8 6.225 
3 *633:8 *633:14 14.975 
4 *633:14 *633:22 35.755 
5 *633:22 *633:34 32.175 
6 *633:34 *2605:S 39.96 
7 *633:34 *2603:S 1.6 
8 *633:22 *2604:S 1.6 
9 *633:14 *2601:S 10.705 
10 *633:8 *2415:B 4.05 
11 *633:6 *633:93 6.41 
12 *633:93 *633:99 7.34 
13 *633:99 *633:123 22.8301 
14 *633:123 *633:129 37.325 
15 *633:129 *2607:S 18.68 
16 *633:129 *2602:S 1.6 
17 *633:123 *2600:S 3.6 
18 *633:99 *2386:B 5.43 
19 *633:93 *2414:B 1.6 
*END

*D_NET *634 0.0356674
*CONN
*I *2431:S I *D sky130_fd_sc_hd__mux2_1
*I *2395:C I *D sky130_fd_sc_hd__and3_1
*I *2394:A2 I *D sky130_fd_sc_hd__a21oi_1
*I *2437:S I *D sky130_fd_sc_hd__mux2_1
*I *2392:B I *D sky130_fd_sc_hd__and2_1
*I *2391:B I *D sky130_fd_sc_hd__nor2_1
*I *2449:S I *D sky130_fd_sc_hd__mux2_1
*I *2443:S I *D sky130_fd_sc_hd__mux2_1
*I *2467:S I *D sky130_fd_sc_hd__mux2_1
*I *2455:S I *D sky130_fd_sc_hd__mux2_1
*I *2828:X O *D sky130_fd_sc_hd__clkbuf_4
*CAP
1 *2431:S 0.000138091
2 *2395:C 9.83936e-05
3 *2394:A2 0
4 *2437:S 0.00259644
5 *2392:B 0.000109111
6 *2391:B 7.55823e-05
7 *2449:S 6.09841e-05
8 *2443:S 0
9 *2467:S 0.000987939
10 *2455:S 0.000370789
11 *2828:X 0
12 *634:168 0.00373504
13 *634:136 0.000350694
14 *634:98 0.0022033
15 *634:78 0.00222333
16 *634:60 0.00160706
17 *634:52 0.000951363
18 *634:44 0.00177987
19 *634:40 0.00070042
20 *634:26 0.00213705
21 *634:6 0.00149956
22 *2391:B *2391:A 0.000160651
23 *2391:B *650:30 4.91041e-05
24 *2391:B *668:26 0.000162325
25 *2391:B *669:28 0
26 *2392:B *2391:A 0.000301306
27 *2392:B *2840:A 0.000271522
28 *2392:B *647:21 0.000168614
29 *2395:C *2395:B 9.61344e-05
30 *2395:C *2835:A 1.70906e-05
31 *2395:C *639:59 0
32 *2395:C *648:53 4.5783e-05
33 *2431:S *2862:A 9.46978e-05
34 *2431:S *739:10 9.73814e-05
35 *2437:S *2501:A0 3.38338e-05
36 *2437:S *643:23 3.67779e-05
37 *2437:S *643:116 2.60986e-05
38 *2455:S *645:18 0
39 *2467:S *2473:A1 0
40 *2467:S *2624:CLK 0
41 *2467:S *2624:RESET_B 0
42 *2467:S *661:47 0
43 *634:26 *2336:A 2.55587e-05
44 *634:26 *2401:A 0.000120655
45 *634:26 *2735:D 4.13933e-05
46 *634:26 *2862:A 0.000152611
47 *634:26 *668:79 7.10578e-05
48 *634:26 *708:10 0.000138808
49 *634:26 *720:18 0.000512356
50 *634:26 *739:10 0.000152611
51 *634:40 *639:59 0
52 *634:40 *648:53 8.25609e-05
53 *634:40 *668:79 0.000464505
54 *634:40 *669:87 0.00011379
55 *634:40 *705:12 3.35323e-05
56 *634:52 *2394:A1 6.06649e-05
57 *634:52 *2529:A1 0
58 *634:52 *2769:D 9.54399e-05
59 *634:52 *669:44 0.000125549
60 *634:52 *669:87 0.000255459
61 *634:60 *669:44 0.000315139
62 *634:78 *2444:S0 1.4389e-05
63 *634:78 *2551:A0 0.000111316
64 *634:98 *637:90 0.000242762
65 *634:98 *641:143 0.00011852
66 *634:98 *650:32 6.36578e-05
67 *634:136 *2391:A 4.82919e-05
68 *634:168 *2429:S 0
69 *634:168 *2491:A0 0
70 *634:168 *2759:D 0.000108577
71 *634:168 *669:87 0.000532987
72 *634:168 *669:100 0.000370144
73 *634:168 *670:45 4.9016e-05
74 *2393:A *2392:B 4.82919e-05
75 *2393:B *2392:B 4.21973e-05
76 *2403:C *2395:C 1.70906e-05
77 *2407:A1 *634:26 0.000250982
78 *2425:A1 *634:52 0
79 *2425:A1 *634:168 0
80 *2431:A0 *2431:S 4.80285e-05
81 *2437:A1 *2437:S 6.28765e-05
82 *2438:A2 *634:98 7.69372e-05
83 *2442:A2 *634:98 0.000146716
84 *2444:A0 *634:78 3.95404e-05
85 *2444:A1 *634:78 8.49205e-05
86 *2444:A2 *634:78 9.11997e-05
87 *2448:A2 *634:78 0.000106197
88 *2449:A0 *2449:S 0
89 *2455:A0 *2455:S 4.82919e-05
90 *2455:A1 *2455:S 0.000248254
91 *2467:A1 *2467:S 2.67022e-05
92 *2473:A0 *2467:S 2.87867e-05
93 *2494:A0 *2449:S 1.34503e-05
94 *2494:A0 *634:78 4.66108e-05
95 *2494:S *634:52 0.000670268
96 *2517:S *2467:S 0
97 *2538:A0 *2437:S 9.18292e-06
98 *2559:A0 *634:98 2.30292e-05
99 *2560:S *634:78 0.000494502
100 *2560:S *634:98 0.00047175
101 *2586:S *634:78 7.58604e-05
102 *2595:S *634:78 0.000503702
103 *2595:S *634:98 0.000313852
104 *2605:S *634:98 0.000221386
105 *2626:CLK *2437:S 9.65676e-05
106 *2626:D *2437:S 0.000111321
107 *2628:D *2467:S 0.000268285
108 *2692:D *2467:S 0
109 *2700:D *634:98 0.000276441
110 *2750:D *634:98 0.000214402
111 *2774:CLK *634:52 0
112 *2814:A *634:60 0.00015829
113 *2814:A *634:78 0.000456803
114 *2852:A *2455:S 0
115 *2855:A *634:52 7.6883e-06
116 *2881:A *634:52 0
117 *2907:A *634:78 9.42145e-05
118 *2953:A *2437:S 1.83847e-05
119 *2964:A *634:78 8.57406e-05
120 *2967:A *634:98 8.8266e-05
121 *2969:A *2437:S 0.00055551
122 *2969:A *634:168 0
123 *2983:A *2467:S 0
124 *265:6 *2391:B 4.82863e-05
125 *267:12 *634:40 3.64998e-06
126 *329:96 *2437:S 0.000307043
127 *329:105 *2437:S 1.91597e-05
128 *333:108 *634:52 0
129 *339:40 *2467:S 0
130 *348:8 *634:60 2.49909e-05
131 *348:10 *634:60 0.000164686
132 *348:63 *634:52 0
133 *348:76 *634:52 0
134 *354:30 *2455:S 0
135 *354:30 *2467:S 0
136 *354:32 *2455:S 0
137 *355:90 *2467:S 0
138 *363:10 *634:40 0.000112123
139 *363:10 *634:168 0.000181898
140 *408:6 *2437:S 0.000311277
141 *410:12 *2467:S 0
142 *466:6 *634:98 3.96737e-05
143 *551:26 *634:26 7.20849e-05
144 *551:26 *634:40 3.57349e-05
145 *551:26 *634:44 4.82863e-05
146 *632:14 *2467:S 4.82863e-05
*RES
1 *2828:X *634:6 3.6 
2 *634:6 *634:26 25.915 
3 *634:26 *634:40 16.38 
4 *634:40 *634:44 2.45 
5 *634:44 *634:52 16.94 
6 *634:52 *634:60 8.815 
7 *634:60 *634:78 29.275 
8 *634:78 *634:98 25.59 
9 *634:98 *2455:S 10.275 
10 *634:98 *2467:S 20.73 
11 *634:78 *2443:S 1.6 
12 *634:60 *2449:S 2.665 
13 *634:52 *634:136 2.52 
14 *634:136 *2391:B 8.3 
15 *634:136 *2392:B 6.205 
16 *634:44 *634:168 23.54 
17 *634:168 *2437:S 37.1 
18 *634:40 *2394:A2 1.6 
19 *634:26 *2395:C 5.91 
20 *634:6 *2431:S 6.9 
*END

*D_NET *635 0.00707859
*CONN
*I *2385:A I *D sky130_fd_sc_hd__nand2_1
*I *2374:A I *D sky130_fd_sc_hd__nor2_1
*I *2377:A I *D sky130_fd_sc_hd__xnor2_1
*I *2508:A I *D sky130_fd_sc_hd__or2_2
*I *2573:A I *D sky130_fd_sc_hd__or3b_4
*I *2498:B I *D sky130_fd_sc_hd__nand2b_2
*I *2499:C I *D sky130_fd_sc_hd__nand3b_4
*I *2384:A I *D sky130_fd_sc_hd__nand2_2
*I *2546:A_N I *D sky130_fd_sc_hd__nand2b_4
*I *2545:A_N I *D sky130_fd_sc_hd__nand2b_2
*I *2829:X O *D sky130_fd_sc_hd__clkbuf_4
*CAP
1 *2385:A 8.58208e-05
2 *2374:A 0.000124719
3 *2377:A 0
4 *2508:A 1.90984e-05
5 *2573:A 0
6 *2498:B 8.17977e-05
7 *2499:C 1.04051e-05
8 *2384:A 0.0002129
9 *2546:A_N 0
10 *2545:A_N 1.44798e-05
11 *2829:X 0
12 *635:101 0.000192469
13 *635:63 0.000223743
14 *635:38 0.000455834
15 *635:24 0.000241464
16 *635:18 0.000381594
17 *635:14 0.000152651
18 *635:8 0.000190926
19 *635:6 0.000142203
20 *635:4 9.78813e-05
21 *2374:A *636:8 8.18626e-05
22 *2374:A *746:6 0.000200615
23 *2385:A *2829:A 4.60584e-05
24 *2385:A *639:26 0.000186388
25 *2498:B *636:82 8.65905e-05
26 *2545:A_N *2545:B 5.30673e-05
27 *635:6 *639:26 3.57349e-05
28 *635:8 *2422:S1 1.33285e-05
29 *635:8 *2508:B 4.66108e-05
30 *635:8 *639:26 0.000194694
31 *635:14 *2422:S1 0.000308719
32 *635:14 *2573:B 2.30292e-05
33 *635:14 *639:26 9.53428e-06
34 *635:18 *2422:S1 5.88334e-05
35 *635:18 *2573:B 4.82919e-05
36 *635:24 *2545:B 0.00011577
37 *635:63 *636:82 0.000163228
38 *635:101 *2744:D 1.01661e-05
39 *635:101 *2756:D 0.000180682
40 *2373:B *2508:A 4.00541e-06
41 *2374:B *2374:A 0.000204234
42 *2377:B *635:101 0.000159957
43 *2385:B *2385:A 0.000198939
44 *2385:B *635:6 4.66108e-05
45 *2385:B *635:8 6.77392e-05
46 *2479:B *2384:A 2.75145e-05
47 *2564:A *635:24 0
48 *249:29 *2498:B 4.62396e-05
49 *252:36 *635:8 4.08514e-05
50 *252:36 *635:14 4.77948e-05
51 *259:8 *2498:B 4.60584e-05
52 *259:8 *635:63 0.000123197
53 *259:23 *2498:B 5.12942e-05
54 *260:12 *635:14 7.67415e-06
55 *260:12 *635:18 2.39856e-05
56 *322:31 *2384:A 0.000159003
57 *324:12 *2498:B 8.53113e-06
58 *324:18 *635:38 4.38051e-05
59 *324:18 *635:63 0.000155928
60 *324:20 *635:24 0.000335858
61 *324:20 *635:38 0.000183738
62 *325:26 *635:24 6.5944e-05
63 *325:26 *635:38 0
64 *325:67 *635:63 0
65 *329:20 *2384:A 0.000196376
66 *329:20 *635:63 2.37321e-05
67 *330:10 *635:14 4.82863e-05
68 *336:8 *2545:A_N 5.30673e-05
69 *336:8 *635:24 6.52265e-05
70 *339:12 *635:14 4.82863e-05
71 *633:123 *2384:A 8.49205e-05
72 *633:123 *635:38 8.41015e-06
73 *633:123 *635:63 1.01911e-05
*RES
1 *2829:X *635:4 1.6 
2 *635:4 *635:6 0.45 
3 *635:6 *635:8 2.175 
4 *635:8 *635:14 3.585 
5 *635:14 *635:18 3.14 
6 *635:18 *635:24 7.76 
7 *635:24 *2545:A_N 2.395 
8 *635:24 *2546:A_N 1.6 
9 *635:18 *635:38 2.655 
10 *635:38 *2384:A 12.355 
11 *635:38 *635:63 5.84 
12 *635:63 *2499:C 1.96 
13 *635:63 *2498:B 8.03 
14 *635:14 *2573:A 1.6 
15 *635:8 *2508:A 1.96 
16 *635:6 *635:101 6.145 
17 *635:101 *2377:A 1.6 
18 *635:101 *2374:A 5.53 
19 *635:4 *2385:A 4.48 
*END

*D_NET *636 0.0111628
*CONN
*I *2372:A I *D sky130_fd_sc_hd__and2_1
*I *2303:A I *D sky130_fd_sc_hd__nand2_1
*I *2379:A I *D sky130_fd_sc_hd__xnor2_1
*I *2498:A_N I *D sky130_fd_sc_hd__nand2b_2
*I *2499:A_N I *D sky130_fd_sc_hd__nand3b_4
*I *2384:B I *D sky130_fd_sc_hd__nand2_2
*I *2371:A I *D sky130_fd_sc_hd__nor2_1
*I *2573:B I *D sky130_fd_sc_hd__or3b_4
*I *2508:B I *D sky130_fd_sc_hd__or2_2
*I *2545:B I *D sky130_fd_sc_hd__nand2b_2
*I *2830:X O *D sky130_fd_sc_hd__buf_2
*CAP
1 *2372:A 1.93533e-05
2 *2303:A 0.00112494
3 *2379:A 0
4 *2498:A_N 0
5 *2499:A_N 0
6 *2384:B 0.000123256
7 *2371:A 0
8 *2573:B 0.000152282
9 *2508:B 1.36534e-05
10 *2545:B 0.000761467
11 *2830:X 0.000318062
12 *636:117 0.00122235
13 *636:104 0.000136753
14 *636:82 0.000536035
15 *636:70 0.000484673
16 *636:46 0.000367834
17 *636:38 0.000329149
18 *636:34 0.000160074
19 *636:23 0.000132648
20 *636:8 0.00113885
21 *2303:A *745:10 5.05437e-05
22 *2545:B *2744:D 0.000178
23 *636:8 *746:6 8.65905e-05
24 *2303:B *2303:A 5.59676e-05
25 *2304:A *2303:A 8.65961e-05
26 *2304:B *2303:A 8.8266e-05
27 *2310:B *2303:A 8.8266e-05
28 *2374:A *636:8 8.18626e-05
29 *2374:B *636:8 4.4675e-05
30 *2379:B *2303:A 4.66108e-05
31 *2479:A *636:46 3.90349e-05
32 *2498:B *636:82 8.65905e-05
33 *2545:A_N *2545:B 5.30673e-05
34 *2573:C_N *2573:B 1.22505e-05
35 *2573:C_N *636:46 5.53249e-06
36 *2681:CLK *2384:B 5.18312e-05
37 *2681:CLK *636:46 0.000194694
38 *2681:CLK *636:82 1.74678e-05
39 *186:16 *2303:A 6.26945e-05
40 *249:37 *636:46 3.39151e-05
41 *251:10 *2372:A 2.49909e-05
42 *252:10 *2573:B 8.5242e-05
43 *252:12 *2573:B 3.09233e-05
44 *252:36 *2508:B 4.66108e-05
45 *259:8 *2384:B 8.65961e-05
46 *259:8 *636:82 0.000211144
47 *260:12 *2573:B 4.80285e-05
48 *323:10 *636:117 5.4003e-05
49 *323:20 *2545:B 0.000183043
50 *323:20 *636:23 0.000126679
51 *323:20 *636:34 0.000150253
52 *323:20 *636:38 0.000122527
53 *323:20 *636:46 0
54 *323:20 *636:70 0.000110683
55 *323:20 *636:104 0.000107627
56 *323:20 *636:117 0.00015046
57 *326:29 *2573:B 8.30384e-05
58 *326:29 *636:46 0
59 *336:8 *2545:B 3.24055e-05
60 *350:54 *2545:B 7.5416e-05
61 *350:54 *636:8 1.56428e-05
62 *350:54 *636:23 0.000132842
63 *350:54 *636:34 0.000179015
64 *350:54 *636:38 5.46798e-05
65 *350:54 *636:70 1.52184e-05
66 *350:71 *636:70 5.10957e-05
67 *350:71 *636:104 6.28765e-05
68 *350:71 *636:117 0.000113972
69 *633:123 *2372:A 2.49909e-05
70 *635:8 *2508:B 4.66108e-05
71 *635:14 *2573:B 2.30292e-05
72 *635:18 *2573:B 4.82919e-05
73 *635:24 *2545:B 0.00011577
74 *635:63 *636:82 0.000163228
*RES
1 *2830:X *636:8 7.5 
2 *636:8 *2545:B 14.055 
3 *636:8 *636:23 1.635 
4 *636:23 *2508:B 4.05 
5 *636:23 *636:34 2.145 
6 *636:34 *636:38 1.83 
7 *636:38 *636:46 7.465 
8 *636:46 *2573:B 7.185 
9 *636:46 *2371:A 3.6 
10 *636:38 *636:70 1.38 
11 *636:70 *636:82 8.555 
12 *636:82 *2384:B 4.36 
13 *636:82 *2499:A_N 1.6 
14 *636:70 *636:104 1.38 
15 *636:104 *2498:A_N 3.6 
16 *636:104 *636:117 4.85 
17 *636:117 *2379:A 1.6 
18 *636:117 *2303:A 19.435 
19 *636:34 *2372:A 4.05 
*END

*D_NET *637 0.0453631
*CONN
*I *2331:A I *D sky130_fd_sc_hd__or2_1
*I *2332:A I *D sky130_fd_sc_hd__nand2_1
*I *2408:B1 I *D sky130_fd_sc_hd__a21oi_1
*I *2448:S0 I *D sky130_fd_sc_hd__mux4_1
*I *2442:S0 I *D sky130_fd_sc_hd__mux4_1
*I *2454:S0 I *D sky130_fd_sc_hd__mux4_1
*I *2436:S0 I *D sky130_fd_sc_hd__mux4_1
*I *2466:S0 I *D sky130_fd_sc_hd__mux4_1
*I *2422:S0 I *D sky130_fd_sc_hd__mux4_1
*I *2460:S0 I *D sky130_fd_sc_hd__mux4_1
*I *2831:X O *D sky130_fd_sc_hd__buf_4
*CAP
1 *2331:A 6.50187e-05
2 *2332:A 0
3 *2408:B1 5.63976e-05
4 *2448:S0 3.08334e-05
5 *2442:S0 0
6 *2454:S0 1.00488e-05
7 *2436:S0 0.00120609
8 *2466:S0 6.12752e-05
9 *2422:S0 0.000105779
10 *2460:S0 0.00154113
11 *2831:X 0.000109305
12 *637:174 0.00122684
13 *637:157 0.00143617
14 *637:104 0.00193634
15 *637:98 0.00260113
16 *637:90 0.00349652
17 *637:62 0.0023347
18 *637:30 0.00368791
19 *637:16 0.00389433
20 *637:10 0.00145112
21 *2422:S0 *2421:S0 0.000239136
22 *2422:S0 *2421:S1 0.000247667
23 *2436:S0 *2466:S1 5.05437e-05
24 *2436:S0 *2624:CLK 0.000130638
25 *2436:S0 *639:124 9.07793e-05
26 *2436:S0 *663:16 0.000164686
27 *2436:S0 *663:33 0.000193706
28 *2454:S0 *641:42 5.08304e-06
29 *2460:S0 *2422:S1 0.000307043
30 *2460:S0 *2460:S1 0.000143844
31 *637:10 *2403:A 0
32 *637:10 *2832:A 6.22925e-05
33 *637:10 *672:30 4.82863e-05
34 *637:10 *707:6 4.82863e-05
35 *637:10 *753:10 0
36 *637:10 *754:10 0.000195423
37 *637:16 *2832:A 1.88656e-05
38 *637:16 *754:10 1.7635e-05
39 *637:30 *2421:S0 0.000510096
40 *637:30 *2421:S1 0.000670325
41 *637:30 *644:82 0.000668112
42 *637:30 *648:117 0.00069098
43 *637:62 *2446:S1 6.63413e-05
44 *637:62 *2604:A0 0.000561259
45 *637:62 *647:67 0
46 *637:62 *647:78 0
47 *637:62 *658:51 0.000121714
48 *637:90 *647:41 0.000501226
49 *637:90 *658:10 0.000381883
50 *637:90 *658:51 5.22132e-05
51 *637:104 *2463:S1 0.000304903
52 *637:104 *2581:A0 0.00010131
53 *637:104 *639:111 0
54 *637:104 *641:42 9.46921e-05
55 *637:104 *641:110 6.47516e-05
56 *637:104 *645:30 9.14049e-05
57 *637:104 *645:121 0
58 *637:104 *652:33 5.21046e-05
59 *637:157 *2408:A1 1.33293e-05
60 *637:174 *2330:A 0
61 *637:174 *2345:B 0
62 *637:174 *2734:D 2.21654e-05
63 *637:174 *668:55 0
64 *637:174 *668:112 0
65 *637:174 *708:10 0
66 *2331:B *2331:A 4.99619e-05
67 *2347:C *637:174 0
68 *2408:A2 *2408:B1 3.17194e-05
69 *2408:A2 *637:157 0.000234674
70 *2416:B *2408:B1 4.35648e-05
71 *2416:B *637:174 6.83659e-05
72 *2419:A1 *637:30 2.09514e-05
73 *2419:A2 *637:30 0.000332035
74 *2429:A0 *637:30 7.23602e-05
75 *2430:A0 *637:62 3.41459e-05
76 *2431:A1 *637:16 0.000676384
77 *2438:A3 *637:98 0
78 *2442:A3 *637:90 5.55284e-05
79 *2446:A1 *637:62 0.000335865
80 *2448:A0 *637:90 6.59822e-05
81 *2448:A1 *637:90 0.000196381
82 *2454:A3 *637:104 0
83 *2460:A2 *2460:S0 0.000101523
84 *2463:A0 *637:104 0.00011852
85 *2463:A1 *637:104 4.40812e-05
86 *2466:A2 *2436:S0 1.23883e-05
87 *2466:A3 *2436:S0 5.05521e-05
88 *2466:A3 *2466:S0 5.83121e-06
89 *2473:S *2436:S0 9.2741e-05
90 *2485:S *637:104 8.68956e-05
91 *2495:S *2436:S0 0
92 *2497:A0 *2436:S0 0
93 *2517:S *2436:S0 2.59744e-05
94 *2517:S *2466:S0 4.39911e-06
95 *2556:A0 *2460:S0 0.000237249
96 *2559:S *637:90 5.33056e-05
97 *2559:S *637:98 0.00052408
98 *2560:A0 *637:90 0.000168175
99 *2595:S *637:90 0.00102714
100 *2606:S *2460:S0 7.20784e-06
101 *2610:A0 *637:30 0.000131882
102 *2624:D *2436:S0 6.28765e-05
103 *2626:CLK *637:30 0
104 *2680:D *637:104 0
105 *2707:CLK *2436:S0 4.11025e-05
106 *2750:D *637:90 4.9968e-05
107 *2850:A *637:90 4.66108e-05
108 *2892:A *637:62 0.000204463
109 *2898:A *637:30 5.83121e-06
110 *2907:A *637:90 2.05056e-05
111 *2964:A *637:62 0
112 *2987:A *637:30 0.000162325
113 *2998:A *637:30 6.34737e-06
114 *2999:A *637:30 0
115 *228:10 *637:174 0
116 *260:12 *2460:S0 0.000726109
117 *264:18 *637:16 0.000866714
118 *264:18 *637:30 0.000618947
119 *264:20 *637:30 0
120 *327:65 *2436:S0 0.000291777
121 *327:103 *637:62 0.00102814
122 *329:20 *2422:S0 8.40213e-05
123 *331:102 *637:62 0.00128205
124 *334:41 *2460:S0 0.000191649
125 *337:26 *637:30 7.96104e-06
126 *337:30 *637:90 5.20968e-05
127 *339:32 *2436:S0 6.99666e-05
128 *339:40 *2436:S0 0.00144435
129 *340:16 *637:30 4.24292e-06
130 *341:103 *637:30 0
131 *342:77 *637:90 0
132 *345:12 *637:30 6.26423e-05
133 *349:16 *637:30 0
134 *354:19 *637:104 0.000136891
135 *361:10 *637:30 0.000262651
136 *441:12 *2436:S0 0.000248254
137 *450:12 *637:90 4.82919e-05
138 *634:98 *637:90 0.000242762
*RES
1 *2831:X *637:10 6.45 
2 *637:10 *637:16 3.9169 
3 *637:16 *637:30 39.1146 
4 *637:30 *2460:S0 31.095 
5 *637:30 *2422:S0 7.305 
6 *637:16 *637:62 27.9775 
7 *637:62 *637:90 31.415 
8 *637:90 *637:98 4.4169 
9 *637:98 *637:104 18.4925 
10 *637:104 *2466:S0 2.41 
11 *637:104 *2436:S0 35.435 
12 *637:98 *2454:S0 3.8325 
13 *637:90 *2442:S0 3.6 
14 *637:62 *2448:S0 2.05 
15 *637:10 *637:157 4.865 
16 *637:157 *2408:B1 2.92 
17 *637:157 *637:174 21.085 
18 *637:174 *2332:A 1.6 
19 *637:174 *2331:A 2.74 
*END

*D_NET *638 0.000345053
*CONN
*I *2298:A I *D sky130_fd_sc_hd__inv_2
*I *3018:X O *D sky130_fd_sc_hd__clkbuf_1
*CAP
1 *2298:A 0.000141088
2 *3018:X 0.000141088
3 *2298:A *678:10 6.28765e-05
4 *3019:A *2298:A 0
*RES
1 *3018:X *2298:A 9.375 
*END

*D_NET *639 0.0388735
*CONN
*I *2408:A1 I *D sky130_fd_sc_hd__a21oi_1
*I *2397:A I *D sky130_fd_sc_hd__nor2_1
*I *2398:A I *D sky130_fd_sc_hd__and2_1
*I *2448:S1 I *D sky130_fd_sc_hd__mux4_1
*I *2442:S1 I *D sky130_fd_sc_hd__mux4_1
*I *2454:S1 I *D sky130_fd_sc_hd__mux4_1
*I *2460:S1 I *D sky130_fd_sc_hd__mux4_1
*I *2436:S1 I *D sky130_fd_sc_hd__mux4_1
*I *2466:S1 I *D sky130_fd_sc_hd__mux4_1
*I *2422:S1 I *D sky130_fd_sc_hd__mux4_1
*I *2832:X O *D sky130_fd_sc_hd__buf_4
*CAP
1 *2408:A1 0.000137239
2 *2397:A 2.08101e-05
3 *2398:A 0
4 *2448:S1 5.66458e-05
5 *2442:S1 0
6 *2454:S1 0
7 *2460:S1 0.00092677
8 *2436:S1 0.000525773
9 *2466:S1 2.20676e-05
10 *2422:S1 0.00144277
11 *2832:X 0
12 *639:124 0.00234872
13 *639:111 0.00184274
14 *639:105 0.00166366
15 *639:73 0.00259888
16 *639:59 0.00395904
17 *639:26 0.00389734
18 *639:10 0.00457027
19 *639:8 0.000181339
20 *639:6 0.000330069
21 *639:4 0.000338183
22 *2460:S1 *2516:A1 0.000259146
23 *2460:S1 *2534:A0 0.000139933
24 *2460:S1 *2556:A1 0
25 *2460:S1 *643:39 4.28483e-05
26 *2460:S1 *654:64 1.52862e-05
27 *2460:S1 *663:10 0
28 *639:6 *2832:A 4.66108e-05
29 *639:26 *2737:D 0.000380565
30 *639:26 *2737:RESET_B 2.86869e-05
31 *639:26 *2755:D 0
32 *639:26 *2770:D 8.52003e-06
33 *639:26 *2830:A 6.47594e-05
34 *639:59 *2395:B 0
35 *639:59 *2737:D 0
36 *639:59 *2769:D 3.9186e-05
37 *639:59 *2774:D 0
38 *639:59 *2774:RESET_B 0.000210005
39 *639:59 *2869:A 0.000119512
40 *639:59 *642:99 0
41 *639:59 *648:53 0
42 *639:59 *650:30 8.97564e-05
43 *639:59 *668:26 0.000205372
44 *639:59 *669:44 0
45 *639:59 *673:58 5.47609e-05
46 *639:59 *673:74 6.00003e-05
47 *639:59 *720:18 0
48 *639:73 *2445:S0 2.86623e-05
49 *639:73 *647:29 4.21973e-05
50 *639:73 *647:35 0.000361361
51 *639:73 *661:31 4.9253e-06
52 *639:73 *669:44 0
53 *639:105 *2439:S0 0.000238601
54 *639:105 *641:143 6.95177e-05
55 *639:105 *645:18 0.00070754
56 *639:105 *645:145 5.49503e-05
57 *639:105 *659:116 0
58 *639:105 *661:10 4.82863e-05
59 *639:105 *661:16 0.000272984
60 *639:105 *661:31 0.000456823
61 *639:111 *2535:A0 4.05358e-05
62 *639:111 *2624:CLK 0
63 *639:111 *641:40 3.86607e-05
64 *639:111 *645:121 3.05295e-05
65 *639:124 *2497:A1 0.000298442
66 *639:124 *643:39 6.23292e-05
67 *2385:A *639:26 0.000186388
68 *2395:C *639:59 0
69 *2397:B *639:8 4.82863e-05
70 *2398:B *639:59 2.09708e-05
71 *2399:A *639:10 0.00010978
72 *2399:A *639:26 0.000235568
73 *2399:B *639:59 0
74 *2408:A2 *2408:A1 6.32842e-05
75 *2408:A2 *639:6 0.00048088
76 *2408:A2 *639:8 4.82919e-05
77 *2422:A2 *2422:S1 0.000226841
78 *2430:A0 *639:26 0.000203481
79 *2434:A3 *2460:S1 0
80 *2436:A0 *639:124 0.000364138
81 *2436:A1 *639:124 0.000175863
82 *2436:A2 *2436:S1 1.59999e-05
83 *2436:A3 *2436:S1 0.000127118
84 *2436:S0 *2466:S1 5.05437e-05
85 *2436:S0 *639:124 9.07793e-05
86 *2442:A0 *639:105 4.82919e-05
87 *2442:A1 *639:105 5.13315e-05
88 *2442:A2 *639:105 2.20665e-05
89 *2443:A1 *639:73 1.48249e-05
90 *2448:A2 *639:59 5.83121e-06
91 *2448:A3 *639:59 0.000314452
92 *2454:A3 *639:111 2.58818e-05
93 *2455:A1 *639:105 0.000205363
94 *2457:A1 *2460:S1 0
95 *2460:S0 *2422:S1 0.000307043
96 *2460:S0 *2460:S1 0.000143844
97 *2463:A0 *639:111 0
98 *2463:A1 *639:111 0
99 *2463:A1 *639:124 0
100 *2464:A1 *639:124 0
101 *2466:A2 *639:124 0
102 *2495:A0 *639:111 2.75538e-05
103 *2495:S *639:111 0
104 *2495:S *639:124 0.00107322
105 *2517:S *2466:S1 3.45588e-05
106 *2517:S *639:124 6.63825e-05
107 *2556:A0 *2460:S1 0
108 *2559:S *639:105 1.39062e-05
109 *2580:S *2460:S1 0.000176791
110 *2604:A1 *639:59 1.19928e-05
111 *2606:S *2460:S1 7.67345e-05
112 *2637:CLK *639:59 3.27443e-05
113 *2642:D *639:26 0.000141599
114 *2646:D *639:111 0.00015997
115 *2680:D *639:111 4.19967e-05
116 *2700:D *639:105 1.47256e-05
117 *2701:D *639:73 8.53364e-05
118 *2751:D *639:73 2.92279e-05
119 *2814:A *639:59 0.00015896
120 *2854:A *2460:S1 0
121 *2872:A *639:59 6.97202e-05
122 *2921:A *639:124 0
123 *2982:A *639:73 0.000150229
124 *3030:A *2436:S1 8.49205e-05
125 *3030:A *2460:S1 0.000189291
126 *3030:A *639:124 1.52184e-05
127 *260:12 *2422:S1 0.000111015
128 *260:12 *2460:S1 2.75145e-05
129 *268:21 *639:59 0.000127605
130 *268:27 *639:8 1.60203e-05
131 *269:6 *639:8 0.000183819
132 *269:6 *639:10 4.82919e-05
133 *325:83 *2460:S1 0
134 *327:65 *639:124 0.000216403
135 *327:99 *639:26 0
136 *327:103 *639:26 0.000217171
137 *331:102 *639:59 7.55049e-05
138 *333:108 *639:59 0.000726358
139 *333:108 *639:73 5.42303e-05
140 *334:41 *2422:S1 1.74678e-05
141 *339:32 *2460:S1 9.70048e-05
142 *342:67 *2422:S1 0
143 *347:47 *639:73 0.000232786
144 *354:19 *639:111 0
145 *467:10 *639:73 7.40046e-05
146 *633:22 *639:26 0.0003824
147 *633:22 *639:59 5.83121e-06
148 *634:40 *639:59 0
149 *635:6 *639:26 3.57349e-05
150 *635:8 *2422:S1 1.33285e-05
151 *635:8 *639:26 0.000194694
152 *635:14 *2422:S1 0.000308719
153 *635:14 *639:26 9.53428e-06
154 *635:18 *2422:S1 5.88334e-05
155 *637:104 *639:111 0
156 *637:157 *2408:A1 1.33293e-05
*RES
1 *2832:X *639:4 1.6 
2 *639:4 *639:6 4.59 
3 *639:6 *639:8 2.52 
4 *639:8 *639:10 1.485 
5 *639:10 *639:26 48.355 
6 *639:26 *2422:S1 24.23 
7 *639:10 *639:59 47.485 
8 *639:59 *639:73 30.44 
9 *639:73 *639:105 26.395 
10 *639:105 *639:111 20.17 
11 *639:111 *2466:S1 2.395 
12 *639:111 *639:124 26.795 
13 *639:124 *2436:S1 10.98 
14 *639:124 *2460:S1 23.475 
15 *639:105 *2454:S1 1.6 
16 *639:73 *2442:S1 1.6 
17 *639:59 *2448:S1 4.395 
18 *639:8 *2398:A 1.6 
19 *639:6 *2397:A 1.96 
20 *639:4 *2408:A1 4.045 
*END

*D_NET *640 0.00872641
*CONN
*I *2403:B I *D sky130_fd_sc_hd__and3_1
*I *2341:A I *D sky130_fd_sc_hd__and2_1
*I *2335:A I *D sky130_fd_sc_hd__nor2_1
*I *2400:A I *D sky130_fd_sc_hd__xnor2_1
*I *2429:S I *D sky130_fd_sc_hd__mux2_1
*I *2426:S I *D sky130_fd_sc_hd__mux2_1
*I *2833:X O *D sky130_fd_sc_hd__clkbuf_2
*CAP
1 *2403:B 1.41476e-05
2 *2341:A 0
3 *2335:A 0.00011008
4 *2400:A 0
5 *2429:S 0.000668595
6 *2426:S 2.82506e-05
7 *2833:X 3.01888e-05
8 *640:55 0.00105914
9 *640:49 0.00106791
10 *640:20 0.000978733
11 *640:14 0.00119529
12 *640:6 0.0010483
13 *2429:S *2737:RESET_B 9.04308e-05
14 *2429:S *644:27 0.000281843
15 *2429:S *648:78 0.000134314
16 *640:6 *706:8 1.83847e-05
17 *640:14 *2733:CLK 0.000141975
18 *640:14 *2733:D 0.000199833
19 *640:14 *642:12 0
20 *640:14 *706:8 4.65607e-05
21 *640:20 *2732:D 0.000161529
22 *640:49 *2402:B 3.05373e-05
23 *640:49 *2403:A 4.94326e-05
24 *640:49 *753:10 0
25 *640:49 *754:10 0
26 *640:49 *754:18 0
27 *640:55 *2336:A 0
28 *640:55 *2338:A 0
29 *640:55 *2402:B 7.17811e-05
30 *640:55 *753:10 0
31 *2341:B *2335:A 9.09329e-05
32 *2342:B *2335:A 3.00381e-05
33 *2396:B *640:20 1.61831e-05
34 *2400:B *640:20 0.00019637
35 *2403:C *2403:B 1.26934e-06
36 *2406:B1 *640:55 0.000163138
37 *2407:C1 *640:55 0
38 *2425:A1 *2429:S 4.39656e-05
39 *2426:A1 *640:20 1.37328e-05
40 *2910:A *2429:S 6.14983e-05
41 *219:8 *640:55 0.000191166
42 *333:98 *2429:S 0.000490867
43 *363:10 *640:14 0
44 *634:168 *2429:S 0
*RES
1 *2833:X *640:6 2.05 
2 *640:6 *640:14 14.8 
3 *640:14 *640:20 5.22 
4 *640:20 *2426:S 2.05 
5 *640:20 *2429:S 20.525 
6 *640:14 *2400:A 1.6 
7 *640:6 *640:49 4.145 
8 *640:49 *640:55 19.49 
9 *640:55 *2335:A 4.15 
10 *640:55 *2341:A 1.6 
11 *640:49 *2403:B 3.73875 
*END

*D_NET *641 0.0214279
*CONN
*I *2440:S1 I *D sky130_fd_sc_hd__mux4_1
*I *2439:S1 I *D sky130_fd_sc_hd__mux4_1
*I *2441:S1 I *D sky130_fd_sc_hd__mux4_1
*I *2438:S1 I *D sky130_fd_sc_hd__mux4_1
*I *2463:S1 I *D sky130_fd_sc_hd__mux4_1
*I *2452:S1 I *D sky130_fd_sc_hd__mux4_1
*I *2451:S1 I *D sky130_fd_sc_hd__mux4_1
*I *2465:S1 I *D sky130_fd_sc_hd__mux4_1
*I *2450:S1 I *D sky130_fd_sc_hd__mux4_1
*I *2453:S1 I *D sky130_fd_sc_hd__mux4_1
*I *2834:X O *D sky130_fd_sc_hd__clkbuf_4
*CAP
1 *2440:S1 3.22446e-06
2 *2439:S1 0.000185947
3 *2441:S1 0.000388141
4 *2438:S1 0
5 *2463:S1 0.000524704
6 *2452:S1 0
7 *2451:S1 0
8 *2465:S1 0.000842637
9 *2450:S1 0
10 *2453:S1 0.000208282
11 *2834:X 0.000267305
12 *641:143 0.00113282
13 *641:110 0.000568948
14 *641:77 0.00180016
15 *641:50 0.00193867
16 *641:42 0.00121584
17 *641:40 0.00169762
18 *641:18 0.00124965
19 *641:12 0.000980937
20 *641:10 0.000653487
21 *2441:S1 *659:29 0
22 *2441:S1 *659:58 0
23 *2441:S1 *659:84 0
24 *2453:S1 *2524:A1 0
25 *2463:S1 *645:68 0
26 *641:10 *650:32 1.58525e-06
27 *641:10 *650:66 0.000255923
28 *641:12 *650:32 0
29 *641:40 *2495:A1 4.66826e-05
30 *641:42 *2495:A1 9.7872e-05
31 *641:42 *645:30 9.30717e-05
32 *641:42 *645:121 0
33 *641:42 *656:56 0.000237495
34 *641:50 *2453:S0 0
35 *641:77 *2450:S0 0.000244231
36 *641:110 *2495:A1 3.31204e-05
37 *641:143 *2439:S0 7.27402e-06
38 *641:143 *650:32 9.89501e-05
39 *641:143 *659:116 0
40 *2438:A2 *641:18 3.09233e-05
41 *2438:A2 *641:143 0.000137571
42 *2438:A3 *641:40 0.000150775
43 *2439:A2 *641:143 3.98213e-05
44 *2440:A2 *641:10 0.000177257
45 *2442:A1 *2441:S1 0.000377744
46 *2442:A1 *641:143 0.000389794
47 *2442:A2 *641:18 0
48 *2442:A2 *641:40 0.000144527
49 *2442:A2 *641:143 0
50 *2450:A0 *641:77 4.87406e-05
51 *2450:A2 *641:77 3.7161e-05
52 *2450:A3 *641:77 5.52924e-05
53 *2451:A2 *641:42 0.000212286
54 *2451:A3 *641:42 4.18603e-06
55 *2451:A3 *641:50 7.6664e-05
56 *2452:A3 *2463:S1 9.3062e-06
57 *2452:A3 *641:110 1.82476e-05
58 *2453:A2 *2453:S1 0.000103518
59 *2454:A1 *641:50 0
60 *2454:A2 *641:77 1.3946e-05
61 *2454:S0 *641:42 5.08304e-06
62 *2466:A1 *2463:S1 0.000134425
63 *2475:S *2463:S1 0
64 *2485:S *2463:S1 0.000185398
65 *2495:A0 *641:40 7.06865e-05
66 *2505:A1 *2453:S1 7.01359e-05
67 *2552:A1 *2465:S1 7.23602e-05
68 *2552:S *2465:S1 0
69 *2561:S *2465:S1 0
70 *2577:A1 *641:143 3.86529e-05
71 *2579:A1 *641:50 0.000106106
72 *2581:A1 *2463:S1 0
73 *2581:S *2463:S1 4.21314e-05
74 *2588:S *2465:S1 0
75 *2688:D *2465:S1 0.000100221
76 *2692:CLK *641:40 0.000228883
77 *2692:D *641:40 6.50844e-06
78 *2718:CLK *641:50 0.000288421
79 *2718:D *641:50 1.54049e-05
80 *2727:D *2465:S1 8.08439e-05
81 *2750:CLK *641:12 4.75576e-06
82 *2750:CLK *641:18 6.62755e-05
83 *2750:CLK *641:143 1.94636e-05
84 *2752:D *641:77 0.000139245
85 *2790:D *2441:S1 4.61658e-05
86 *2794:D *2465:S1 0
87 *2883:A *2463:S1 4.82919e-05
88 *2890:A *2465:S1 0
89 *2924:A *641:42 0.000141606
90 *2975:A *641:10 2.10433e-05
91 *2975:A *641:12 0.000126762
92 *2983:A *641:40 4.99619e-05
93 *2989:A *641:143 4.91189e-05
94 *3001:A *641:40 6.05513e-05
95 *334:80 *641:77 0
96 *338:44 *2439:S1 0.000188323
97 *339:44 *2463:S1 0.000139252
98 *339:44 *641:42 0
99 *345:22 *641:10 0
100 *345:52 *2463:S1 0.000308713
101 *346:63 *2465:S1 5.23362e-05
102 *346:63 *641:77 0
103 *354:26 *641:40 0.000131069
104 *355:8 *641:12 0.000103192
105 *355:10 *641:12 6.36578e-05
106 *355:45 *641:12 0.000105841
107 *355:56 *641:12 0.000103974
108 *355:67 *2440:S1 6.71803e-06
109 *355:67 *641:10 0
110 *355:67 *641:12 9.11618e-05
111 *380:10 *2453:S1 0.00011632
112 *380:10 *641:77 7.30547e-05
113 *418:10 *641:10 6.75724e-05
114 *444:8 *641:50 0.000164874
115 *494:14 *2465:S1 0
116 *634:98 *641:143 0.00011852
117 *637:104 *2463:S1 0.000304903
118 *637:104 *641:42 9.46921e-05
119 *637:104 *641:110 6.47516e-05
120 *639:105 *641:143 6.95177e-05
121 *639:111 *641:40 3.86607e-05
*RES
1 *2834:X *641:10 10.7475 
2 *641:10 *641:12 9.525 
3 *641:12 *641:18 3.2075 
4 *641:18 *641:40 23.295 
5 *641:40 *641:42 11.07 
6 *641:42 *641:50 17.545 
7 *641:50 *2453:S1 7.83 
8 *641:50 *641:77 20.23 
9 *641:77 *2450:S1 3.6 
10 *641:77 *2465:S1 17.49 
11 *641:42 *2451:S1 3.6 
12 *641:40 *641:110 1.38 
13 *641:110 *2452:S1 3.6 
14 *641:110 *2463:S1 20.875 
15 *641:18 *2438:S1 1.6 
16 *641:12 *641:143 13.4475 
17 *641:143 *2441:S1 11.61 
18 *641:143 *2439:S1 7.155 
19 *641:10 *2440:S1 3.8325 
*END

*D_NET *642 0.0278416
*CONN
*I *2404:A I *D sky130_fd_sc_hd__xnor2_1
*I *2337:A_N I *D sky130_fd_sc_hd__and2b_1
*I *2339:A I *D sky130_fd_sc_hd__xor2_1
*I *2445:S1 I *D sky130_fd_sc_hd__mux4_1
*I *2447:S1 I *D sky130_fd_sc_hd__mux4_1
*I *2424:S1 I *D sky130_fd_sc_hd__mux4_1
*I *2834:A I *D sky130_fd_sc_hd__clkbuf_4
*I *2462:S1 I *D sky130_fd_sc_hd__mux4_1
*I *2444:S1 I *D sky130_fd_sc_hd__mux4_1
*I *2394:B1 I *D sky130_fd_sc_hd__a21oi_1
*I *2835:X O *D sky130_fd_sc_hd__clkbuf_4
*CAP
1 *2404:A 0
2 *2337:A_N 8.21484e-05
3 *2339:A 0
4 *2445:S1 7.90456e-05
5 *2447:S1 0.000707598
6 *2424:S1 0
7 *2834:A 0
8 *2462:S1 0.00237472
9 *2444:S1 0.00102679
10 *2394:B1 4.68494e-05
11 *2835:X 0.00010782
12 *642:137 0.000666037
13 *642:113 0.00191113
14 *642:101 0.00212283
15 *642:99 0.00116963
16 *642:64 0.00303285
17 *642:54 0.00145498
18 *642:37 0.00299061
19 *642:12 0.00148661
20 *642:6 0.00113578
21 *2394:B1 *2732:D 0
22 *2394:B1 *2733:CLK 0
23 *2444:S1 *657:104 0
24 *2462:S1 *2624:CLK 8.49205e-05
25 *2462:S1 *2624:RESET_B 0.000154806
26 *2462:S1 *651:103 2.96426e-05
27 *642:12 *2732:D 0
28 *642:12 *2733:CLK 0
29 *642:37 *2394:A1 3.61362e-05
30 *642:54 *664:28 6.81237e-05
31 *642:64 *664:10 2.15594e-05
32 *642:99 *2733:CLK 0.000276057
33 *642:99 *2737:D 0.000111371
34 *642:99 *2869:A 0.000121597
35 *642:99 *668:26 5.64143e-05
36 *642:99 *668:79 0.000112123
37 *642:99 *669:87 0
38 *642:99 *673:58 0
39 *642:99 *720:18 0.000120186
40 *642:101 *2621:CLK 7.75325e-05
41 *642:101 *2621:RESET_B 0
42 *642:101 *2731:D 0.000118513
43 *642:101 *647:27 0
44 *642:101 *668:26 6.65804e-05
45 *642:101 *673:58 0
46 *642:113 *647:27 0
47 *2337:B *2337:A_N 8.82557e-05
48 *2337:B *642:137 2.30292e-05
49 *2393:A *642:99 1.1561e-05
50 *2393:A *642:101 8.97642e-05
51 *2396:B *642:6 0.000149759
52 *2396:B *642:12 0.000232999
53 *2424:A2 *642:54 9.50342e-06
54 *2424:A2 *642:64 0.000127613
55 *2424:A3 *642:54 0
56 *2426:A1 *642:37 0.000213316
57 *2430:A0 *642:37 9.78012e-05
58 *2444:A3 *2444:S1 5.42473e-05
59 *2447:A0 *2447:S1 0.000194672
60 *2466:A2 *2462:S1 0.000283935
61 *2474:A0 *2444:S1 0
62 *2474:S *2444:S1 0.000562694
63 *2474:S *642:37 6.36578e-05
64 *2477:A0 *2462:S1 4.82863e-05
65 *2572:S *2462:S1 0.000378234
66 *2575:S *642:37 2.38557e-05
67 *2593:A0 *2444:S1 0
68 *2629:D *2444:S1 0
69 *2658:CLK *642:37 0.000347034
70 *2658:CLK *642:54 3.46272e-05
71 *2658:D *642:37 0.000124689
72 *2661:D *2445:S1 0
73 *2661:D *2447:S1 0
74 *2677:D *642:113 0.000122331
75 *2698:CLK *642:64 0.000171765
76 *2698:D *642:64 7.7152e-05
77 *2714:D *642:54 6.85082e-05
78 *2723:D *642:64 0.000318241
79 *2726:D *2444:S1 4.70343e-05
80 *2797:A *2444:S1 0
81 *2826:A *2444:S1 0
82 *2855:A *642:37 0.000235825
83 *2889:A *642:113 4.82919e-05
84 *2935:A *2462:S1 3.45588e-05
85 *219:14 *642:137 8.8266e-05
86 *222:12 *2337:A_N 4.99619e-05
87 *264:18 *642:37 0
88 *323:126 *2462:S1 0.000158577
89 *329:107 *642:54 0
90 *329:107 *642:64 0
91 *331:102 *2445:S1 0.000159957
92 *331:102 *2447:S1 0.000175207
93 *331:102 *642:37 0.000173378
94 *331:110 *2447:S1 4.9968e-05
95 *333:122 *642:113 6.0011e-05
96 *341:103 *2444:S1 0
97 *341:103 *642:37 0
98 *341:105 *2444:S1 0
99 *345:128 *2444:S1 0
100 *361:97 *642:54 7.53903e-05
101 *361:101 *642:54 9.36617e-05
102 *363:10 *2394:B1 8.57747e-05
103 *363:10 *642:12 0.000163071
104 *363:10 *642:99 0
105 *371:10 *642:113 0.000164874
106 *443:10 *642:113 6.29663e-05
107 *464:6 *642:64 0.000119756
108 *633:22 *642:37 2.64991e-05
109 *639:59 *642:99 0
110 *640:14 *642:12 0
*RES
1 *2835:X *642:6 3.085 
2 *642:6 *642:12 6.1925 
3 *642:12 *2394:B1 4.5975 
4 *642:12 *642:37 17.5243 
5 *642:37 *2444:S1 23.34 
6 *642:37 *642:54 14.365 
7 *642:54 *642:64 14.465 
8 *642:64 *2462:S1 37.58 
9 *642:64 *2834:A 1.6 
10 *642:54 *2424:S1 3.6 
11 *642:6 *642:99 17.15 
12 *642:99 *642:101 8.265 
13 *642:101 *642:113 22.99 
14 *642:113 *2447:S1 16.5375 
15 *642:113 *2445:S1 5.49 
16 *642:101 *642:137 11.075 
17 *642:137 *2339:A 1.6 
18 *642:137 *2337:A_N 3.43 
19 *642:99 *2404:A 3.6 
*END

*D_NET *643 0.0263824
*CONN
*I *2418:S1 I *D sky130_fd_sc_hd__mux4_1
*I *2459:S1 I *D sky130_fd_sc_hd__mux4_1
*I *2458:S1 I *D sky130_fd_sc_hd__mux4_1
*I *2420:S1 I *D sky130_fd_sc_hd__mux4_1
*I *2434:S1 I *D sky130_fd_sc_hd__mux4_1
*I *2464:S1 I *D sky130_fd_sc_hd__mux4_1
*I *2456:S1 I *D sky130_fd_sc_hd__mux4_1
*I *2432:S1 I *D sky130_fd_sc_hd__mux4_1
*I *2435:S1 I *D sky130_fd_sc_hd__mux4_1
*I *2433:S1 I *D sky130_fd_sc_hd__mux4_1
*I *2836:X O *D sky130_fd_sc_hd__clkbuf_4
*CAP
1 *2418:S1 2.82088e-05
2 *2459:S1 0.000706073
3 *2458:S1 0
4 *2420:S1 0
5 *2434:S1 0
6 *2464:S1 0.000326984
7 *2456:S1 0.000783151
8 *2432:S1 0.000282502
9 *2435:S1 0.000159529
10 *2433:S1 0.000550956
11 *2836:X 0
12 *643:157 0.00197178
13 *643:126 0.00192322
14 *643:116 0.00133739
15 *643:58 0.00139994
16 *643:41 0.0013755
17 *643:39 0.00197137
18 *643:31 0.00178744
19 *643:23 0.0020104
20 *643:4 0.000884947
21 *2433:S1 *2457:S1 0.000111302
22 *2433:S1 *644:49 3.99879e-05
23 *2456:S1 *646:27 3.41956e-05
24 *2456:S1 *646:42 3.98089e-05
25 *2464:S1 *2487:A1 0
26 *643:23 *644:49 7.67415e-06
27 *643:39 *2457:S1 0.000365222
28 *643:41 *2435:S0 3.633e-05
29 *643:41 *646:16 9.85662e-05
30 *643:116 *2619:RESET_B 0
31 *643:126 *670:80 0
32 *643:157 *2470:A1 1.16578e-05
33 *643:157 *2519:A1 3.77036e-05
34 *643:157 *2600:A0 7.23602e-05
35 *643:157 *666:28 0.000249928
36 *643:157 *667:51 4.82919e-05
37 *2418:A2 *643:116 5.13684e-05
38 *2418:A3 *643:126 0.000116645
39 *2420:A1 *643:157 0.000116165
40 *2432:A3 *2456:S1 0.000161801
41 *2433:A2 *2433:S1 1.70935e-05
42 *2435:A2 *2435:S1 3.96214e-05
43 *2435:A3 *2435:S1 3.59731e-05
44 *2436:A1 *2435:S1 3.1562e-06
45 *2436:A1 *643:39 0.000324794
46 *2436:A1 *643:41 0.000140197
47 *2436:A2 *2432:S1 4.7003e-05
48 *2437:A0 *643:31 6.59893e-05
49 *2437:S *643:23 3.67779e-05
50 *2437:S *643:116 2.60986e-05
51 *2456:A3 *2456:S1 0.000406771
52 *2458:A2 *2459:S1 5.53249e-06
53 *2458:A2 *643:157 7.63204e-05
54 *2459:A0 *2459:S1 3.64998e-06
55 *2460:A1 *2459:S1 0.00023635
56 *2460:S1 *643:39 4.28483e-05
57 *2464:A2 *2464:S1 4.55864e-06
58 *2496:A0 *643:157 0.000233792
59 *2496:S *643:157 1.36454e-05
60 *2558:A0 *2432:S1 0
61 *2589:S *2456:S1 0.000134373
62 *2592:A0 *643:126 0.000138544
63 *2606:S *2459:S1 7.9642e-06
64 *2607:S *2464:S1 0
65 *2616:S *643:58 0.00022921
66 *2619:D *643:31 3.81908e-06
67 *2619:D *643:116 0
68 *2640:D *2464:S1 0.000139245
69 *2641:D *643:126 0
70 *2641:D *643:157 0.000304474
71 *2643:CLK *643:31 3.86839e-05
72 *2643:D *643:31 0.00012343
73 *2647:D *2459:S1 0
74 *2666:CLK *643:23 3.64998e-06
75 *2666:D *643:23 0
76 *2675:CLK *2433:S1 0.000102411
77 *2724:D *2432:S1 5.98345e-05
78 *2747:D *643:116 3.83997e-05
79 *2779:CLK *643:157 0.0001249
80 *2823:A *643:116 0
81 *2846:A *2459:S1 0.000283844
82 *2854:A *643:39 0
83 *2870:A *643:126 0.00011579
84 *2874:A *643:41 0.000154098
85 *2875:A *643:126 0.000183738
86 *2895:A *643:126 1.86404e-05
87 *2905:A *2456:S1 9.17261e-05
88 *2942:A *2456:S1 0
89 *2950:A *2456:S1 0.00010991
90 *2997:A *643:157 0.000625089
91 *323:80 *643:157 5.3525e-05
92 *323:86 *643:157 6.00111e-05
93 *323:102 *643:157 2.05056e-05
94 *323:114 *2459:S1 0
95 *323:114 *643:157 0
96 *323:120 *2464:S1 0
97 *325:93 *643:39 0
98 *327:26 *643:157 4.66108e-05
99 *327:34 *643:126 0.00022921
100 *327:34 *643:157 0.000152807
101 *332:42 *643:157 6.19709e-05
102 *338:109 *2433:S1 0
103 *341:42 *643:126 4.68218e-05
104 *342:26 *2459:S1 0.000186992
105 *342:36 *2456:S1 6.21553e-05
106 *342:36 *2459:S1 0
107 *342:36 *643:58 0.000422766
108 *345:72 *2433:S1 0
109 *345:72 *643:23 0
110 *345:72 *643:116 0
111 *356:107 *2432:S1 0.00023178
112 *358:10 *643:116 0.000308375
113 *359:55 *643:116 0
114 *359:55 *643:126 0
115 *359:66 *643:126 0
116 *359:82 *643:157 0.000158072
117 *359:84 *643:157 0.000313846
118 *391:10 *643:157 3.39944e-05
119 *393:10 *643:31 1.98294e-05
120 *447:10 *643:116 0
121 *465:18 *2432:S1 2.04976e-05
122 *639:124 *643:39 6.23292e-05
*RES
1 *2836:X *643:4 1.6 
2 *643:4 *2433:S1 14.105 
3 *643:4 *643:23 7.4 
4 *643:23 *643:31 14.555 
5 *643:31 *643:39 16.705 
6 *643:39 *643:41 10.8 
7 *643:41 *2435:S1 7.7 
8 *643:41 *643:58 9.5 
9 *643:58 *2432:S1 12.205 
10 *643:58 *2456:S1 19.815 
11 *643:39 *2464:S1 11.315 
12 *643:31 *2434:S1 1.6 
13 *643:23 *643:116 11.37 
14 *643:116 *643:126 13.455 
15 *643:126 *2420:S1 3.6 
16 *643:126 *643:157 33.065 
17 *643:157 *2458:S1 3.6 
18 *643:157 *2459:S1 10.822 
19 *643:116 *2418:S1 4.05 
*END

*D_NET *644 0.023699
*CONN
*I *2427:S1 I *D sky130_fd_sc_hd__mux4_1
*I *2421:S1 I *D sky130_fd_sc_hd__mux4_1
*I *2419:S1 I *D sky130_fd_sc_hd__mux4_1
*I *2428:S1 I *D sky130_fd_sc_hd__mux4_1
*I *2836:A I *D sky130_fd_sc_hd__clkbuf_4
*I *2457:S1 I *D sky130_fd_sc_hd__mux4_1
*I *2395:B I *D sky130_fd_sc_hd__and3_1
*I *2837:X O *D sky130_fd_sc_hd__buf_2
*CAP
1 *2427:S1 0.000230411
2 *2421:S1 0.000617642
3 *2419:S1 0
4 *2428:S1 0
5 *2836:A 0
6 *2457:S1 0.00182156
7 *2395:B 0.000256202
8 *2837:X 0
9 *644:82 0.00111309
10 *644:49 0.00266391
11 *644:37 0.000908559
12 *644:35 0.00147897
13 *644:27 0.0026629
14 *644:6 0.00177139
15 *2395:B *2835:A 1.56428e-05
16 *2395:B *648:53 9.78082e-05
17 *2395:B *648:78 0.000363208
18 *2421:S1 *2421:S0 0.000107062
19 *2457:S1 *2434:S0 0
20 *2457:S1 *646:61 0
21 *2457:S1 *654:20 0
22 *644:27 *2764:RESET_B 0
23 *644:27 *2765:CLK 4.35432e-05
24 *644:27 *2765:D 0.000201508
25 *644:27 *648:78 0.000306143
26 *644:27 *669:100 0.000128545
27 *644:27 *672:40 0
28 *644:27 *721:8 0
29 *644:82 *664:54 5.73518e-05
30 *2395:C *2395:B 9.61344e-05
31 *2398:B *2395:B 0
32 *2411:B *2395:B 3.77799e-05
33 *2411:B *644:27 4.79067e-05
34 *2422:S0 *2421:S1 0.000247667
35 *2423:A1 *2421:S1 4.61658e-05
36 *2427:A2 *2427:S1 2.20665e-05
37 *2428:A0 *644:49 7.53048e-05
38 *2428:A1 *644:49 6.13162e-05
39 *2428:A2 *644:49 0.000261093
40 *2429:A1 *2427:S1 0.000345934
41 *2429:A1 *644:27 7.23533e-05
42 *2429:S *644:27 0.000281843
43 *2433:S1 *2457:S1 0.000111302
44 *2433:S1 *644:49 3.99879e-05
45 *2436:A1 *2457:S1 0.000331331
46 *2460:A0 *2457:S1 3.45679e-05
47 *2538:S *2421:S1 0.000749075
48 *2538:S *644:82 0.00106634
49 *2580:S *2457:S1 5.05521e-05
50 *2602:A1 *2457:S1 9.68787e-05
51 *2607:S *2457:S1 0
52 *2634:CLK *644:35 2.49909e-05
53 *2634:D *644:35 1.54049e-05
54 *2663:D *2457:S1 0.000134375
55 *2666:CLK *644:49 8.65961e-05
56 *2666:D *644:49 0.000168621
57 *2679:CLK *2457:S1 0
58 *2681:CLK *2421:S1 2.98926e-05
59 *2681:D *2421:S1 3.2291e-05
60 *2781:D *2457:S1 0
61 *2879:A *2457:S1 0.000558866
62 *2894:A *2457:S1 0
63 *2898:A *644:82 0.000468933
64 *2987:A *644:35 0.000275553
65 *264:20 *2421:S1 6.28765e-05
66 *264:20 *644:82 0
67 *268:21 *2395:B 0
68 *323:114 *2457:S1 0
69 *323:120 *2457:S1 0
70 *325:34 *2427:S1 3.32246e-05
71 *333:98 *644:27 1.06624e-05
72 *334:12 *2421:S1 0.000369656
73 *338:22 *2427:S1 0.000229897
74 *338:22 *644:27 7.06865e-05
75 *376:6 *644:49 0.000232105
76 *400:10 *644:35 8.20569e-05
77 *409:8 *2457:S1 0.000179922
78 *637:30 *2421:S1 0.000670325
79 *637:30 *644:82 0.000668112
80 *639:59 *2395:B 0
81 *643:23 *644:49 7.67415e-06
82 *643:39 *2457:S1 0.000365222
*RES
1 *2837:X *644:6 3.6 
2 *644:6 *2395:B 9.51 
3 *644:6 *644:27 25.03 
4 *644:27 *644:35 14.12 
5 *644:35 *644:37 1.485 
6 *644:37 *644:49 15.54 
7 *644:49 *2457:S1 40.835 
8 *644:49 *2836:A 1.6 
9 *644:37 *2428:S1 1.6 
10 *644:35 *644:82 18.41 
11 *644:82 *2419:S1 3.6 
12 *644:82 *2421:S1 24.955 
13 *644:27 *2427:S1 9.465 
*END

*D_NET *645 0.0249613
*CONN
*I *2440:S0 I *D sky130_fd_sc_hd__mux4_1
*I *2438:S0 I *D sky130_fd_sc_hd__mux4_1
*I *2441:S0 I *D sky130_fd_sc_hd__mux4_1
*I *2451:S0 I *D sky130_fd_sc_hd__mux4_1
*I *2453:S0 I *D sky130_fd_sc_hd__mux4_1
*I *2463:S0 I *D sky130_fd_sc_hd__mux4_1
*I *2462:S0 I *D sky130_fd_sc_hd__mux4_1
*I *2465:S0 I *D sky130_fd_sc_hd__mux4_1
*I *2452:S0 I *D sky130_fd_sc_hd__mux4_1
*I *2450:S0 I *D sky130_fd_sc_hd__mux4_1
*I *2838:X O *D sky130_fd_sc_hd__buf_4
*CAP
1 *2440:S0 0.000442998
2 *2438:S0 3.46704e-05
3 *2441:S0 0.000899717
4 *2451:S0 2.2568e-05
5 *2453:S0 0.000892044
6 *2463:S0 0.000115243
7 *2462:S0 0.00065727
8 *2465:S0 0.000279274
9 *2452:S0 0
10 *2450:S0 0.000676439
11 *2838:X 1.88774e-05
12 *645:162 0.000777608
13 *645:145 0.00127279
14 *645:121 0.00143394
15 *645:72 0.00146965
16 *645:68 0.00107224
17 *645:55 0.000482346
18 *645:30 0.00100403
19 *645:18 0.00193377
20 *645:6 0.00123732
21 *2440:S0 *650:32 0.000524744
22 *2441:S0 *2439:S0 0
23 *2450:S0 *2597:A1 5.44107e-05
24 *2450:S0 *655:75 0.000113809
25 *2462:S0 *651:44 5.36279e-05
26 *2462:S0 *651:59 0.000122797
27 *645:18 *2624:RESET_B 7.23961e-06
28 *645:18 *661:10 7.59737e-05
29 *645:18 *661:47 2.05583e-05
30 *645:72 *2581:A0 7.81541e-05
31 *645:121 *2515:A1 0
32 *645:121 *2624:CLK 0
33 *645:145 *2439:S0 0.000158965
34 *645:162 *650:32 0
35 *2439:A2 *2441:S0 0
36 *2439:A3 *2441:S0 0
37 *2442:A0 *2441:S0 0.000279184
38 *2442:A0 *645:145 4.82919e-05
39 *2442:A0 *645:162 8.73147e-06
40 *2442:A1 *2441:S0 0
41 *2442:A1 *645:145 8.40269e-05
42 *2451:A2 *645:121 0
43 *2451:A3 *2453:S0 0
44 *2452:A3 *645:55 3.38982e-05
45 *2452:A3 *645:68 2.15738e-05
46 *2453:A3 *2453:S0 4.66108e-05
47 *2454:A1 *2450:S0 0.000120655
48 *2454:A2 *2450:S0 0.000375728
49 *2454:A2 *645:18 3.25891e-06
50 *2454:A2 *645:30 9.09197e-05
51 *2454:A3 *645:121 5.39961e-05
52 *2455:S *645:18 0
53 *2462:A1 *2462:S0 0.00015817
54 *2463:A3 *2463:S0 3.05373e-05
55 *2463:S1 *645:68 0
56 *2465:A1 *2465:S0 4.77757e-05
57 *2466:A1 *2463:S0 1.01661e-05
58 *2485:S *2463:S0 0.000125533
59 *2485:S *645:68 9.32634e-05
60 *2513:S *2441:S0 0
61 *2515:S *2441:S0 0
62 *2524:A0 *2453:S0 0.00023468
63 *2535:S *2440:S0 0.000139238
64 *2544:S *2465:S0 8.00491e-05
65 *2559:S *645:162 5.46811e-05
66 *2577:S *2451:S0 3.25591e-05
67 *2581:A1 *645:72 0.0001249
68 *2581:S *645:72 4.66108e-05
69 *2588:S *2462:S0 0.000273695
70 *2590:A0 *2462:S0 4.4196e-05
71 *2605:S *645:30 0.000268745
72 *2614:S *2441:S0 5.21714e-05
73 *2616:A0 *2462:S0 1.31227e-05
74 *2616:S *2462:S0 0.000591459
75 *2644:D *2440:S0 1.07797e-05
76 *2662:D *2453:S0 0
77 *2678:D *2453:S0 7.88393e-05
78 *2678:D *645:121 5.51158e-05
79 *2700:D *645:18 8.53113e-06
80 *2720:CLK *2462:S0 3.64998e-06
81 *2720:D *645:72 3.94592e-05
82 *2729:D *2462:S0 8.52845e-05
83 *2813:A *645:72 0.000374457
84 *2852:A *645:18 7.3039e-05
85 *2880:A *2450:S0 9.33406e-05
86 *2880:A *645:55 5.28781e-05
87 *2882:A *2441:S0 0.000291372
88 *2883:A *2463:S0 8.07785e-05
89 *2883:A *645:68 7.44375e-05
90 *2891:A *2441:S0 0
91 *2968:A *2453:S0 2.75229e-05
92 *2984:A *2441:S0 0
93 *3001:A *645:30 0.000268745
94 *332:92 *2453:S0 0.00104368
95 *337:30 *2440:S0 0
96 *337:30 *645:162 0.000105783
97 *339:40 *645:72 0.00015639
98 *339:44 *2450:S0 0.000178321
99 *339:44 *645:55 0.000175207
100 *339:44 *645:68 0.000539035
101 *353:6 *2465:S0 8.35068e-05
102 *353:6 *645:72 4.66108e-05
103 *353:22 *2462:S0 2.92496e-05
104 *353:80 *2462:S0 0.000175207
105 *353:95 *2462:S0 6.68849e-05
106 *354:32 *645:121 0
107 *354:40 *2453:S0 0
108 *354:42 *2453:S0 0
109 *386:14 *2441:S0 0
110 *428:10 *2453:S0 0
111 *637:104 *645:30 9.14049e-05
112 *637:104 *645:121 0
113 *639:105 *645:18 0.00070754
114 *639:105 *645:145 5.49503e-05
115 *639:111 *645:121 3.05295e-05
116 *641:42 *645:30 9.30717e-05
117 *641:42 *645:121 0
118 *641:50 *2453:S0 0
119 *641:77 *2450:S0 0.000244231
*RES
1 *2838:X *645:6 1.96 
2 *645:6 *645:18 19.75 
3 *645:18 *645:30 11.82 
4 *645:30 *2450:S0 18.63 
5 *645:30 *645:55 2.145 
6 *645:55 *2452:S0 3.6 
7 *645:55 *645:68 9.51 
8 *645:68 *645:72 11.765 
9 *645:72 *2465:S0 5.845 
10 *645:72 *2462:S0 28.63 
11 *645:68 *2463:S0 6.705 
12 *645:18 *645:121 11.03 
13 *645:121 *2453:S0 21.15 
14 *645:121 *2451:S0 4.05 
15 *645:6 *645:145 4.175 
16 *645:145 *2441:S0 20.22 
17 *645:145 *645:162 6.98 
18 *645:162 *2438:S0 2.05 
19 *645:162 *2440:S0 16.415 
*END

*D_NET *646 0.0243788
*CONN
*I *2464:S0 I *D sky130_fd_sc_hd__mux4_1
*I *2458:S0 I *D sky130_fd_sc_hd__mux4_1
*I *2459:S0 I *D sky130_fd_sc_hd__mux4_1
*I *2456:S0 I *D sky130_fd_sc_hd__mux4_1
*I *2420:S0 I *D sky130_fd_sc_hd__mux4_1
*I *2418:S0 I *D sky130_fd_sc_hd__mux4_1
*I *2457:S0 I *D sky130_fd_sc_hd__mux4_1
*I *2434:S0 I *D sky130_fd_sc_hd__mux4_1
*I *2432:S0 I *D sky130_fd_sc_hd__mux4_1
*I *2435:S0 I *D sky130_fd_sc_hd__mux4_1
*I *2839:X O *D sky130_fd_sc_hd__buf_4
*CAP
1 *2464:S0 0.000621385
2 *2458:S0 0.00107517
3 *2459:S0 0.000125866
4 *2456:S0 0.000213836
5 *2420:S0 0.00025234
6 *2418:S0 0.000198234
7 *2457:S0 2.44314e-05
8 *2434:S0 0.000472901
9 *2432:S0 3.66918e-05
10 *2435:S0 2.96973e-05
11 *2839:X 0
12 *646:141 0.00164172
13 *646:120 0.0010282
14 *646:82 0.00140093
15 *646:61 0.00110655
16 *646:48 0.00159084
17 *646:42 0.00172473
18 *646:27 0.000804223
19 *646:16 0.00085127
20 *646:6 0.0010403
21 *2418:S0 *2619:RESET_B 0.000202683
22 *2418:S0 *670:80 2.92496e-05
23 *2420:S0 *2583:A0 0.000134837
24 *2420:S0 *2619:RESET_B 0.000153566
25 *2420:S0 *670:80 0.00085125
26 *2458:S0 *2486:A1 1.12578e-05
27 *2458:S0 *2606:A0 0
28 *2458:S0 *653:105 1.82667e-05
29 *2458:S0 *653:112 0.000308362
30 *2464:S0 *2607:A0 0.000118651
31 *646:16 *2607:A0 9.30717e-05
32 *646:16 *2839:A 1.01661e-05
33 *646:42 *2589:A1 7.06865e-05
34 *646:48 *654:32 7.99079e-05
35 *646:61 *654:20 0.000137578
36 *646:82 *2534:A0 3.1562e-06
37 *646:82 *654:20 6.85516e-05
38 *646:82 *670:80 8.23457e-05
39 *646:120 *2589:A1 0.000288524
40 *646:120 *653:71 0.000177561
41 *2418:A1 *646:82 8.40269e-05
42 *2434:A1 *2434:S0 8.53113e-06
43 *2434:A2 *2434:S0 4.82863e-05
44 *2434:A3 *2434:S0 1.1392e-05
45 *2436:A1 *2435:S0 0.000122797
46 *2436:A1 *646:16 0.000565923
47 *2436:A2 *2432:S0 0.000121643
48 *2456:A1 *646:120 0.00019735
49 *2456:A2 *646:120 1.26747e-05
50 *2456:S1 *646:27 3.41956e-05
51 *2456:S1 *646:42 3.98089e-05
52 *2457:S1 *2434:S0 0
53 *2457:S1 *646:61 0
54 *2459:A0 *2458:S0 3.48035e-05
55 *2459:A0 *646:141 4.49263e-05
56 *2459:A3 *646:141 0.000224487
57 *2461:A1 *2420:S0 0.000483941
58 *2466:A3 *2464:S0 8.33886e-05
59 *2476:A0 *2458:S0 2.73736e-05
60 *2482:A0 *2434:S0 4.40085e-05
61 *2485:S *2464:S0 9.14049e-05
62 *2516:A0 *2434:S0 7.09999e-05
63 *2580:S *2457:S0 3.00355e-05
64 *2580:S *646:82 9.18083e-05
65 *2598:A0 *2456:S0 0
66 *2598:A0 *646:120 0.000187759
67 *2615:S *2458:S0 4.66108e-05
68 *2640:CLK *646:16 0.000116621
69 *2647:D *2458:S0 0.000164448
70 *2648:CLK *2464:S0 9.36617e-05
71 *2648:D *2464:S0 0.00011923
72 *2663:D *2434:S0 0
73 *2679:D *646:48 0.000394207
74 *2687:D *2459:S0 7.42989e-06
75 *2689:D *646:82 8.84163e-05
76 *2711:D *646:48 0.000200765
77 *2747:D *2418:S0 3.89851e-05
78 *2749:D *646:27 0.000197329
79 *2749:D *646:42 9.03138e-05
80 *2786:D *2464:S0 0.000160856
81 *2786:D *646:16 4.5783e-05
82 *2854:A *2434:S0 0.000404416
83 *2870:A *646:82 7.23635e-05
84 *2874:A *646:16 0.000270415
85 *2893:A *646:141 0.000116853
86 *2894:A *2434:S0 0.000289004
87 *2915:A *646:82 7.22354e-05
88 *2942:A *646:42 0.000112182
89 *2942:A *646:120 8.69612e-05
90 *2960:A *2458:S0 0.000194794
91 *28:17 *2464:S0 1.1392e-05
92 *323:102 *2458:S0 9.44293e-05
93 *323:114 *2458:S0 4.82863e-05
94 *323:120 *646:16 0
95 *325:83 *2434:S0 0
96 *325:83 *646:61 0
97 *325:83 *646:82 0
98 *332:42 *2458:S0 3.21182e-05
99 *334:66 *646:16 0
100 *337:95 *2434:S0 1.0121e-05
101 *340:100 *646:27 8.6514e-05
102 *340:100 *646:42 0.000251968
103 *340:110 *646:27 0.000243952
104 *341:59 *646:16 0
105 *342:36 *2432:S0 3.31178e-05
106 *342:36 *646:42 0
107 *356:24 *646:16 8.34426e-05
108 *357:12 *646:48 5.81284e-05
109 *357:26 *646:48 1.71034e-05
110 *373:12 *646:61 6.02123e-05
111 *373:12 *646:82 6.76534e-05
112 *453:12 *2456:S0 3.60024e-06
113 *471:8 *646:82 1.74678e-05
114 *643:41 *2435:S0 3.633e-05
115 *643:41 *646:16 9.85662e-05
*RES
1 *2839:X *646:6 3.6 
2 *646:6 *646:16 13.715 
3 *646:16 *2435:S0 2.74 
4 *646:16 *646:27 10.265 
5 *646:27 *2432:S0 4.74 
6 *646:27 *646:42 7.8 
7 *646:42 *646:48 16.18 
8 *646:48 *2434:S0 14.1 
9 *646:48 *646:61 2.655 
10 *646:61 *2457:S0 4.05 
11 *646:61 *646:82 17.17 
12 *646:82 *2418:S0 7.455 
13 *646:82 *2420:S0 13.65 
14 *646:42 *646:120 12.535 
15 *646:120 *2456:S0 5.59107 
16 *646:120 *646:141 8.3325 
17 *646:141 *2459:S0 4.9725 
18 *646:141 *2458:S0 24.0325 
19 *646:6 *2464:S0 17.485 
*END

*D_NET *647 0.020461
*CONN
*I *2392:A I *D sky130_fd_sc_hd__and2_1
*I *2340:A1 I *D sky130_fd_sc_hd__a21oi_1
*I *2445:S0 I *D sky130_fd_sc_hd__mux4_1
*I *2424:S0 I *D sky130_fd_sc_hd__mux4_1
*I *2394:A1 I *D sky130_fd_sc_hd__a21oi_1
*I *2425:S0 I *D sky130_fd_sc_hd__mux4_1
*I *2446:S0 I *D sky130_fd_sc_hd__mux4_1
*I *2444:S0 I *D sky130_fd_sc_hd__mux4_1
*I *2447:S0 I *D sky130_fd_sc_hd__mux4_1
*I *2391:A I *D sky130_fd_sc_hd__nor2_1
*I *2840:X O *D sky130_fd_sc_hd__clkbuf_4
*CAP
1 *2392:A 0
2 *2340:A1 0.000596384
3 *2445:S0 0.000283366
4 *2424:S0 0.000564399
5 *2394:A1 0.000675452
6 *2425:S0 1.39988e-05
7 *2446:S0 0
8 *2444:S0 0.000250475
9 *2447:S0 0.000952794
10 *2391:A 0.000265664
11 *2840:X 0
12 *647:89 0.00129447
13 *647:78 0.000713174
14 *647:67 0.0010087
15 *647:41 0.00160488
16 *647:35 0.00122262
17 *647:29 0.00166105
18 *647:27 0.00192825
19 *647:21 0.000558073
20 *647:4 0.000412696
21 *2391:A *2731:D 8.40213e-05
22 *2391:A *668:26 2.34423e-05
23 *2394:A1 *669:87 5.89912e-05
24 *2424:S0 *2566:A0 0.000229536
25 *2424:S0 *2566:A1 4.76263e-05
26 *2425:S0 *2425:S1 4.82919e-05
27 *2444:S0 *658:10 0
28 *2445:S0 *669:44 0
29 *2447:S0 *2596:A1 0
30 *647:21 *2840:A 1.19928e-05
31 *647:27 *2338:A 0
32 *647:27 *2621:RESET_B 1.01661e-05
33 *647:27 *2842:A 0
34 *647:27 *648:20 0.000296088
35 *647:67 *658:51 0
36 *647:78 *2446:S1 0
37 *647:78 *2484:A0 0
38 *2391:B *2391:A 0.000160651
39 *2392:B *2391:A 0.000301306
40 *2392:B *647:21 0.000168614
41 *2425:A0 *647:78 0
42 *2425:A0 *647:89 0
43 *2425:A3 *2424:S0 1.50624e-05
44 *2425:A3 *647:89 4.74882e-05
45 *2426:A0 *2425:S0 1.4399e-05
46 *2426:A1 *2424:S0 0.00054384
47 *2444:A0 *2444:S0 4.82863e-05
48 *2446:A0 *647:67 0
49 *2446:A1 *647:78 0
50 *2446:A2 *647:78 4.58014e-05
51 *2446:A3 *647:78 7.35443e-05
52 *2448:A0 *647:35 3.67779e-05
53 *2448:A0 *647:67 3.86607e-05
54 *2448:A1 *647:35 3.86529e-05
55 *2448:A1 *647:67 2.15594e-05
56 *2484:S *647:78 0.000252673
57 *2494:S *2391:A 0
58 *2560:A0 *647:41 4.82919e-05
59 *2578:S *647:67 0
60 *2578:S *647:78 0
61 *2587:A0 *647:67 9.62357e-05
62 *2706:D *2424:S0 0.000505668
63 *2709:D *2447:S0 0
64 *2717:D *2447:S0 0.000138544
65 *2855:A *2394:A1 0.00045101
66 *2886:A *2445:S0 0.00033351
67 *2952:A *2447:S0 0
68 *2956:A *2445:S0 0
69 *2958:A *2424:S0 3.96653e-05
70 *2961:A *647:78 0.000108569
71 *2964:A *647:67 0
72 *2985:A *2447:S0 0.000160658
73 *221:18 *2340:A1 2.11084e-05
74 *325:34 *647:78 8.18098e-05
75 *325:34 *647:89 5.11148e-06
76 *327:103 *2424:S0 0
77 *327:103 *647:89 0
78 *333:108 *2445:S0 0.000231518
79 *338:22 *2424:S0 3.74161e-05
80 *338:32 *2424:S0 0.000230435
81 *338:44 *2447:S0 0.000112971
82 *341:105 *2444:S0 0
83 *347:47 *2447:S0 0
84 *347:49 *2447:S0 0
85 *347:55 *2447:S0 0
86 *371:10 *2445:S0 0
87 *432:6 *2424:S0 4.21973e-05
88 *443:10 *2445:S0 8.53113e-06
89 *491:10 *2447:S0 8.53113e-06
90 *551:26 *2394:A1 8.23457e-05
91 *634:52 *2394:A1 6.06649e-05
92 *634:78 *2444:S0 1.4389e-05
93 *634:136 *2391:A 4.82919e-05
94 *637:62 *647:67 0
95 *637:62 *647:78 0
96 *637:90 *647:41 0.000501226
97 *639:73 *2445:S0 2.86623e-05
98 *639:73 *647:29 4.21973e-05
99 *639:73 *647:35 0.000361361
100 *642:37 *2394:A1 3.61362e-05
101 *642:101 *647:27 0
102 *642:113 *647:27 0
*RES
1 *2840:X *647:4 1.6 
2 *647:4 *2391:A 11.21 
3 *647:4 *647:21 2.535 
4 *647:21 *647:27 11.5 
5 *647:27 *647:29 10.11 
6 *647:29 *647:35 8.495 
7 *647:35 *647:41 9.28 
8 *647:41 *2447:S0 19.26 
9 *647:41 *2444:S0 7.35 
10 *647:35 *647:67 6.48 
11 *647:67 *2446:S0 3.6 
12 *647:67 *647:78 13.14 
13 *647:78 *2425:S0 4.05 
14 *647:78 *647:89 1.2525 
15 *647:89 *2394:A1 7.51563 
16 *647:89 *2424:S0 18.0675 
17 *647:29 *2445:S0 12.335 
18 *647:27 *2340:A1 8.26 
19 *647:21 *2392:A 1.6 
*END

*D_NET *648 0.0244739
*CONN
*I *2427:S0 I *D sky130_fd_sc_hd__mux4_1
*I *2421:S0 I *D sky130_fd_sc_hd__mux4_1
*I *2419:S0 I *D sky130_fd_sc_hd__mux4_1
*I *2428:S0 I *D sky130_fd_sc_hd__mux4_1
*I *2395:A I *D sky130_fd_sc_hd__and3_1
*I *2840:A I *D sky130_fd_sc_hd__clkbuf_4
*I *2356:A I *D sky130_fd_sc_hd__and3_1
*I *2359:A I *D sky130_fd_sc_hd__xor2_1
*I *2841:X O *D sky130_fd_sc_hd__clkbuf_4
*CAP
1 *2427:S0 9.98248e-05
2 *2421:S0 0.000515667
3 *2419:S0 0.000167044
4 *2428:S0 0.00039471
5 *2395:A 0
6 *2840:A 0.000105758
7 *2356:A 5.5728e-05
8 *2359:A 0
9 *2841:X 0
10 *648:117 0.00166902
11 *648:86 0.00161045
12 *648:78 0.00202391
13 *648:53 0.00246428
14 *648:20 0.00113518
15 *648:8 0.00129134
16 *648:6 0.000875754
17 *648:8 *2842:A 0
18 *648:8 *673:58 0.000195244
19 *648:8 *719:10 0
20 *648:20 *2338:A 5.05521e-05
21 *648:20 *2621:RESET_B 4.84393e-05
22 *648:20 *2842:A 0
23 *648:20 *673:58 0.000252282
24 *648:53 *2338:A 0
25 *648:53 *2405:B 0
26 *648:53 *2774:D 9.5433e-05
27 *648:53 *2774:RESET_B 0.000103557
28 *648:53 *2837:A 2.23922e-05
29 *648:53 *673:58 0.000152821
30 *648:53 *673:74 0.00011686
31 *648:53 *705:12 0.000183738
32 *648:53 *705:40 0.000237362
33 *648:53 *719:10 0
34 *648:53 *753:10 0
35 *648:78 *2765:CLK 6.47326e-05
36 *648:78 *2765:D 3.99879e-05
37 *648:78 *2837:A 0.000327903
38 *648:78 *669:100 8.67385e-05
39 *648:78 *672:40 0
40 *648:78 *707:23 8.40213e-05
41 *648:78 *721:8 0
42 *648:117 *666:106 3.28128e-05
43 *2340:B1 *2356:A 0
44 *2356:C *2356:A 0.00011964
45 *2360:A3 *2356:A 4.99619e-05
46 *2392:B *2840:A 0.000271522
47 *2393:B *2840:A 0.000203178
48 *2395:B *648:53 9.78082e-05
49 *2395:B *648:78 0.000363208
50 *2395:C *648:53 4.5783e-05
51 *2411:B *648:78 5.53249e-06
52 *2419:A1 *2419:S0 1.56428e-05
53 *2421:S1 *2421:S0 0.000107062
54 *2422:A0 *648:117 7.29422e-05
55 *2422:S0 *2421:S0 0.000239136
56 *2428:A1 *2428:S0 0
57 *2429:A0 *648:86 0.000990502
58 *2429:S *648:78 0.000134314
59 *2430:A1 *648:78 4.43871e-06
60 *2449:A0 *648:20 2.84703e-05
61 *2516:S *2419:S0 2.75145e-05
62 *2528:A0 *648:117 9.40228e-05
63 *2534:S *2419:S0 7.71615e-05
64 *2534:S *648:117 9.85703e-06
65 *2634:CLK *648:86 0.000932031
66 *2657:CLK *648:117 1.08758e-05
67 *2657:D *648:117 0.000184674
68 *2673:D *648:117 0.000305145
69 *2681:D *2421:S0 8.89673e-05
70 *2953:A *2428:S0 0.000168495
71 *2998:A *2421:S0 9.86611e-05
72 *3032:A *648:20 0.000219015
73 *221:14 *648:20 0
74 *222:12 *648:20 7.70938e-05
75 *223:14 *2356:A 9.21168e-05
76 *223:14 *648:20 0
77 *225:12 *648:20 0
78 *264:20 *2419:S0 0.00017245
79 *264:20 *2421:S0 0
80 *264:20 *2428:S0 0.000103817
81 *325:34 *2427:S0 0.000288997
82 *325:34 *648:78 9.61344e-05
83 *333:12 *648:117 0
84 *333:46 *2427:S0 0.000150004
85 *333:46 *648:78 3.05295e-05
86 *333:58 *648:78 0
87 *333:58 *648:86 1.61831e-05
88 *333:98 *648:78 0.00063737
89 *333:98 *648:86 3.45588e-05
90 *334:12 *2421:S0 5.12772e-05
91 *336:10 *2419:S0 9.0949e-05
92 *337:26 *2419:S0 0.000153816
93 *340:10 *648:117 6.53409e-05
94 *340:16 *648:117 0.000643905
95 *345:152 *648:78 0
96 *349:16 *648:117 0
97 *361:12 *2428:S0 0.000304474
98 *361:75 *2428:S0 4.82919e-05
99 *361:75 *648:86 9.53428e-06
100 *384:10 *2428:S0 4.00949e-05
101 *634:40 *648:53 8.25609e-05
102 *637:30 *2421:S0 0.000510096
103 *637:30 *648:117 0.00069098
104 *639:59 *648:53 0
105 *644:27 *648:78 0.000306143
106 *647:21 *2840:A 1.19928e-05
107 *647:27 *648:20 0.000296088
*RES
1 *2841:X *648:6 3.6 
2 *648:6 *648:8 2.4 
3 *648:8 *648:20 23.355 
4 *648:20 *2359:A 1.6 
5 *648:20 *2356:A 3.79 
6 *648:8 *2840:A 6.93 
7 *648:6 *648:53 15.72 
8 *648:53 *2395:A 3.6 
9 *648:53 *648:78 33.935 
10 *648:78 *648:86 12.23 
11 *648:86 *2428:S0 12.365 
12 *648:86 *648:117 26.86 
13 *648:117 *2419:S0 10.025 
14 *648:117 *2421:S0 18.2 
15 *648:78 *2427:S0 7.02 
*END

*D_NET *649 0.00119288
*CONN
*I *2349:A_N I *D sky130_fd_sc_hd__and3b_1
*I *2350:B1_N I *D sky130_fd_sc_hd__a21bo_1
*I *3019:X O *D sky130_fd_sc_hd__clkbuf_1
*CAP
1 *2349:A_N 0
2 *2350:B1_N 0.000120628
3 *3019:X 0.000196988
4 *649:14 0.000317616
5 *649:14 *678:10 0
6 aempty *649:14 0.00011852
7 rd_data[4] *649:14 0
8 *2349:B *2350:B1_N 2.96334e-05
9 *2349:C *2350:B1_N 0.000124895
10 *2363:B1 *2350:B1_N 4.99619e-05
11 *3019:A *649:14 6.99562e-05
12 *3024:A *649:14 0.000164679
*RES
1 *3019:X *649:14 9.92 
2 *649:14 *2350:B1_N 4.12 
3 *649:14 *2349:A_N 1.6 
*END

*D_NET *650 0.01959
*CONN
*I *2841:A I *D sky130_fd_sc_hd__clkbuf_4
*I *2433:S0 I *D sky130_fd_sc_hd__mux4_1
*I *2839:A I *D sky130_fd_sc_hd__buf_4
*I *2838:A I *D sky130_fd_sc_hd__buf_4
*I *2439:S0 I *D sky130_fd_sc_hd__mux4_1
*I *2842:X O *D sky130_fd_sc_hd__clkbuf_2
*CAP
1 *2841:A 0
2 *2433:S0 0
3 *2839:A 0.0013221
4 *2838:A 0
5 *2439:S0 0.000751392
6 *2842:X 9.57824e-05
7 *650:66 0.00215289
8 *650:32 0.00137016
9 *650:30 0.00404424
10 *650:6 0.00269046
11 *2839:A *2530:A1 0
12 *650:6 *669:28 0.000198046
13 *650:30 *669:28 0.000262147
14 *650:30 *669:44 9.09288e-05
15 *650:66 *2530:A0 5.13155e-05
16 *650:66 *2530:A1 0.000194694
17 *2391:B *650:30 4.91041e-05
18 *2404:B *650:30 2.16917e-05
19 *2433:A0 *2839:A 0
20 *2433:A0 *650:66 4.82863e-05
21 *2433:A2 *2839:A 5.82049e-05
22 *2433:A3 *2839:A 5.24926e-05
23 *2433:A3 *650:66 0
24 *2436:A0 *2839:A 1.555e-05
25 *2439:A2 *2439:S0 0
26 *2439:A3 *2439:S0 1.43521e-05
27 *2440:A0 *650:30 9.66021e-05
28 *2440:S0 *650:32 0.000524744
29 *2441:S0 *2439:S0 0
30 *2442:A0 *2439:S0 2.25119e-05
31 *2442:A1 *2439:S0 4.92861e-05
32 *2442:A3 *650:30 6.16141e-05
33 *2446:A3 *650:30 0.000234674
34 *2474:A0 *650:30 5.43869e-05
35 *2513:A0 *2439:S0 0.000318473
36 *2535:S *650:30 1.90772e-05
37 *2535:S *650:32 5.98004e-06
38 *2535:S *650:66 0.000506828
39 *2607:S *2839:A 9.92583e-05
40 *2640:CLK *2839:A 5.83121e-06
41 *2640:D *2839:A 0.000168621
42 *2659:D *2839:A 7.5416e-05
43 *2675:D *650:66 4.94404e-05
44 *2707:CLK *2839:A 0.000276662
45 *2715:D *2839:A 1.54049e-05
46 *2786:D *2839:A 0.000117825
47 *2892:A *650:30 2.49909e-05
48 *2912:A *650:30 0.000182343
49 *2961:A *650:30 0.000243708
50 *2975:A *650:32 0.000335163
51 *2992:A *2439:S0 2.68721e-05
52 *3000:A *650:66 9.2041e-05
53 *265:6 *650:30 1.91597e-05
54 *323:120 *2839:A 7.63125e-05
55 *331:102 *650:30 0.000427489
56 *333:108 *650:30 1.52776e-05
57 *342:77 *2439:S0 0.000122539
58 *348:36 *650:30 0.000307049
59 *406:8 *2839:A 9.43648e-05
60 *418:10 *650:32 7.70758e-05
61 *441:12 *2839:A 0.000308719
62 *633:22 *650:30 0.000125533
63 *634:98 *650:32 6.36578e-05
64 *639:59 *650:30 8.97564e-05
65 *639:105 *2439:S0 0.000238601
66 *641:10 *650:32 1.58525e-06
67 *641:10 *650:66 0.000255923
68 *641:12 *650:32 0
69 *641:143 *2439:S0 7.27402e-06
70 *641:143 *650:32 9.89501e-05
71 *645:145 *2439:S0 0.000158965
72 *645:162 *650:32 0
73 *646:16 *2839:A 1.01661e-05
*RES
1 *2842:X *650:6 3.43 
2 *650:6 *650:30 49.8525 
3 *650:30 *650:32 14.9325 
4 *650:32 *2439:S0 20.815 
5 *650:32 *2838:A 3.6 
6 *650:30 *650:66 21.6425 
7 *650:66 *2839:A 31.305 
8 *650:66 *2433:S0 1.6 
9 *650:6 *2841:A 1.6 
*END

*D_NET *651 0.0123143
*CONN
*I *2599:A1 I *D sky130_fd_sc_hd__mux2_1
*I *2487:A1 I *D sky130_fd_sc_hd__mux2_1
*I *2477:A1 I *D sky130_fd_sc_hd__mux2_1
*I *2544:A1 I *D sky130_fd_sc_hd__mux2_1
*I *2526:A1 I *D sky130_fd_sc_hd__mux2_1
*I *2554:A0 I *D sky130_fd_sc_hd__mux2_1
*I *2507:A0 I *D sky130_fd_sc_hd__mux2_1
*I *2616:A1 I *D sky130_fd_sc_hd__mux2_1
*I *2590:A1 I *D sky130_fd_sc_hd__mux2_1
*I *2563:A1 I *D sky130_fd_sc_hd__mux2_1
*I *2843:X O *D sky130_fd_sc_hd__clkbuf_2
*CAP
1 *2599:A1 2.20932e-05
2 *2487:A1 0.000699652
3 *2477:A1 0
4 *2544:A1 0
5 *2526:A1 0
6 *2554:A0 0.000140282
7 *2507:A0 0
8 *2616:A1 4.41106e-05
9 *2590:A1 0.000151434
10 *2563:A1 0.000233043
11 *2843:X 0
12 *651:103 0.00111403
13 *651:71 0.000343845
14 *651:65 0.000539288
15 *651:59 0.000517335
16 *651:44 0.000418231
17 *651:29 0.000519647
18 *651:23 0.000662604
19 *651:21 0.00076501
20 *651:4 0.000903437
21 *651:65 *2526:A0 0.000389566
22 *651:71 *2526:A0 4.82919e-05
23 *2462:A2 *2563:A1 5.65627e-05
24 *2462:A3 *2563:A1 0.000119221
25 *2462:S0 *651:44 5.36279e-05
26 *2462:S0 *651:59 0.000122797
27 *2462:S1 *651:103 2.96426e-05
28 *2464:A3 *2487:A1 1.92979e-05
29 *2464:S1 *2487:A1 0
30 *2466:A2 *2487:A1 0.000467962
31 *2466:A2 *651:103 0.000535986
32 *2477:A0 *2487:A1 7.89767e-05
33 *2485:S *2487:A1 0.000444651
34 *2507:A1 *651:71 0.00011852
35 *2507:S *2563:A1 0
36 *2544:A0 *651:59 5.22859e-05
37 *2544:A0 *651:65 4.77719e-05
38 *2561:S *2563:A1 7.5416e-05
39 *2563:S *2563:A1 4.65515e-05
40 *2572:S *651:29 8.6099e-05
41 *2588:S *2616:A1 7.98007e-06
42 *2588:S *651:29 5.4003e-05
43 *2588:S *651:44 0.000152245
44 *2590:A0 *2590:A1 0.000195946
45 *2590:S *2590:A1 4.21518e-05
46 *2590:S *651:29 5.83121e-06
47 *2607:S *2487:A1 0.00011852
48 *2616:A0 *2616:A1 2.43962e-05
49 *2616:A0 *651:44 4.63425e-05
50 *2616:S *651:44 0
51 *2616:S *651:59 0.000159156
52 *2656:D *651:71 0
53 *2688:D *651:65 7.04675e-05
54 *2754:CLK *651:21 0.000234354
55 *2844:A *651:21 0.000246682
56 *2888:A *2616:A1 1.05476e-05
57 *2888:A *651:59 2.0514e-05
58 *2906:A *651:71 7.58604e-05
59 *3035:A *651:29 2.39856e-05
60 *323:120 *2487:A1 0
61 *332:70 *2554:A0 3.86529e-05
62 *332:70 *651:71 6.08665e-05
63 *332:80 *651:71 1.26626e-05
64 *334:74 *2599:A1 1.94892e-05
65 *334:74 *651:23 7.25036e-05
66 *334:74 *651:29 6.02273e-05
67 *336:81 *2554:A0 4.38278e-05
68 *340:110 *2599:A1 2.19463e-05
69 *340:110 *651:23 9.1436e-05
70 *340:110 *651:29 0.00014785
71 *353:39 *2554:A0 0
72 *353:39 *651:71 0
73 *353:95 *651:29 3.09233e-05
74 *422:10 *2487:A1 0.000272787
75 *470:8 *651:21 8.49205e-05
*RES
1 *2843:X *651:4 1.6 
2 *651:4 *2563:A1 9.575 
3 *651:4 *651:21 10.73 
4 *651:21 *651:23 2.145 
5 *651:23 *651:29 6.725 
6 *651:29 *2590:A1 4.12 
7 *651:29 *651:44 6.32 
8 *651:44 *2616:A1 4.47 
9 *651:44 *651:59 5.825 
10 *651:59 *651:65 6.435 
11 *651:65 *651:71 6.305 
12 *651:71 *2507:A0 3.6 
13 *651:71 *2554:A0 5.61 
14 *651:65 *2526:A1 1.6 
15 *651:59 *2544:A1 1.6 
16 *651:23 *651:103 7.625 
17 *651:103 *2477:A1 1.6 
18 *651:103 *2487:A1 20.66 
19 *651:21 *2599:A1 4.215 
*END

*D_NET *652 0.00965063
*CONN
*I *2497:A1 I *D sky130_fd_sc_hd__mux2_1
*I *2517:A1 I *D sky130_fd_sc_hd__mux2_1
*I *2572:A1 I *D sky130_fd_sc_hd__mux2_1
*I *2535:A1 I *D sky130_fd_sc_hd__mux2_1
*I *2581:A0 I *D sky130_fd_sc_hd__mux2_1
*I *2607:A0 I *D sky130_fd_sc_hd__mux2_1
*I *2844:X O *D sky130_fd_sc_hd__buf_1
*CAP
1 *2497:A1 0.000353312
2 *2517:A1 0
3 *2572:A1 0.000466462
4 *2535:A1 0.000348227
5 *2581:A0 0.000230802
6 *2607:A0 0.000446082
7 *2844:X 0
8 *652:63 0.000663587
9 *652:33 0.000636428
10 *652:31 0.000507508
11 *652:12 0.000830427
12 *652:4 0.000484673
13 *2463:A1 *652:33 0
14 *2464:A0 *2497:A1 0
15 *2464:S0 *2607:A0 0.000118651
16 *2466:A0 *652:63 4.82919e-05
17 *2466:A3 *652:12 3.68682e-05
18 *2466:A3 *652:31 0.000415168
19 *2466:A3 *652:33 4.43871e-06
20 *2485:S *2581:A0 0.000185398
21 *2485:S *652:31 0.000852946
22 *2485:S *652:33 0.000132096
23 *2517:S *2572:A1 4.88721e-05
24 *2517:S *652:63 0.000382746
25 *2535:S *2535:A1 0
26 *2581:A1 *2581:A0 3.00381e-05
27 *2581:S *2581:A0 2.49909e-05
28 *2607:A1 *2607:A0 0
29 *2607:S *2607:A0 5.35969e-06
30 *2632:D *2607:A0 8.53113e-06
31 *2648:CLK *2607:A0 0.000311294
32 *2648:D *2497:A1 0
33 *2648:D *2607:A0 0.000309891
34 *2648:D *652:12 0.000197269
35 *2680:D *2535:A1 1.4399e-05
36 *2786:D *2607:A0 3.56353e-05
37 *2988:A *2607:A0 0.000192125
38 *2988:A *652:12 3.57349e-05
39 *2988:A *652:31 0.000116158
40 *339:40 *2581:A0 3.3814e-05
41 *341:59 *2607:A0 0
42 *353:128 *2607:A0 1.07797e-05
43 *374:6 *2581:A0 0.000230435
44 *414:6 *2607:A0 0.000278111
45 *637:104 *2581:A0 0.00010131
46 *637:104 *652:33 5.21046e-05
47 *639:124 *2497:A1 0.000298442
48 *645:72 *2581:A0 7.81541e-05
49 *646:16 *2607:A0 9.30717e-05
*RES
1 *2844:X *652:4 1.6 
2 *652:4 *652:12 6.955 
3 *652:12 *2607:A0 16.64 
4 *652:12 *652:31 12.05 
5 *652:31 *652:33 1.635 
6 *652:33 *2581:A0 9.645 
7 *652:33 *2535:A1 8.205 
8 *652:31 *652:63 6.71 
9 *652:63 *2572:A1 8.2 
10 *652:63 *2517:A1 1.6 
11 *652:4 *2497:A1 11.54 
*END

*D_NET *653 0.0108317
*CONN
*I *2486:A1 I *D sky130_fd_sc_hd__mux2_1
*I *2476:A1 I *D sky130_fd_sc_hd__mux2_1
*I *2615:A1 I *D sky130_fd_sc_hd__mux2_1
*I *2598:A1 I *D sky130_fd_sc_hd__mux2_1
*I *2589:A1 I *D sky130_fd_sc_hd__mux2_1
*I *2543:A1 I *D sky130_fd_sc_hd__mux2_1
*I *2506:A0 I *D sky130_fd_sc_hd__mux2_1
*I *2562:A1 I *D sky130_fd_sc_hd__mux2_1
*I *2553:A0 I *D sky130_fd_sc_hd__mux2_1
*I *2525:A1 I *D sky130_fd_sc_hd__mux2_1
*I *2845:X O *D sky130_fd_sc_hd__clkbuf_2
*CAP
1 *2486:A1 0.000399335
2 *2476:A1 0
3 *2615:A1 0
4 *2598:A1 3.92715e-05
5 *2589:A1 0.000514637
6 *2543:A1 0
7 *2506:A0 0
8 *2562:A1 0
9 *2553:A0 0.000241763
10 *2525:A1 1.17533e-05
11 *2845:X 0.000106032
12 *653:112 0.000516284
13 *653:105 0.000326286
14 *653:71 0.000879163
15 *653:65 0.00062299
16 *653:56 0.000382691
17 *653:43 0.000431581
18 *653:25 0.000540933
19 *653:19 0.000637357
20 *653:6 0.000318683
21 *2458:S0 *2486:A1 1.12578e-05
22 *2458:S0 *653:105 1.82667e-05
23 *2458:S0 *653:112 0.000308362
24 *2476:A0 *2486:A1 8.65905e-05
25 *2476:A0 *653:112 4.99619e-05
26 *2486:A0 *2486:A1 3.00381e-05
27 *2506:A1 *653:25 0
28 *2525:A0 *2525:A1 4.82863e-05
29 *2525:A0 *653:6 4.82919e-05
30 *2543:A0 *653:56 6.2553e-05
31 *2543:A0 *653:65 0.000233561
32 *2543:A0 *653:105 0.000235787
33 *2543:S *653:65 0.000236126
34 *2543:S *653:71 0.00011852
35 *2562:A0 *2553:A0 1.71013e-05
36 *2562:A0 *653:25 6.74079e-05
37 *2589:A0 *2589:A1 2.30292e-05
38 *2589:S *2589:A1 2.54431e-05
39 *2598:A0 *653:71 4.14009e-05
40 *2615:S *653:112 4.66108e-05
41 *2647:CLK *2486:A1 0.000158608
42 *2655:D *653:25 3.72314e-05
43 *2655:D *653:43 4.85494e-05
44 *2687:D *653:56 4.89295e-05
45 *2753:CLK *2598:A1 1.4399e-05
46 *2846:A *653:19 0
47 *2905:A *2589:A1 0.000124473
48 *2960:A *653:105 7.73272e-05
49 *2978:A *653:19 0
50 *323:102 *2486:A1 4.99619e-05
51 *329:48 *2553:A0 0
52 *329:48 *653:25 0
53 *332:42 *653:6 0.000118294
54 *332:42 *653:105 8.40269e-05
55 *332:42 *653:112 0.000342356
56 *332:52 *2525:A1 2.75145e-05
57 *332:52 *2553:A0 0.000282563
58 *332:52 *653:6 2.16917e-05
59 *332:52 *653:19 0.000128445
60 *332:52 *653:25 0.000317338
61 *336:65 *2589:A1 2.48141e-05
62 *342:36 *2589:A1 0
63 *357:16 *2589:A1 3.25997e-05
64 *357:71 *2589:A1 3.18137e-05
65 *357:84 *2589:A1 5.0781e-05
66 *357:84 *653:71 6.55328e-05
67 *357:95 *653:71 0.000166495
68 *357:106 *653:71 2.63122e-05
69 *357:119 *653:71 7.21296e-06
70 *357:119 *653:105 9.28444e-05
71 *389:8 *653:43 5.33172e-05
72 *389:8 *653:56 0.000184148
73 *607:10 *653:19 0
74 *646:42 *2589:A1 7.06865e-05
75 *646:120 *2589:A1 0.000288524
76 *646:120 *653:71 0.000177561
*RES
1 *2845:X *653:6 3.775 
2 *653:6 *2525:A1 2.05 
3 *653:6 *653:19 8.185 
4 *653:19 *653:25 8.93 
5 *653:25 *2553:A0 9.315 
6 *653:25 *2562:A1 3.6 
7 *653:19 *653:43 2.52 
8 *653:43 *2506:A0 1.6 
9 *653:43 *653:56 6.015 
10 *653:56 *2543:A1 1.6 
11 *653:56 *653:65 4.865 
12 *653:65 *653:71 8.31 
13 *653:71 *2589:A1 12.585 
14 *653:71 *2598:A1 4.05 
15 *653:65 *653:105 7.535 
16 *653:105 *2615:A1 1.6 
17 *653:105 *653:112 5.625 
18 *653:112 *2476:A1 1.6 
19 *653:112 *2486:A1 11.33 
*END

*D_NET *654 0.00864067
*CONN
*I *2606:A0 I *D sky130_fd_sc_hd__mux2_1
*I *2496:A1 I *D sky130_fd_sc_hd__mux2_1
*I *2534:A1 I *D sky130_fd_sc_hd__mux2_1
*I *2516:A1 I *D sky130_fd_sc_hd__mux2_1
*I *2580:A0 I *D sky130_fd_sc_hd__mux2_1
*I *2571:A1 I *D sky130_fd_sc_hd__mux2_1
*I *2846:X O *D sky130_fd_sc_hd__buf_1
*CAP
1 *2606:A0 0.000309233
2 *2496:A1 0
3 *2534:A1 0
4 *2516:A1 0.000261801
5 *2580:A0 0.000104502
6 *2571:A1 0.000133793
7 *2846:X 0.000220795
8 *654:64 0.000543488
9 *654:32 0.000778531
10 *654:20 0.00132523
11 *654:16 0.000579385
12 *654:14 0.000606106
13 *654:64 *2534:A0 5.8044e-05
14 *2457:A1 *2516:A1 2.25161e-05
15 *2457:A1 *654:64 0.000100156
16 *2457:A3 *654:20 7.88393e-05
17 *2457:S1 *654:20 0
18 *2458:A0 *2606:A0 3.09164e-05
19 *2458:A2 *2606:A0 2.05864e-05
20 *2458:A3 *654:16 0
21 *2458:A3 *654:20 0
22 *2458:S0 *2606:A0 0
23 *2460:A1 *2606:A0 0.000197264
24 *2460:A2 *654:20 0
25 *2460:A3 *2606:A0 0.000212251
26 *2460:A3 *654:14 6.55011e-05
27 *2460:A3 *654:16 6.11635e-05
28 *2460:A3 *654:20 0.00018851
29 *2460:S1 *2516:A1 0.000259146
30 *2460:S1 *654:64 1.52862e-05
31 *2476:A0 *2606:A0 0
32 *2476:A0 *654:14 7.21296e-06
33 *2516:A0 *2516:A1 4.60584e-05
34 *2516:S *2516:A1 0.000158066
35 *2571:A0 *2571:A1 0.000162318
36 *2571:A0 *2580:A0 0.000160658
37 *2571:S *2571:A1 2.75229e-05
38 *2606:A1 *2606:A0 1.91597e-05
39 *2606:S *2606:A0 4.15227e-05
40 *2631:D *2606:A0 7.13883e-05
41 *2647:D *2606:A0 0
42 *2647:D *654:16 0
43 *2679:D *654:32 0.000127315
44 *2679:D *654:64 7.67345e-05
45 *2711:D *2571:A1 3.39064e-05
46 *2846:A *2606:A0 0.000573308
47 *2846:A *654:14 4.67945e-05
48 *2946:A *2516:A1 1.7396e-05
49 *2995:A *654:20 0
50 *323:114 *2571:A1 0
51 *325:83 *2516:A1 0
52 *325:83 *654:20 0
53 *334:66 *2571:A1 0
54 *334:66 *2580:A0 0
55 *336:65 *2571:A1 1.33293e-05
56 *340:73 *2516:A1 0.000459372
57 *341:42 *2580:A0 4.66108e-05
58 *345:76 *2516:A1 9.29176e-05
59 *357:12 *2571:A1 0
60 *646:48 *654:32 7.99079e-05
61 *646:61 *654:20 0.000137578
62 *646:82 *654:20 6.85516e-05
*RES
1 *2846:X *654:14 7.0725 
2 *654:14 *654:16 1.5075 
3 *654:16 *654:20 11.795 
4 *654:20 *654:32 9.59 
5 *654:32 *2571:A1 6.54 
6 *654:32 *2580:A0 5.94 
7 *654:20 *654:64 8.785 
8 *654:64 *2516:A1 13.37 
9 *654:64 *2534:A1 1.6 
10 *654:16 *2496:A1 3.6 
11 *654:14 *2606:A0 17.8825 
*END

*D_NET *655 0.0121718
*CONN
*I *2485:A1 I *D sky130_fd_sc_hd__mux2_1
*I *2475:A1 I *D sky130_fd_sc_hd__mux2_1
*I *2552:A0 I *D sky130_fd_sc_hd__mux2_1
*I *2561:A1 I *D sky130_fd_sc_hd__mux2_1
*I *2588:A1 I *D sky130_fd_sc_hd__mux2_1
*I *2597:A1 I *D sky130_fd_sc_hd__mux2_1
*I *2614:A1 I *D sky130_fd_sc_hd__mux2_1
*I *2542:A1 I *D sky130_fd_sc_hd__mux2_1
*I *2505:A0 I *D sky130_fd_sc_hd__mux2_1
*I *2524:A1 I *D sky130_fd_sc_hd__mux2_1
*I *2847:X O *D sky130_fd_sc_hd__clkbuf_2
*CAP
1 *2485:A1 0.00048404
2 *2475:A1 0
3 *2552:A0 0
4 *2561:A1 0.000244089
5 *2588:A1 0
6 *2597:A1 2.3475e-05
7 *2614:A1 0.000136451
8 *2542:A1 0.000181683
9 *2505:A0 2.10042e-05
10 *2524:A1 0.000436863
11 *2847:X 0
12 *655:112 0.00063873
13 *655:92 0.000480912
14 *655:83 0.000892905
15 *655:75 0.00107205
16 *655:62 0.000966875
17 *655:38 0.000522381
18 *655:36 0.000945333
19 *655:10 0.000645354
20 *655:4 0.000246449
21 *2450:S0 *2597:A1 5.44107e-05
22 *2450:S0 *655:75 0.000113809
23 *2452:A0 *655:75 0
24 *2452:A0 *655:112 0
25 *2452:A1 *655:112 0
26 *2453:A0 *2542:A1 8.97486e-05
27 *2453:A0 *655:38 7.36562e-05
28 *2453:A3 *655:38 5.83373e-05
29 *2453:S1 *2524:A1 0
30 *2454:A1 *2505:A0 4.85087e-06
31 *2454:A1 *2524:A1 0.000253528
32 *2454:A1 *655:10 8.4954e-05
33 *2454:A2 *2597:A1 4.80285e-05
34 *2454:A2 *655:75 0.000122161
35 *2475:A0 *655:112 7.23602e-05
36 *2475:S *2485:A1 0.000119277
37 *2475:S *655:112 5.53249e-06
38 *2485:A0 *2485:A1 0.000198046
39 *2505:A1 *2524:A1 1.08758e-05
40 *2505:A1 *655:10 4.66108e-05
41 *2524:A0 *655:38 2.67022e-05
42 *2542:A0 *2542:A1 0.000113293
43 *2561:S *2561:A1 0.00030756
44 *2588:S *655:83 2.75229e-05
45 *2597:A0 *655:62 4.19797e-05
46 *2597:S *2485:A1 0
47 *2597:S *655:62 1.52184e-05
48 *2597:S *655:75 0
49 *2597:S *655:112 0
50 *2630:D *655:83 0.000165193
51 *2630:D *655:112 0
52 *2654:D *2524:A1 8.52883e-05
53 *2670:D *2524:A1 0
54 *2694:D *2561:A1 7.21296e-06
55 *2718:D *655:62 0
56 *2727:D *655:92 1.83756e-05
57 *2784:D *655:75 3.47837e-05
58 *2792:D *2614:A1 0.000122337
59 *2848:A *655:62 0
60 *2971:A *655:10 0.000120655
61 *2971:A *655:36 7.40446e-05
62 *2993:A *655:38 5.83373e-05
63 *2993:A *655:62 5.84456e-05
64 *332:80 *2561:A1 0
65 *332:92 *2524:A1 0.000198614
66 *334:80 *2542:A1 5.30673e-05
67 *334:80 *655:62 0
68 *334:93 *2542:A1 7.00889e-06
69 *346:29 *655:83 3.03566e-05
70 *346:33 *2561:A1 4.82919e-05
71 *346:33 *655:83 4.13645e-05
72 *346:33 *655:92 0.000574841
73 *346:37 *2561:A1 0.000119285
74 *346:71 *2524:A1 0
75 *412:6 *655:83 0.000163199
76 *492:12 *2614:A1 0.000160641
77 *595:12 *2542:A1 0.000149151
78 *595:12 *655:38 5.43042e-05
*RES
1 *2847:X *655:4 1.6 
2 *655:4 *655:10 2.985 
3 *655:10 *2524:A1 12.77 
4 *655:10 *2505:A0 1.96 
5 *655:4 *655:36 2.795 
6 *655:36 *655:38 4.44 
7 *655:38 *2542:A1 8.58 
8 *655:38 *2614:A1 6.465 
9 *655:36 *655:62 13.835 
10 *655:62 *2597:A1 2.395 
11 *655:62 *655:75 7.25 
12 *655:75 *655:83 10.76 
13 *655:83 *2588:A1 1.6 
14 *655:83 *655:92 5.64 
15 *655:92 *2561:A1 12.275 
16 *655:92 *2552:A0 1.6 
17 *655:75 *655:112 2.91 
18 *655:112 *2475:A1 3.6 
19 *655:112 *2485:A1 11.625 
*END

*D_NET *656 0.0067411
*CONN
*I *2495:A1 I *D sky130_fd_sc_hd__mux2_1
*I *2605:A0 I *D sky130_fd_sc_hd__mux2_1
*I *2533:A1 I *D sky130_fd_sc_hd__mux2_1
*I *2515:A1 I *D sky130_fd_sc_hd__mux2_1
*I *2570:A1 I *D sky130_fd_sc_hd__mux2_1
*I *2579:A0 I *D sky130_fd_sc_hd__mux2_1
*I *2848:X O *D sky130_fd_sc_hd__buf_1
*CAP
1 *2495:A1 0.000546545
2 *2605:A0 0.000279351
3 *2533:A1 0
4 *2515:A1 0.000162205
5 *2570:A1 5.68196e-05
6 *2579:A0 0.000103628
7 *2848:X 0
8 *656:56 0.000946271
9 *656:32 0.000347391
10 *656:23 0.000291202
11 *656:19 0.000452925
12 *656:4 0.000386981
13 *2451:A0 *2515:A1 0.000171848
14 *2451:A2 *656:23 4.9968e-05
15 *2452:A2 *2495:A1 1.10377e-05
16 *2452:A3 *2495:A1 7.23602e-05
17 *2454:A0 *656:23 0.000158297
18 *2454:A0 *656:56 0.00038057
19 *2454:A1 *2579:A0 0.000109355
20 *2454:A2 *2605:A0 0.000239248
21 *2454:A3 *2495:A1 2.75229e-05
22 *2515:A0 *2515:A1 4.99619e-05
23 *2515:S *2515:A1 0
24 *2533:A0 *656:32 4.82863e-05
25 *2570:S *2515:A1 0.000116158
26 *2570:S *2570:A1 4.66108e-05
27 *2570:S *656:32 0.000536868
28 *2577:S *2515:A1 0.000180415
29 *2678:D *2515:A1 6.5525e-05
30 *2678:D *656:32 7.10578e-05
31 *2848:A *2579:A0 0.000111439
32 *2880:A *2495:A1 8.71195e-05
33 *2880:A *656:56 3.50033e-05
34 *2924:A *656:23 0.000108329
35 *2924:A *656:56 3.09233e-05
36 *354:38 *2515:A1 0
37 *436:8 *2570:A1 4.47125e-05
38 *641:40 *2495:A1 4.66826e-05
39 *641:42 *2495:A1 9.7872e-05
40 *641:42 *656:56 0.000237495
41 *641:110 *2495:A1 3.31204e-05
42 *645:121 *2515:A1 0
*RES
1 *2848:X *656:4 1.6 
2 *656:4 *2579:A0 8.765 
3 *656:4 *656:19 5.555 
4 *656:19 *656:23 3.89 
5 *656:23 *2570:A1 2.74 
6 *656:23 *656:32 4.935 
7 *656:32 *2515:A1 10.475 
8 *656:32 *2533:A1 1.6 
9 *656:19 *656:56 5.205 
10 *656:56 *2605:A0 7.155 
11 *656:56 *2495:A1 12.51 
*END

*D_NET *657 0.0141496
*CONN
*I *2484:A1 I *D sky130_fd_sc_hd__mux2_1
*I *2474:A1 I *D sky130_fd_sc_hd__mux2_1
*I *2532:A1 I *D sky130_fd_sc_hd__mux2_1
*I *2569:A1 I *D sky130_fd_sc_hd__mux2_1
*I *2578:A0 I *D sky130_fd_sc_hd__mux2_1
*I *2514:A1 I *D sky130_fd_sc_hd__mux2_1
*I *2613:A1 I *D sky130_fd_sc_hd__mux2_1
*I *2523:A1 I *D sky130_fd_sc_hd__mux2_1
*I *2541:A1 I *D sky130_fd_sc_hd__mux2_1
*I *2504:A0 I *D sky130_fd_sc_hd__mux2_1
*I *2849:X O *D sky130_fd_sc_hd__clkbuf_2
*CAP
1 *2484:A1 0
2 *2474:A1 0.000447834
3 *2532:A1 0.000582316
4 *2569:A1 0.000122359
5 *2578:A0 2.42846e-05
6 *2514:A1 0.000248049
7 *2613:A1 0
8 *2523:A1 0.000397354
9 *2541:A1 3.76639e-05
10 *2504:A0 0.000325283
11 *2849:X 0.000213078
12 *657:104 0.000931045
13 *657:84 0.000704675
14 *657:82 0.00061075
15 *657:71 0.00034226
16 *657:60 0.000615715
17 *657:34 0.000645221
18 *657:32 0.000703192
19 *657:19 0.00040935
20 *657:8 0.000631953
21 *2474:A1 *2484:A0 0.000225175
22 *2444:A0 *657:104 3.47754e-05
23 *2444:A2 *657:104 0.000183036
24 *2444:S1 *657:104 0
25 *2447:A3 *657:32 3.76596e-05
26 *2474:S *2474:A1 4.92935e-05
27 *2484:S *2474:A1 0.000225175
28 *2504:A1 *2504:A0 0.000118294
29 *2504:S *657:19 0
30 *2504:S *657:32 0
31 *2514:A0 *2514:A1 4.99619e-05
32 *2523:A0 *2523:A1 5.19417e-05
33 *2523:S *2523:A1 1.61831e-05
34 *2532:A0 *2532:A1 4.99619e-05
35 *2532:S *2532:A1 5.88334e-05
36 *2569:A0 *2569:A1 0.000161529
37 *2596:A0 *657:104 7.63282e-05
38 *2613:A0 *2523:A1 2.75229e-05
39 *2613:A0 *657:34 8.95933e-05
40 *2613:S *2523:A1 6.05513e-05
41 *2637:CLK *2474:A1 0.00030448
42 *2661:CLK *2532:A1 0.00014294
43 *2661:CLK *2569:A1 0.000161529
44 *2661:D *2532:A1 0.000126073
45 *2685:D *657:32 0
46 *2791:D *2523:A1 0.000186092
47 *2797:A *657:104 0.000249921
48 *2849:A *657:8 4.82863e-05
49 *2850:A *657:32 0
50 *2850:A *657:60 7.44453e-05
51 *2850:A *657:71 0.000187416
52 *2850:A *657:82 9.68865e-05
53 *2876:A *2532:A1 1.74678e-05
54 *2896:A *657:19 0.000139933
55 *2896:A *657:32 0.000116853
56 *2952:A *2523:A1 0
57 *2985:A *657:34 7.25441e-05
58 *2985:A *657:60 1.47347e-05
59 *331:110 *2514:A1 0.000312172
60 *338:32 *2569:A1 4.21973e-05
61 *338:32 *657:82 4.9968e-05
62 *338:32 *657:104 0.00120717
63 *345:128 *657:104 0.000139245
64 *347:47 *657:104 0
65 *347:49 *657:82 0
66 *347:51 *657:71 0
67 *347:55 *657:32 0.000405111
68 *347:55 *657:60 0
69 *347:55 *657:71 0
70 *348:38 *657:104 0.000193806
71 *379:10 *2523:A1 0
72 *411:12 *657:104 0.000142852
73 *427:10 *2532:A1 3.09088e-05
74 *435:6 *2578:A0 2.75229e-05
75 *467:10 *657:104 0.000113797
76 *491:10 *657:32 0
77 *633:34 *2474:A1 3.70809e-05
*RES
1 *2849:X *657:8 4.135 
2 *657:8 *2504:A0 5.5 
3 *657:8 *657:19 3.635 
4 *657:19 *2541:A1 4.05 
5 *657:19 *657:32 8.735 
6 *657:32 *657:34 3.21 
7 *657:34 *2523:A1 11.99 
8 *657:34 *2613:A1 1.6 
9 *657:32 *657:60 4.775 
10 *657:60 *2514:A1 8.88 
11 *657:60 *657:71 3.93 
12 *657:71 *2578:A0 4.05 
13 *657:71 *657:82 2.655 
14 *657:82 *657:84 2 
15 *657:84 *2569:A1 4.465 
16 *657:84 *2532:A1 10.33 
17 *657:82 *657:104 17.96 
18 *657:104 *2474:A1 13.19 
19 *657:104 *2484:A1 1.6 
*END

*D_NET *658 0.00841077
*CONN
*I *2494:A1 I *D sky130_fd_sc_hd__mux2_1
*I *2604:A0 I *D sky130_fd_sc_hd__mux2_1
*I *2587:A1 I *D sky130_fd_sc_hd__mux2_1
*I *2560:A1 I *D sky130_fd_sc_hd__mux2_1
*I *2551:A0 I *D sky130_fd_sc_hd__mux2_1
*I *2596:A1 I *D sky130_fd_sc_hd__mux2_1
*I *2850:X O *D sky130_fd_sc_hd__buf_1
*CAP
1 *2494:A1 0.000311962
2 *2604:A0 0.000133728
3 *2587:A1 0.000187573
4 *2560:A1 0
5 *2551:A0 0.000506555
6 *2596:A1 0.000267212
7 *2850:X 0
8 *658:60 0.000551597
9 *658:51 0.000628124
10 *658:25 0.000708606
11 *658:10 0.000735096
12 *658:4 0.000600477
13 *2596:A1 *678:12 4.82919e-05
14 *2443:A0 *2551:A0 7.58604e-05
15 *2443:A0 *2596:A1 0
16 *2444:S0 *658:10 0
17 *2447:S0 *2596:A1 0
18 *2448:A0 *658:51 0.0001249
19 *2448:A1 *658:51 8.43946e-05
20 *2560:A0 *2551:A0 4.99619e-05
21 *2560:A0 *658:25 0.000311288
22 *2560:S *2551:A0 1.46828e-05
23 *2586:S *2551:A0 7.24866e-05
24 *2587:A0 *658:10 0.000419392
25 *2587:A0 *658:51 4.82919e-05
26 *2587:S *2587:A1 3.00381e-05
27 *2596:S *2596:A1 0.00015256
28 *2596:S *658:10 4.09479e-05
29 *2645:CLK *2494:A1 8.65905e-05
30 *2645:D *2494:A1 0.000151163
31 *2693:D *2551:A0 0
32 *2701:D *2551:A0 5.53249e-06
33 *2850:A *658:10 2.49909e-05
34 *2964:A *658:51 0.000101325
35 *331:102 *2604:A0 0.000561259
36 *340:24 *2551:A0 0.000117411
37 *341:105 *658:10 1.17114e-05
38 *395:8 *2587:A1 1.83756e-05
39 *634:78 *2551:A0 0.000111316
40 *637:62 *2604:A0 0.000561259
41 *637:62 *658:51 0.000121714
42 *637:90 *658:10 0.000381883
43 *637:90 *658:51 5.22132e-05
44 *647:67 *658:51 0
*RES
1 *2850:X *658:4 1.6 
2 *658:4 *658:10 8.75 
3 *658:10 *2596:A1 8.235 
4 *658:10 *658:25 4.865 
5 *658:25 *2551:A0 15.26 
6 *658:25 *2560:A1 1.6 
7 *658:4 *658:51 11.23 
8 *658:51 *2587:A1 4.465 
9 *658:51 *658:60 1.485 
10 *658:60 *2604:A0 12.08 
11 *658:60 *2494:A1 6.535 
*END

*D_NET *659 0.0154347
*CONN
*I *2483:A1 I *D sky130_fd_sc_hd__mux2_1
*I *2473:A1 I *D sky130_fd_sc_hd__mux2_1
*I *2577:A0 I *D sky130_fd_sc_hd__mux2_1
*I *2568:A1 I *D sky130_fd_sc_hd__mux2_1
*I *2531:A1 I *D sky130_fd_sc_hd__mux2_1
*I *2513:A1 I *D sky130_fd_sc_hd__mux2_1
*I *2612:A1 I *D sky130_fd_sc_hd__mux2_1
*I *2503:A0 I *D sky130_fd_sc_hd__mux2_1
*I *2522:A1 I *D sky130_fd_sc_hd__mux2_1
*I *2540:A1 I *D sky130_fd_sc_hd__mux2_1
*I *2851:X O *D sky130_fd_sc_hd__clkbuf_2
*CAP
1 *2483:A1 0.000125901
2 *2473:A1 0.000272008
3 *2577:A0 8.10783e-05
4 *2568:A1 7.07329e-05
5 *2531:A1 0.000284694
6 *2513:A1 0
7 *2612:A1 0.000143388
8 *2503:A0 0
9 *2522:A1 0.000143749
10 *2540:A1 0.000575498
11 *2851:X 3.18487e-05
12 *659:116 0.00160887
13 *659:95 0.00133149
14 *659:84 0.000323081
15 *659:62 0.00072682
16 *659:58 0.000795865
17 *659:33 0.000222393
18 *659:31 0.000222032
19 *659:29 0.000248482
20 *659:8 0.000714988
21 *2483:A1 *2483:A0 2.75229e-05
22 *2531:A1 *2531:A0 4.82863e-05
23 *2540:A1 *2540:A0 4.82863e-05
24 *659:116 *2493:A1 0.000100487
25 *659:116 *2624:RESET_B 0
26 *659:116 *661:60 2.03321e-05
27 *2438:A3 *659:116 2.89319e-05
28 *2439:A1 *2531:A1 4.82919e-05
29 *2439:A2 *659:116 4.19059e-05
30 *2440:A2 *2473:A1 0.000163199
31 *2440:A2 *2483:A1 7.40446e-05
32 *2440:A2 *659:116 7.00066e-05
33 *2441:S1 *659:29 0
34 *2441:S1 *659:58 0
35 *2441:S1 *659:84 0
36 *2467:S *2473:A1 0
37 *2473:A0 *2473:A1 7.23533e-05
38 *2503:S *659:58 7.36562e-05
39 *2517:S *2473:A1 0.000136877
40 *2523:S *2522:A1 0.000150959
41 *2523:S *2612:A1 0.000242599
42 *2523:S *659:33 9.02259e-05
43 *2550:S *659:116 7.27298e-06
44 *2559:A0 *659:116 7.23533e-05
45 *2559:S *659:116 1.9731e-05
46 *2577:A1 *659:116 0
47 *2577:S *2568:A1 0.000464505
48 *2605:S *659:116 0.000917447
49 *2612:A0 *2612:A1 2.75145e-05
50 *2613:S *2531:A1 5.05521e-05
51 *2614:S *659:8 2.49909e-05
52 *2636:CLK *659:116 0.000195925
53 *2636:D *659:116 6.10014e-05
54 *2660:D *2531:A1 4.82863e-05
55 *2676:D *2531:A1 7.63204e-05
56 *2716:D *659:84 0.000159964
57 *2790:D *2540:A1 0.000128642
58 *2790:D *659:29 2.30957e-05
59 *2852:A *659:116 0
60 *2891:A *659:62 6.71882e-05
61 *2918:A *2531:A1 0.000273878
62 *2989:A *659:116 4.49328e-05
63 *3033:A *2540:A1 0.000337531
64 *3033:A *659:29 8.18852e-05
65 *3033:A *659:58 0
66 *3033:A *659:84 0
67 *3033:A *659:95 0
68 *3033:A *659:116 0
69 *329:107 *2531:A1 6.15341e-05
70 *329:111 *2531:A1 5.83497e-05
71 *329:111 *659:62 0.000297669
72 *332:92 *2522:A1 4.99619e-05
73 *334:93 *2540:A1 0.000575399
74 *338:44 *2531:A1 7.18092e-05
75 *338:44 *2568:A1 0.000464505
76 *338:44 *2577:A0 0.0001249
77 *342:77 *2531:A1 0.000108447
78 *345:22 *659:116 0
79 *355:8 *659:116 0.000177561
80 *355:10 *659:116 5.4003e-05
81 *355:45 *659:116 0.000178255
82 *355:56 *659:116 0.000179235
83 *355:67 *659:116 0.000194258
84 *370:12 *2531:A1 0.000116165
85 *410:12 *2473:A1 0.000196376
86 *630:10 *659:116 0
87 *632:14 *2473:A1 8.23457e-05
88 *639:105 *659:116 0
89 *641:143 *659:116 0
*RES
1 *2851:X *659:8 4.05 
2 *659:8 *2540:A1 14.655 
3 *659:8 *659:29 2.19 
4 *659:29 *659:31 2 
5 *659:31 *659:33 1.485 
6 *659:33 *2522:A1 4.465 
7 *659:33 *2503:A0 1.6 
8 *659:31 *2612:A1 4.93 
9 *659:29 *659:58 2.655 
10 *659:58 *659:62 9.695 
11 *659:62 *2513:A1 1.6 
12 *659:62 *2531:A1 13.97 
13 *659:58 *659:84 3.93 
14 *659:84 *2568:A1 7.845 
15 *659:84 *659:95 0.615 
16 *659:95 *2577:A0 4.74 
17 *659:95 *659:116 33.015 
18 *659:116 *2473:A1 11.48 
19 *659:116 *2483:A1 3.775 
*END

*D_NET *660 0.000696333
*CONN
*I *2297:A I *D sky130_fd_sc_hd__inv_2
*I *3020:X O *D sky130_fd_sc_hd__clkbuf_1
*CAP
1 *2297:A 0.000281998
2 *3020:X 0.000281998
3 *2297:A *2295:A 0
4 *2297:A *2296:A 0.000132336
*RES
1 *3020:X *2297:A 12.015 
*END

*D_NET *661 0.00842924
*CONN
*I *2493:A1 I *D sky130_fd_sc_hd__mux2_1
*I *2603:A0 I *D sky130_fd_sc_hd__mux2_1
*I *2550:A0 I *D sky130_fd_sc_hd__mux2_1
*I *2586:A1 I *D sky130_fd_sc_hd__mux2_1
*I *2595:A1 I *D sky130_fd_sc_hd__mux2_1
*I *2559:A1 I *D sky130_fd_sc_hd__mux2_1
*I *2852:X O *D sky130_fd_sc_hd__buf_1
*CAP
1 *2493:A1 0.000696708
2 *2603:A0 0
3 *2550:A0 4.58709e-05
4 *2586:A1 0.000155463
5 *2595:A1 0
6 *2559:A1 3.14165e-05
7 *2852:X 3.20801e-05
8 *661:60 0.000991237
9 *661:47 0.000544356
10 *661:31 0.000923789
11 *661:16 0.000931572
12 *661:10 0.000367866
13 *2493:A1 *2493:A0 2.75145e-05
14 *2586:A1 *2595:A0 0.000349598
15 *661:10 *2624:RESET_B 4.76303e-05
16 *661:47 *2624:RESET_B 0.000483276
17 *2442:A2 *661:31 5.85952e-05
18 *2442:A3 *661:31 9.32656e-05
19 *2467:S *661:47 0
20 *2493:S *2493:A1 1.85674e-05
21 *2550:S *661:60 2.36616e-05
22 *2586:A0 *2586:A1 4.82919e-05
23 *2603:A1 *661:60 0.00011852
24 *2605:S *661:60 0.000250158
25 *2636:CLK *2493:A1 4.14338e-05
26 *2636:D *2493:A1 6.50844e-06
27 *2700:D *661:16 2.49909e-05
28 *2700:D *661:47 9.14049e-05
29 *2804:A *2550:A0 8.49205e-05
30 *2804:A *661:60 0.00025052
31 *2983:A *661:47 0.000101317
32 *342:77 *661:31 0.00017944
33 *345:22 *2493:A1 0.000142662
34 *345:22 *661:60 0.000156944
35 *345:24 *661:60 5.02217e-05
36 *402:8 *2493:A1 5.9074e-05
37 *639:73 *661:31 4.9253e-06
38 *639:105 *661:10 4.82863e-05
39 *639:105 *661:16 0.000272984
40 *639:105 *661:31 0.000456823
41 *645:18 *661:10 7.59737e-05
42 *645:18 *661:47 2.05583e-05
43 *659:116 *2493:A1 0.000100487
44 *659:116 *661:60 2.03321e-05
*RES
1 *2852:X *661:10 4.665 
2 *661:10 *661:16 5.135 
3 *661:16 *2559:A1 2.05 
4 *661:16 *661:31 15.625 
5 *661:31 *2595:A1 1.6 
6 *661:31 *2586:A1 4.81 
7 *661:10 *661:47 7.715 
8 *661:47 *2550:A0 2.395 
9 *661:47 *661:60 10.82 
10 *661:60 *2603:A0 3.6 
11 *661:60 *2493:A1 14.25 
*END

*D_NET *662 0.011799
*CONN
*I *2549:A0 I *D sky130_fd_sc_hd__mux2_1
*I *2558:A1 I *D sky130_fd_sc_hd__mux2_1
*I *2611:A1 I *D sky130_fd_sc_hd__mux2_1
*I *2472:A1 I *D sky130_fd_sc_hd__mux2_1
*I *2594:A1 I *D sky130_fd_sc_hd__mux2_1
*I *2482:A1 I *D sky130_fd_sc_hd__mux2_1
*I *2539:A1 I *D sky130_fd_sc_hd__mux2_1
*I *2585:A1 I *D sky130_fd_sc_hd__mux2_1
*I *2521:A1 I *D sky130_fd_sc_hd__mux2_1
*I *2502:A0 I *D sky130_fd_sc_hd__mux2_1
*I *2853:X O *D sky130_fd_sc_hd__clkbuf_2
*CAP
1 *2549:A0 0.000343729
2 *2558:A1 0.000311457
3 *2611:A1 0
4 *2472:A1 4.26796e-05
5 *2594:A1 0.000366467
6 *2482:A1 0.000320944
7 *2539:A1 0.000156103
8 *2585:A1 0
9 *2521:A1 1.85694e-05
10 *2502:A0 0.000169364
11 *2853:X 0.000132191
12 *662:120 0.000819493
13 *662:76 0.000788964
14 *662:74 0.00046093
15 *662:55 0.00072544
16 *662:48 0.000418543
17 *662:40 0.000737043
18 *662:25 0.000621556
19 *662:21 0.00024641
20 *662:8 0.000351809
21 *2434:A0 *2482:A1 0.000120655
22 *2436:A2 *2482:A1 0.000242205
23 *2502:A1 *2502:A0 3.64998e-06
24 *2521:A0 *662:40 3.99879e-05
25 *2521:S *2521:A1 9.53428e-06
26 *2521:S *662:40 2.16917e-05
27 *2539:A0 *2539:A1 1.95374e-05
28 *2549:A1 *2549:A0 7.00889e-06
29 *2549:S *2549:A0 5.05521e-05
30 *2611:A0 *2539:A1 0.000141599
31 *2611:A0 *662:40 4.89295e-05
32 *2627:D *662:76 0.000273695
33 *2635:CLK *2472:A1 4.99619e-05
34 *2691:D *2549:A0 7.89767e-05
35 *2699:D *2558:A1 8.31173e-05
36 *2724:CLK *2594:A1 8.59944e-05
37 *2853:A *662:120 0
38 *2854:A *662:48 0.000157379
39 *2854:A *662:55 0.000384091
40 *2854:A *662:74 0.000386215
41 *3030:A *2472:A1 4.82919e-05
42 *323:114 *2472:A1 5.38986e-06
43 *323:114 *2594:A1 7.1635e-05
44 *323:114 *662:76 0.000120166
45 *323:120 *2472:A1 4.43871e-06
46 *323:120 *662:74 0
47 *325:93 *2482:A1 8.49205e-05
48 *329:48 *2549:A0 0
49 *329:48 *662:120 0
50 *332:52 *2549:A0 0.00014636
51 *332:52 *662:25 2.49909e-05
52 *332:52 *662:40 5.83121e-06
53 *332:52 *662:120 0.000293733
54 *332:70 *2502:A0 0.000366651
55 *332:70 *662:21 0.000186099
56 *332:70 *662:120 7.47284e-05
57 *334:66 *662:74 0
58 *336:81 *2502:A0 0.000144566
59 *336:81 *662:21 7.5431e-05
60 *336:81 *662:120 1.61461e-05
61 *337:107 *662:48 0
62 *340:110 *2539:A1 0
63 *341:59 *2539:A1 0.00042276
64 *342:36 *662:48 3.62197e-05
65 *356:12 *2594:A1 6.23375e-05
66 *356:14 *2594:A1 8.08153e-06
67 *356:20 *662:74 2.32724e-05
68 *356:20 *662:76 7.8494e-06
69 *356:24 *662:74 4.9968e-05
70 *356:117 *2558:A1 5.63099e-05
71 *356:157 *2594:A1 5.05437e-05
72 *385:8 *662:8 3.00381e-05
73 *465:18 *2549:A0 8.47303e-05
74 *489:12 *2539:A1 6.10014e-05
*RES
1 *2853:X *662:8 5.43 
2 *662:8 *2502:A0 8.235 
3 *662:8 *662:21 2.145 
4 *662:21 *662:25 2.45 
5 *662:25 *2521:A1 1.96 
6 *662:25 *662:40 8.34 
7 *662:40 *662:48 6.355 
8 *662:48 *2585:A1 1.6 
9 *662:48 *662:55 3.555 
10 *662:55 *2539:A1 10.55 
11 *662:55 *662:74 7.0025 
12 *662:74 *662:76 3.5475 
13 *662:76 *2482:A1 10.275 
14 *662:76 *2594:A1 10.005 
15 *662:74 *2472:A1 4.7325 
16 *662:40 *2611:A1 1.6 
17 *662:21 *662:120 3.93 
18 *662:120 *2558:A1 7.77 
19 *662:120 *2549:A0 10.245 
*END

*D_NET *663 0.00932779
*CONN
*I *2492:A1 I *D sky130_fd_sc_hd__mux2_1
*I *2576:A0 I *D sky130_fd_sc_hd__mux2_1
*I *2530:A1 I *D sky130_fd_sc_hd__mux2_1
*I *2567:A1 I *D sky130_fd_sc_hd__mux2_1
*I *2512:A1 I *D sky130_fd_sc_hd__mux2_1
*I *2602:A0 I *D sky130_fd_sc_hd__mux2_1
*I *2854:X O *D sky130_fd_sc_hd__buf_1
*CAP
1 *2492:A1 0
2 *2576:A0 9.52359e-05
3 *2530:A1 0.00056255
4 *2567:A1 0
5 *2512:A1 0.00012978
6 *2602:A0 0.000464742
7 *2854:X 0.000436255
8 *663:43 0.00025505
9 *663:37 0.000841065
10 *663:33 0.000541173
11 *663:16 0.00103457
12 *663:10 0.000713387
13 *2512:A1 *2567:A0 0.000270415
14 *663:43 *2567:A0 2.30292e-05
15 *2433:A0 *2530:A1 0.00013521
16 *2433:A3 *2576:A0 1.91597e-05
17 *2433:A3 *663:33 0.000136276
18 *2433:A3 *663:37 0.00013521
19 *2436:A3 *663:16 4.94404e-05
20 *2436:S0 *663:16 0.000164686
21 *2436:S0 *663:33 0.000193706
22 *2460:S1 *663:10 0
23 *2482:A0 *2602:A0 0.000124007
24 *2492:A0 *663:10 0.000134509
25 *2492:A0 *663:16 9.50342e-06
26 *2517:S *2512:A1 4.82919e-05
27 *2535:S *2530:A1 5.83121e-06
28 *2572:S *663:43 4.43871e-06
29 *2576:A1 *2576:A0 2.67275e-05
30 *2675:D *2530:A1 0.000241633
31 *2707:D *663:43 0
32 *2839:A *2530:A1 0
33 *2922:A *2602:A0 0.000314745
34 *3030:A *663:10 1.1561e-05
35 *28:17 *2530:A1 0.000433421
36 *327:65 *663:10 2.14129e-05
37 *327:65 *663:16 0.0002133
38 *331:56 *2512:A1 7.66083e-05
39 *338:109 *663:37 0.000131874
40 *338:109 *663:43 0.000112971
41 *339:32 *663:16 0.000165557
42 *339:32 *663:33 0.000339893
43 *339:40 *663:37 0
44 *339:40 *663:43 0
45 *358:26 *663:37 0.000243532
46 *633:129 *2602:A0 0.000272344
47 *650:66 *2530:A1 0.000194694
*RES
1 *2854:X *663:10 9.135 
2 *663:10 *663:16 6.615 
3 *663:16 *2602:A0 11.985 
4 *663:16 *663:33 8.555 
5 *663:33 *663:37 6.44 
6 *663:37 *663:43 4.85 
7 *663:43 *2512:A1 4.825 
8 *663:43 *2567:A1 1.6 
9 *663:37 *2530:A1 18.88 
10 *663:33 *2576:A0 2.74 
11 *663:10 *2492:A1 3.6 
*END

*D_NET *664 0.0120368
*CONN
*I *2593:A1 I *D sky130_fd_sc_hd__mux2_1
*I *2501:A0 I *D sky130_fd_sc_hd__mux2_1
*I *2481:A1 I *D sky130_fd_sc_hd__mux2_1
*I *2471:A1 I *D sky130_fd_sc_hd__mux2_1
*I *2538:A1 I *D sky130_fd_sc_hd__mux2_1
*I *2520:A1 I *D sky130_fd_sc_hd__mux2_1
*I *2610:A1 I *D sky130_fd_sc_hd__mux2_1
*I *2584:A1 I *D sky130_fd_sc_hd__mux2_1
*I *2548:A0 I *D sky130_fd_sc_hd__mux2_1
*I *2557:A1 I *D sky130_fd_sc_hd__mux2_1
*I *2855:X O *D sky130_fd_sc_hd__clkbuf_2
*CAP
1 *2593:A1 0.000232701
2 *2501:A0 0.000477384
3 *2481:A1 0.000126407
4 *2471:A1 0
5 *2538:A1 0
6 *2520:A1 0.000556828
7 *2610:A1 0.000126813
8 *2584:A1 0.000211837
9 *2548:A0 0
10 *2557:A1 0.00024804
11 *2855:X 0
12 *664:82 0.00100057
13 *664:56 0.00143099
14 *664:54 0.000737383
15 *664:43 0.000599095
16 *664:28 0.000606909
17 *664:14 0.000658131
18 *664:10 0.000716999
19 *664:4 0.000356819
20 *2481:A1 *2471:A0 0.00021866
21 *664:82 *2471:A0 4.82863e-05
22 *2424:A2 *664:10 7.06865e-05
23 *2424:A2 *664:14 1.54111e-05
24 *2424:A2 *664:28 4.38051e-05
25 *2424:A3 *664:14 0.000129814
26 *2424:A3 *664:28 0
27 *2428:A1 *2520:A1 3.03775e-05
28 *2428:A2 *664:54 2.86623e-05
29 *2429:A1 *664:82 2.17886e-05
30 *2437:S *2501:A0 3.38338e-05
31 *2474:S *2481:A1 4.66108e-05
32 *2474:S *664:82 0.000201773
33 *2520:A0 *2520:A1 8.57024e-05
34 *2538:A0 *2501:A0 7.23533e-05
35 *2538:S *2501:A0 8.5242e-05
36 *2538:S *664:54 5.39961e-05
37 *2548:A1 *2557:A1 3.31103e-05
38 *2548:A1 *664:14 1.83756e-05
39 *2557:A0 *2557:A1 0.000201503
40 *2584:A0 *2584:A1 4.99619e-05
41 *2593:S *2593:A1 8.40269e-05
42 *2610:A0 *2610:A1 0.000278111
43 *2682:D *664:54 0.000158974
44 *2723:D *2593:A1 7.00889e-06
45 *2723:D *664:10 0.000108365
46 *2723:D *664:28 0.000144122
47 *2788:D *2520:A1 0.000161813
48 *2811:A *664:28 0
49 *2898:A *664:54 2.33678e-05
50 *2953:A *2501:A0 2.75229e-05
51 *2987:A *2520:A1 5.85534e-05
52 *2987:A *664:82 8.07911e-05
53 *264:20 *664:43 0
54 *264:20 *664:54 0
55 *323:20 *2481:A1 0.000338852
56 *325:34 *2481:A1 1.07797e-05
57 *329:96 *2501:A0 3.54025e-05
58 *329:105 *2501:A0 1.56428e-05
59 *329:107 *664:10 0
60 *333:46 *2481:A1 9.52234e-05
61 *340:16 *2501:A0 8.09021e-06
62 *340:16 *664:43 0.000127602
63 *340:16 *664:54 0.000123425
64 *340:24 *664:10 0
65 *345:12 *2584:A1 0.000218409
66 *361:10 *664:28 0
67 *361:10 *664:43 0
68 *384:10 *664:54 6.65717e-05
69 *408:6 *664:82 1.91597e-05
70 *456:10 *2593:A1 0.000121103
71 *642:54 *664:28 6.81237e-05
72 *642:64 *664:10 2.15594e-05
73 *644:82 *664:54 5.73518e-05
*RES
1 *2855:X *664:4 1.6 
2 *664:4 *664:10 4.775 
3 *664:10 *664:14 6.935 
4 *664:14 *2557:A1 4.81 
5 *664:14 *2548:A0 1.6 
6 *664:10 *664:28 4.44 
7 *664:28 *2584:A1 6.93 
8 *664:28 *664:43 4.185 
9 *664:43 *2610:A1 6.12 
10 *664:43 *664:54 6.99 
11 *664:54 *664:56 2 
12 *664:56 *2520:A1 9.64 
13 *664:56 *2538:A1 1.6 
14 *664:56 *664:82 15.37 
15 *664:82 *2471:A1 1.6 
16 *664:82 *2481:A1 9.92 
17 *664:54 *2501:A0 9.66 
18 *664:4 *2593:A1 5.845 
*END

*D_NET *665 0.00895974
*CONN
*I *2529:A1 I *D sky130_fd_sc_hd__mux2_1
*I *2601:A0 I *D sky130_fd_sc_hd__mux2_1
*I *2491:A1 I *D sky130_fd_sc_hd__mux2_1
*I *2511:A1 I *D sky130_fd_sc_hd__mux2_1
*I *2575:A0 I *D sky130_fd_sc_hd__mux2_1
*I *2566:A1 I *D sky130_fd_sc_hd__mux2_1
*I *2856:X O *D sky130_fd_sc_hd__buf_1
*CAP
1 *2529:A1 9.4067e-05
2 *2601:A0 0.000402259
3 *2491:A1 0
4 *2511:A1 2.8398e-05
5 *2575:A0 6.33338e-05
6 *2566:A1 0.000226989
7 *2856:X 0.000128598
8 *665:57 0.000660768
9 *665:46 0.000477703
10 *665:12 0.00031532
11 *665:10 0.000540776
12 *665:6 0.000547647
13 *2511:A1 *2511:A0 2.49909e-05
14 *2566:A1 *2566:A0 0.00015639
15 *2575:A0 *2566:A0 9.99434e-05
16 *2601:A0 *670:64 0.000328429
17 *2424:S0 *2566:A1 4.76263e-05
18 *2425:A1 *2529:A1 6.58955e-06
19 *2425:A3 *2566:A1 2.7648e-05
20 *2426:A0 *2529:A1 0.000176605
21 *2529:S *2529:A1 9.50342e-06
22 *2575:A1 *2511:A1 7.00889e-06
23 *2575:A1 *2575:A0 3.36322e-05
24 *2575:A1 *665:12 1.16465e-05
25 *2575:A1 *665:46 0.000109859
26 *2601:S *2601:A0 0.000576418
27 *2658:D *665:46 9.30787e-05
28 *2770:CLK *2601:A0 0.000530329
29 *2770:CLK *665:57 0.000353527
30 *2871:A *2601:A0 0.000198945
31 *2878:A *2601:A0 8.23457e-05
32 *2958:A *2575:A0 6.43251e-05
33 *2958:A *665:6 7.3151e-05
34 *2958:A *665:10 0.000452552
35 *327:99 *2601:A0 0.000713365
36 *327:99 *665:57 3.09233e-05
37 *327:103 *665:46 0
38 *327:103 *665:57 0.000364318
39 *331:50 *665:57 0.000127666
40 *331:94 *2511:A1 8.49205e-05
41 *333:98 *2529:A1 0.000240029
42 *338:22 *2566:A1 2.46936e-05
43 *338:22 *665:12 9.12778e-06
44 *338:22 *665:46 0.000111901
45 *338:22 *665:57 0
46 *339:134 *2601:A0 0.000119351
47 *349:58 *2601:A0 0.000183036
48 *634:52 *2529:A1 0
*RES
1 *2856:X *665:6 3.085 
2 *665:6 *665:10 6.245 
3 *665:10 *665:12 0.4875 
4 *665:12 *2566:A1 6.8775 
5 *665:12 *2575:A0 5.7975 
6 *665:10 *665:46 4.47 
7 *665:46 *2511:A1 4.395 
8 *665:46 *665:57 8.265 
9 *665:57 *2491:A1 3.6 
10 *665:57 *2601:A0 18.99 
11 *665:6 *2529:A1 8.51 
*END

*D_NET *666 0.0134269
*CONN
*I *2480:A1 I *D sky130_fd_sc_hd__mux2_1
*I *2470:A1 I *D sky130_fd_sc_hd__mux2_1
*I *2510:A1 I *D sky130_fd_sc_hd__mux2_1
*I *2528:A1 I *D sky130_fd_sc_hd__mux2_1
*I *2574:A0 I *D sky130_fd_sc_hd__mux2_1
*I *2565:A1 I *D sky130_fd_sc_hd__mux2_1
*I *2592:A1 I *D sky130_fd_sc_hd__mux2_1
*I *2583:A1 I *D sky130_fd_sc_hd__mux2_1
*I *2556:A1 I *D sky130_fd_sc_hd__mux2_1
*I *2547:A0 I *D sky130_fd_sc_hd__mux2_1
*I *2857:X O *D sky130_fd_sc_hd__clkbuf_2
*CAP
1 *2480:A1 0
2 *2470:A1 2.03321e-05
3 *2510:A1 0.00024384
4 *2528:A1 0
5 *2574:A0 0
6 *2565:A1 0
7 *2592:A1 0
8 *2583:A1 0
9 *2556:A1 0.000376699
10 *2547:A0 0
11 *2857:X 0.000259327
12 *666:106 0.000641696
13 *666:93 0.00064333
14 *666:86 0.000775029
15 *666:69 0.000680893
16 *666:60 0.000324444
17 *666:30 0.000466232
18 *666:28 0.000757647
19 *666:20 0.000836993
20 *666:14 0.00058098
21 *666:28 *2600:A0 0.000230574
22 *2419:A0 *666:106 0.00015896
23 *2420:A1 *666:20 0.000152789
24 *2420:A1 *666:28 2.4997e-05
25 *2460:S1 *2556:A1 0
26 *2470:A0 *666:20 7.23602e-05
27 *2480:A0 *666:14 5.30673e-05
28 *2480:A0 *666:20 1.61831e-05
29 *2480:S *666:14 9.53428e-06
30 *2509:A *2510:A1 0
31 *2520:S *666:86 0
32 *2528:A0 *666:106 0.000241856
33 *2547:A1 *666:69 0.000147098
34 *2547:A1 *666:86 0.000163199
35 *2556:A0 *2556:A1 0.00014531
36 *2565:S *666:86 4.99619e-05
37 *2565:S *666:93 2.05056e-05
38 *2574:A1 *666:93 3.00381e-05
39 *2574:A1 *666:106 2.75145e-05
40 *2580:S *2556:A1 0.000270633
41 *2583:S *666:28 7.13792e-05
42 *2583:S *666:60 3.711e-05
43 *2592:A0 *666:86 6.52819e-05
44 *2633:CLK *666:20 0.000137719
45 *2633:CLK *666:28 8.47372e-05
46 *2657:CLK *2510:A1 0.000268739
47 *2673:CLK *666:106 4.82863e-05
48 *2673:D *666:106 1.54049e-05
49 *2689:CLK *2556:A1 0.000183043
50 *2705:D *666:86 1.91597e-05
51 *2779:D *666:28 0.000124167
52 *2875:A *666:86 1.91597e-05
53 *2939:A *666:28 8.07863e-05
54 *2940:A *666:106 0.000607455
55 *323:102 *2470:A1 4.82919e-05
56 *325:67 *666:14 0.000214272
57 *325:77 *666:14 2.30292e-05
58 *325:77 *666:20 0.00024702
59 *327:53 *666:28 0
60 *333:12 *666:106 0.000326324
61 *336:51 *666:69 2.30292e-05
62 *336:51 *666:86 1.12578e-05
63 *336:65 *666:28 7.13792e-05
64 *337:26 *666:86 0
65 *337:83 *666:86 0.000163199
66 *341:8 *666:86 0.000110668
67 *341:42 *2556:A1 0.000387902
68 *341:42 *666:30 6.26945e-05
69 *341:42 *666:60 7.64029e-05
70 *341:42 *666:69 0.000380194
71 *341:42 *666:86 4.99619e-05
72 *341:103 *2510:A1 2.46089e-05
73 *359:55 *666:86 0.00011719
74 *359:66 *666:86 0.000157595
75 *439:16 *666:93 2.20732e-05
76 *439:16 *666:106 5.58772e-05
77 *447:10 *666:86 0.000375057
78 *633:129 *666:28 0
79 *643:157 *2470:A1 1.16578e-05
80 *643:157 *666:28 0.000249928
81 *648:117 *666:106 3.28128e-05
*RES
1 *2857:X *666:14 11.15 
2 *666:14 *666:20 10.085 
3 *666:20 *666:28 13.37 
4 *666:28 *666:30 1.14 
5 *666:30 *2547:A0 1.6 
6 *666:30 *2556:A1 14.72 
7 *666:28 *666:60 3.015 
8 *666:60 *2583:A1 1.6 
9 *666:60 *666:69 4.26 
10 *666:69 *2592:A1 1.6 
11 *666:69 *666:86 16.975 
12 *666:86 *2565:A1 1.6 
13 *666:86 *666:93 3.555 
14 *666:93 *2574:A0 1.6 
15 *666:93 *666:106 15.28 
16 *666:106 *2528:A1 1.6 
17 *666:106 *2510:A1 8.99 
18 *666:20 *2470:A1 4.05 
19 *666:14 *2480:A1 1.6 
*END

*D_NET *667 0.00816
*CONN
*I *2609:A1 I *D sky130_fd_sc_hd__mux2_1
*I *2537:A1 I *D sky130_fd_sc_hd__mux2_1
*I *2500:A0 I *D sky130_fd_sc_hd__mux2_1
*I *2519:A1 I *D sky130_fd_sc_hd__mux2_1
*I *2490:A1 I *D sky130_fd_sc_hd__mux2_1
*I *2600:A0 I *D sky130_fd_sc_hd__mux2_1
*I *2858:X O *D sky130_fd_sc_hd__buf_1
*CAP
1 *2609:A1 3.96067e-05
2 *2537:A1 6.26484e-05
3 *2500:A0 0
4 *2519:A1 0.000136529
5 *2490:A1 0
6 *2600:A0 0.000371502
7 *2858:X 0.000243889
8 *667:51 0.000229948
9 *667:30 0.000882432
10 *667:24 0.000773055
11 *667:14 0.00050257
12 *667:10 0.000367873
13 *2600:A0 *2619:RESET_B 0
14 *667:51 *670:80 0.000222119
15 *2420:A1 *2600:A0 3.64998e-06
16 *2420:A2 *667:30 1.21855e-05
17 *2420:A2 *667:51 2.42236e-05
18 *2421:A2 *667:24 0.000161529
19 *2421:A3 *667:14 1.37864e-05
20 *2421:A3 *667:24 7.23635e-05
21 *2422:A1 *667:24 4.99619e-05
22 *2422:A3 *667:24 0.000222134
23 *2422:A3 *667:30 0.000272978
24 *2423:A1 *667:24 2.53191e-06
25 *2500:A1 *667:24 0.000191967
26 *2500:A1 *667:30 2.75145e-05
27 *2537:A0 *2537:A1 4.99619e-05
28 *2600:A1 *2600:A0 5.33085e-05
29 *2609:S *2609:A1 0.000117832
30 *2609:S *667:14 0.000205169
31 *2858:A *667:10 0.000216213
32 *2877:A *667:24 8.8266e-05
33 *2895:A *667:51 7.5416e-05
34 *264:20 *2609:A1 4.19884e-05
35 *264:20 *667:14 7.16181e-05
36 *323:80 *667:30 3.16756e-05
37 *327:26 *2519:A1 0.000279054
38 *327:26 *2537:A1 0.000150653
39 *327:26 *667:24 0.000421068
40 *327:34 *667:51 3.60648e-05
41 *332:18 *667:30 8.87273e-05
42 *332:42 *2519:A1 0.000275548
43 *332:42 *667:51 2.0514e-05
44 *342:67 *667:24 0.000231512
45 *391:10 *2600:A0 7.23533e-05
46 *407:8 *2600:A0 5.10957e-05
47 *415:10 *2600:A0 7.87272e-05
48 *415:10 *667:30 1.56428e-05
49 *487:8 *667:10 0.000201503
50 *633:129 *2600:A0 1.01661e-05
51 *643:157 *2519:A1 3.77036e-05
52 *643:157 *2600:A0 7.23602e-05
53 *643:157 *667:51 4.82919e-05
54 *666:28 *2600:A0 0.000230574
*RES
1 *2858:X *667:10 8.895 
2 *667:10 *667:14 4.4 
3 *667:14 *667:24 13.675 
4 *667:24 *667:30 6.78 
5 *667:30 *2600:A0 12.14 
6 *667:30 *667:51 7.105 
7 *667:51 *2490:A1 1.6 
8 *667:51 *2519:A1 5.86 
9 *667:24 *2500:A0 1.6 
10 *667:14 *2537:A1 3.085 
11 *667:10 *2609:A1 4.98 
*END

*D_NET *668 0.0131805
*CONN
*I *2730:CLK I *D sky130_fd_sc_hd__dfstp_1
*I *2618:CLK I *D sky130_fd_sc_hd__dfrtp_1
*I *2721:CLK I *D sky130_fd_sc_hd__dfstp_1
*I *2734:CLK I *D sky130_fd_sc_hd__dfrtp_1
*I *2735:CLK I *D sky130_fd_sc_hd__dfrtp_4
*I *2733:CLK I *D sky130_fd_sc_hd__dfrtp_1
*I *2732:CLK I *D sky130_fd_sc_hd__dfrtp_1
*I *2736:CLK I *D sky130_fd_sc_hd__dfrtp_1
*I *2731:CLK I *D sky130_fd_sc_hd__dfrtp_1
*I *2621:CLK I *D sky130_fd_sc_hd__dfrtp_1
*I *2859:X O *D sky130_fd_sc_hd__clkbuf_2
*CAP
1 *2730:CLK 0
2 *2618:CLK 0
3 *2721:CLK 8.33048e-05
4 *2734:CLK 0
5 *2735:CLK 0
6 *2733:CLK 0.000251663
7 *2732:CLK 7.65638e-05
8 *2736:CLK 0
9 *2731:CLK 3.37454e-05
10 *2621:CLK 0.000142355
11 *2859:X 7.03206e-05
12 *668:119 0.000143825
13 *668:112 0.000643737
14 *668:79 0.00120345
15 *668:57 0.000875218
16 *668:55 0.0011408
17 *668:26 0.000759931
18 *668:20 0.00111852
19 *668:16 0.00130225
20 *668:10 0.000280296
21 *2621:CLK *669:44 0
22 *2721:CLK *2330:A 9.24127e-05
23 *2721:CLK *2862:A 0
24 *2733:CLK *2732:D 0.000118513
25 *2733:CLK *2733:D 5.05521e-05
26 *2733:CLK *2737:D 4.98446e-05
27 *668:16 *2736:RESET_B 0.000116611
28 *668:20 *2736:D 1.34503e-05
29 *668:20 *2736:RESET_B 0.00022927
30 *668:26 *2736:D 7.60965e-05
31 *668:26 *2736:RESET_B 8.04342e-05
32 *668:26 *2769:D 3.64998e-06
33 *668:26 *669:87 0
34 *668:55 *2735:D 0.000155227
35 *668:79 *2735:D 6.18292e-05
36 *668:79 *705:12 0.000187233
37 *668:79 *708:42 0.000117403
38 *668:112 *2330:A 0
39 *668:112 *2734:D 0
40 *668:112 *2734:RESET_B 2.46073e-05
41 *668:112 *672:16 0.000109101
42 *668:112 *672:30 1.82499e-06
43 *668:112 *708:42 0
44 *668:119 *672:16 4.43682e-05
45 *2333:A *668:55 0
46 *2333:B *668:16 0.00012657
47 *2333:B *668:55 0
48 *2336:B *668:20 0.000119631
49 *2391:A *668:26 2.34423e-05
50 *2391:B *668:26 0.000162325
51 *2393:A *668:26 0.000179008
52 *2394:B1 *2733:CLK 0
53 *2399:A *2733:CLK 2.95708e-05
54 *2406:A1 *668:79 0.000119762
55 *2406:A2 *668:79 4.66108e-05
56 *2407:B2 *668:79 3.86607e-05
57 *2407:C1 *668:79 1.83847e-05
58 *2413:A *668:112 0.000141133
59 *2416:A *668:112 0.000169242
60 *2417:B *668:79 0.0001249
61 *2494:A0 *2621:CLK 0
62 *2494:S *2621:CLK 0
63 *2494:S *668:26 0
64 *213:10 *668:55 0
65 *216:8 *668:10 0
66 *217:8 *668:55 0.000157241
67 *217:14 *668:55 2.03578e-05
68 *227:42 *668:10 0.000139238
69 *229:6 *668:79 7.49327e-05
70 *273:14 *668:79 7.21296e-06
71 *363:10 *2733:CLK 0
72 *363:10 *668:79 0
73 *551:26 *2732:CLK 0.000168614
74 *551:26 *668:79 0.000183622
75 *634:26 *668:79 7.10578e-05
76 *634:40 *668:79 0.000464505
77 *637:174 *668:55 0
78 *637:174 *668:112 0
79 *639:59 *668:26 0.000205372
80 *640:14 *2733:CLK 0.000141975
81 *642:12 *2733:CLK 0
82 *642:99 *2733:CLK 0.000276057
83 *642:99 *668:26 5.64143e-05
84 *642:99 *668:79 0.000112123
85 *642:101 *2621:CLK 7.75325e-05
86 *642:101 *668:26 6.65804e-05
*RES
1 *2859:X *668:10 7.235 
2 *668:10 *668:16 4.365 
3 *668:16 *668:20 9.09 
4 *668:20 *668:26 14.63 
5 *668:26 *2621:CLK 6.195 
6 *668:26 *2731:CLK 4.05 
7 *668:20 *2736:CLK 1.6 
8 *668:16 *668:55 12.56 
9 *668:55 *668:57 2 
10 *668:57 *668:79 27.925 
11 *668:79 *2732:CLK 5.445 
12 *668:79 *2733:CLK 9.78 
13 *668:57 *2735:CLK 1.6 
14 *668:55 *668:112 13.385 
15 *668:112 *2734:CLK 1.6 
16 *668:112 *668:119 1.14 
17 *668:119 *2721:CLK 7.49 
18 *668:119 *2618:CLK 1.6 
19 *668:10 *2730:CLK 1.6 
*END

*D_NET *669 0.0250858
*CONN
*I *2859:A I *D sky130_fd_sc_hd__clkbuf_2
*I *2765:CLK I *D sky130_fd_sc_hd__dfrtp_1
*I *2764:CLK I *D sky130_fd_sc_hd__dfrtp_1
*I *2759:CLK I *D sky130_fd_sc_hd__dfrtp_1
*I *2737:CLK I *D sky130_fd_sc_hd__dfrtp_1
*I *2620:CLK I *D sky130_fd_sc_hd__dfrtp_1
*I *2622:CLK I *D sky130_fd_sc_hd__dfrtp_1
*I *2624:CLK I *D sky130_fd_sc_hd__dfrtp_1
*I *2860:X O *D sky130_fd_sc_hd__buf_2
*CAP
1 *2859:A 0
2 *2765:CLK 2.94497e-05
3 *2764:CLK 0.000111211
4 *2759:CLK 0.000509542
5 *2737:CLK 0
6 *2620:CLK 2.08101e-05
7 *2622:CLK 0
8 *2624:CLK 0.00114666
9 *2860:X 0.000313308
10 *669:106 0.000698655
11 *669:100 0.000310984
12 *669:87 0.000870611
13 *669:50 0.00211905
14 *669:44 0.00349226
15 *669:28 0.00444844
16 *669:14 0.00159571
17 *2759:CLK *2491:A0 5.10415e-05
18 *2759:CLK *2759:D 2.49909e-05
19 *2759:CLK *672:76 8.22234e-06
20 *2764:CLK *2759:RESET_B 2.46073e-05
21 *2764:CLK *2764:D 4.99619e-05
22 *2764:CLK *672:66 6.43251e-05
23 *2764:CLK *672:76 3.001e-05
24 *2765:CLK *2765:D 8.8266e-05
25 *669:14 *2730:SET_B 0
26 *669:14 *673:8 8.65961e-05
27 *669:28 *2842:A 0.000163199
28 *669:28 *719:10 0.000298658
29 *669:44 *2620:RESET_B 1.53577e-05
30 *669:44 *678:12 0.000575669
31 *669:44 *678:26 7.64183e-05
32 *669:50 *2622:RESET_B 2.40101e-05
33 *669:50 *678:26 0.000443075
34 *669:106 *2765:D 8.70923e-05
35 *669:106 *2936:A 3.04982e-05
36 *669:106 *672:76 6.10014e-05
37 *669:106 *721:8 0
38 *2347:C *669:14 5.16348e-05
39 *2348:A1 *669:14 9.65788e-05
40 *2348:B1 *669:14 0.000122331
41 *2349:C *669:28 0
42 *2363:A1 *669:14 4.82863e-05
43 *2363:A1 *669:28 0.000101723
44 *2363:B1 *669:28 0.000195
45 *2391:B *669:28 0
46 *2394:A1 *669:87 5.89912e-05
47 *2404:B *669:28 4.82919e-05
48 *2436:S0 *2624:CLK 0.000130638
49 *2445:S0 *669:44 0
50 *2449:A1 *669:44 0.00011852
51 *2462:S1 *2624:CLK 8.49205e-05
52 *2467:S *2624:CLK 0
53 *2473:S *2624:CLK 0.000158297
54 *2494:A0 *669:44 7.23602e-05
55 *2494:S *669:44 6.43964e-05
56 *2494:S *669:87 0.00017974
57 *2495:A0 *2624:CLK 0
58 *2495:S *2624:CLK 0.000729077
59 *2572:S *2624:CLK 2.8717e-05
60 *2596:A0 *669:44 0.000197017
61 *2596:S *669:44 0.000160641
62 *2621:CLK *669:44 0
63 *2624:D *2624:CLK 0.000117825
64 *2692:D *2624:CLK 0
65 *2730:D *669:14 0.00011852
66 *2814:A *669:44 1.07797e-05
67 *2886:A *669:44 0.000111901
68 *227:42 *669:14 0.000173478
69 *228:10 *669:14 3.09233e-05
70 *230:14 *669:14 1.34503e-05
71 *231:12 *669:14 8.33871e-05
72 *265:6 *669:28 8.40213e-05
73 *267:12 *669:87 0.000138133
74 *339:40 *2624:CLK 0
75 *348:10 *669:44 2.4997e-05
76 *348:32 *669:44 7.44453e-05
77 *348:63 *669:44 3.05373e-05
78 *354:30 *2624:CLK 0.000150453
79 *354:32 *2624:CLK 0.000202781
80 *363:10 *669:87 0.000411838
81 *363:10 *669:100 0.000203755
82 *634:40 *669:87 0.00011379
83 *634:52 *669:44 0.000125549
84 *634:52 *669:87 0.000255459
85 *634:60 *669:44 0.000315139
86 *634:168 *669:87 0.000532987
87 *634:168 *669:100 0.000370144
88 *639:59 *669:44 0
89 *639:73 *669:44 0
90 *639:111 *2624:CLK 0
91 *642:99 *669:87 0
92 *644:27 *2765:CLK 4.35432e-05
93 *644:27 *669:100 0.000128545
94 *645:121 *2624:CLK 0
95 *648:78 *2765:CLK 6.47326e-05
96 *648:78 *669:100 8.67385e-05
97 *650:6 *669:28 0.000198046
98 *650:30 *669:28 0.000262147
99 *650:30 *669:44 9.09288e-05
100 *668:26 *669:87 0
*RES
1 *2860:X *669:14 13.52 
2 *669:14 *669:28 23.055 
3 *669:28 *669:44 45.325 
4 *669:44 *669:50 16.095 
5 *669:50 *2624:CLK 30.35 
6 *669:50 *2622:CLK 1.6 
7 *669:44 *2620:CLK 1.96 
8 *669:28 *669:87 20.855 
9 *669:87 *2737:CLK 3.6 
10 *669:87 *669:100 8.615 
11 *669:100 *669:106 6.145 
12 *669:106 *2759:CLK 7.87 
13 *669:106 *2764:CLK 4.24 
14 *669:100 *2765:CLK 3.085 
15 *669:14 *2859:A 1.6 
*END

*D_NET *670 0.0230874
*CONN
*I *2739:CLK I *D sky130_fd_sc_hd__dfrtp_1
*I *2763:CLK I *D sky130_fd_sc_hd__dfrtp_1
*I *2766:CLK I *D sky130_fd_sc_hd__dfrtp_1
*I *2738:CLK I *D sky130_fd_sc_hd__dfrtp_1
*I *2761:CLK I *D sky130_fd_sc_hd__dfrtp_1
*I *2619:CLK I *D sky130_fd_sc_hd__dfrtp_1
*I *2617:CLK I *D sky130_fd_sc_hd__dfrtp_1
*I *2623:CLK I *D sky130_fd_sc_hd__dfrtp_1
*I *2760:CLK I *D sky130_fd_sc_hd__dfrtp_1
*I *2762:CLK I *D sky130_fd_sc_hd__dfrtp_1
*I *2861:X O *D sky130_fd_sc_hd__buf_2
*CAP
1 *2739:CLK 0.000236401
2 *2763:CLK 0
3 *2766:CLK 0
4 *2738:CLK 5.39735e-05
5 *2761:CLK 0.000295792
6 *2619:CLK 0
7 *2617:CLK 0.000160169
8 *2623:CLK 0.000396972
9 *2760:CLK 1.30105e-05
10 *2762:CLK 0
11 *2861:X 0.00015002
12 *670:80 0.00194257
13 *670:64 0.00344189
14 *670:58 0.0024292
15 *670:45 0.000844081
16 *670:41 0.00112801
17 *670:35 0.0007665
18 *670:29 0.00113432
19 *670:19 0.000967607
20 *670:10 0.000193493
21 *2623:CLK *2619:RESET_B 5.61663e-05
22 *2623:CLK *2623:RESET_B 2.01541e-05
23 *2739:CLK *2739:D 0
24 *2739:CLK *2762:D 7.5448e-05
25 *2739:CLK *675:96 0.000227809
26 *2739:CLK *677:25 9.66106e-05
27 *2760:CLK *2760:D 2.24336e-05
28 *2761:CLK *2755:D 0.000411493
29 *2761:CLK *2756:RESET_B 8.92366e-05
30 *2761:CLK *2760:D 0.000570467
31 *2761:CLK *675:32 9.66106e-05
32 *670:10 *2739:D 0
33 *670:10 *2762:D 4.18603e-06
34 *670:10 *2768:D 7.23602e-05
35 *670:10 *675:10 7.27298e-06
36 *670:10 *675:96 3.95347e-05
37 *670:19 *2762:D 4.70256e-05
38 *670:19 *675:96 5.99925e-05
39 *670:29 *2746:RESET_B 0
40 *670:29 *2763:D 4.49498e-05
41 *670:29 *733:8 3.45588e-05
42 *670:35 *2761:RESET_B 0.000101917
43 *670:35 *2763:RESET_B 0.000188727
44 *670:35 *2766:D 0.000197888
45 *670:41 *2766:D 1.43521e-05
46 *670:41 *2771:D 0
47 *670:58 *2755:D 0.000163019
48 *670:58 *2760:D 4.19797e-05
49 *670:64 *2619:RESET_B 0
50 *670:80 *2619:RESET_B 0.000304122
51 *2418:S0 *670:80 2.92496e-05
52 *2420:S0 *670:80 0.00085125
53 *2461:A0 *2617:CLK 0.000145184
54 *2461:A1 *2617:CLK 7.57202e-05
55 *2461:A1 *2623:CLK 8.49205e-05
56 *2461:A1 *670:80 0.000461971
57 *2461:S *2617:CLK 0.000212609
58 *2480:A0 *670:80 0
59 *2481:A0 *670:64 0.000231423
60 *2547:A1 *670:80 1.92979e-05
61 *2601:A0 *670:64 0.000328429
62 *2601:A1 *670:64 0.00016063
63 *2601:S *670:64 7.03516e-05
64 *2623:D *2623:CLK 6.97202e-05
65 *2722:D *670:80 5.13155e-05
66 *2747:D *670:80 8.09021e-06
67 *2773:CLK *670:41 5.05521e-05
68 *2801:A *670:29 1.03423e-05
69 *2817:A *670:35 0.0001249
70 *2870:A *670:80 1.91597e-05
71 *2871:A *670:64 0.000198945
72 *2878:A *670:64 0.000193801
73 *2895:A *670:80 0.000151572
74 *323:80 *670:80 0
75 *345:72 *670:80 0.00017398
76 *345:94 *670:80 0.000111939
77 *351:14 *670:29 5.73739e-05
78 *351:22 *670:35 1.71013e-05
79 *351:24 *670:35 0.000103185
80 *351:26 *670:35 0.000190931
81 *351:26 *670:41 7.89689e-05
82 *471:8 *670:80 4.23703e-05
83 *633:14 *2761:CLK 4.41506e-05
84 *633:14 *670:64 2.49909e-05
85 *633:22 *2760:CLK 5.56629e-05
86 *633:22 *670:58 0.000263504
87 *633:129 *670:80 0.000877976
88 *634:168 *670:45 4.9016e-05
89 *643:126 *670:80 0
90 *646:82 *670:80 8.23457e-05
91 *667:51 *670:80 0.000222119
*RES
1 *2861:X *670:10 6.03 
2 *670:10 *2762:CLK 3.6 
3 *670:10 *670:19 1.38 
4 *670:19 *670:29 14.385 
5 *670:29 *670:35 13.85 
6 *670:35 *670:41 6.5 
7 *670:41 *670:45 10.385 
8 *670:45 *2760:CLK 4.215 
9 *670:45 *670:58 5.165 
10 *670:58 *670:64 31.185 
11 *670:64 *670:80 42.815 
12 *670:80 *2623:CLK 12.44 
13 *670:80 *2617:CLK 6.19 
14 *670:64 *2619:CLK 1.6 
15 *670:58 *2761:CLK 14.645 
16 *670:41 *2738:CLK 2.665 
17 *670:35 *2766:CLK 3.6 
18 *670:29 *2763:CLK 1.6 
19 *670:19 *2739:CLK 9.78 
*END

*D_NET *671 0.00098074
*CONN
*I *2296:A I *D sky130_fd_sc_hd__inv_2
*I *3021:X O *D sky130_fd_sc_hd__clkbuf_1
*CAP
1 *2296:A 0.000408937
2 *3021:X 0.000408937
3 *2297:A *2296:A 0.000132336
4 *2323:A2 *2296:A 0
5 *3020:A *2296:A 3.05295e-05
6 *3022:A *2296:A 0
*RES
1 *3021:X *2296:A 14.415 
*END

*D_NET *672 0.0107072
*CONN
*I *2721:SET_B I *D sky130_fd_sc_hd__dfstp_1
*I *2618:RESET_B I *D sky130_fd_sc_hd__dfrtp_1
*I *2734:RESET_B I *D sky130_fd_sc_hd__dfrtp_1
*I *2759:RESET_B I *D sky130_fd_sc_hd__dfrtp_1
*I *2737:RESET_B I *D sky130_fd_sc_hd__dfrtp_1
*I *2770:RESET_B I *D sky130_fd_sc_hd__dfrtp_1
*I *2764:RESET_B I *D sky130_fd_sc_hd__dfrtp_1
*I *2733:RESET_B I *D sky130_fd_sc_hd__dfrtp_1
*I *2732:RESET_B I *D sky130_fd_sc_hd__dfrtp_1
*I *2765:RESET_B I *D sky130_fd_sc_hd__dfrtp_1
*I *2862:X O *D sky130_fd_sc_hd__clkbuf_4
*CAP
1 *2721:SET_B 0
2 *2618:RESET_B 0.000105875
3 *2734:RESET_B 2.7862e-05
4 *2759:RESET_B 2.7862e-05
5 *2737:RESET_B 0.000338187
6 *2770:RESET_B 8.96392e-06
7 *2764:RESET_B 0.000609221
8 *2733:RESET_B 0
9 *2732:RESET_B 0.000272374
10 *2765:RESET_B 3.24164e-05
11 *2862:X 6.56255e-05
12 *672:76 0.00072922
13 *672:66 0.000909912
14 *672:40 0.00059813
15 *672:38 0.000434997
16 *672:30 0.000854163
17 *672:16 0.00154136
18 *672:14 0.000861174
19 *672:10 0.000129171
20 *2732:RESET_B *2837:A 0
21 *2732:RESET_B *705:40 0
22 *2732:RESET_B *720:18 0.00030289
23 *2732:RESET_B *753:10 0.000193372
24 *2737:RESET_B *2430:S 2.5139e-05
25 *2764:RESET_B *753:10 5.02217e-05
26 *2770:RESET_B *2430:S 1.30699e-05
27 *672:10 *2862:A 4.66108e-05
28 *672:10 *2867:A 9.5433e-05
29 *672:10 *739:10 4.84393e-05
30 *672:14 *2867:A 0.000280085
31 *672:14 *739:10 0.000159593
32 *672:30 *2334:A 0
33 *672:30 *707:6 6.13486e-05
34 *672:30 *707:21 0
35 *672:30 *753:10 0
36 *672:30 *754:10 0.000133164
37 *672:40 *2837:A 0
38 *672:40 *753:10 0.0003186
39 *672:66 *2412:B 0.000180207
40 *672:66 *2764:D 4.58166e-05
41 *672:76 *2430:S 3.18568e-05
42 *672:76 *2936:A 0.00033517
43 *2397:B *672:40 2.59981e-05
44 *2429:S *2737:RESET_B 9.04308e-05
45 *2431:A1 *2737:RESET_B 1.88595e-05
46 *2759:CLK *672:76 8.22234e-06
47 *2764:CLK *2759:RESET_B 2.46073e-05
48 *2764:CLK *672:66 6.43251e-05
49 *2764:CLK *672:76 3.001e-05
50 *333:98 *2737:RESET_B 0
51 *551:26 *2732:RESET_B 0.000259315
52 *637:10 *672:30 4.82863e-05
53 *639:26 *2737:RESET_B 2.86869e-05
54 *644:27 *2764:RESET_B 0
55 *644:27 *672:40 0
56 *648:78 *672:40 0
57 *668:112 *2734:RESET_B 2.46073e-05
58 *668:112 *672:16 0.000109101
59 *668:112 *672:30 1.82499e-06
60 *668:119 *672:16 4.43682e-05
61 *669:106 *672:76 6.10014e-05
*RES
1 *2862:X *672:10 5.175 
2 *672:10 *672:14 5.165 
3 *672:14 *672:16 8.04 
4 *672:16 *672:30 15.865 
5 *672:30 *2765:RESET_B 0.3975 
6 *672:30 *672:38 2 
7 *672:38 *672:40 6.735 
8 *672:40 *2732:RESET_B 8.9975 
9 *672:40 *2733:RESET_B 2 
10 *672:38 *2764:RESET_B 3.635 
11 *2764:RESET_B *672:66 6.8775 
12 *672:66 *672:76 10.9 
13 *672:76 *2770:RESET_B 0.3975 
14 *672:76 *2737:RESET_B 8.7475 
15 *672:66 *2759:RESET_B 0.7575 
16 *672:16 *2734:RESET_B 0.7575 
17 *672:14 *2618:RESET_B 1.3575 
18 *672:10 *2721:SET_B 2 
*END

*D_NET *673 0.0109236
*CONN
*I *2774:RESET_B I *D sky130_fd_sc_hd__dfrtp_1
*I *2769:RESET_B I *D sky130_fd_sc_hd__dfrtp_1
*I *2731:RESET_B I *D sky130_fd_sc_hd__dfrtp_1
*I *2621:RESET_B I *D sky130_fd_sc_hd__dfrtp_1
*I *2736:RESET_B I *D sky130_fd_sc_hd__dfrtp_1
*I *2730:SET_B I *D sky130_fd_sc_hd__dfstp_1
*I *2862:A I *D sky130_fd_sc_hd__clkbuf_4
*I *2735:RESET_B I *D sky130_fd_sc_hd__dfrtp_4
*I *2863:X O *D sky130_fd_sc_hd__buf_2
*CAP
1 *2774:RESET_B 0.00012753
2 *2769:RESET_B 0.000179644
3 *2731:RESET_B 0
4 *2621:RESET_B 8.59142e-05
5 *2736:RESET_B 0.00147898
6 *2730:SET_B 0.00161252
7 *2862:A 0.000944551
8 *2735:RESET_B 1.63054e-05
9 *2863:X 0.000321371
10 *673:74 0.000343509
11 *673:58 0.000393196
12 *673:56 0.000343616
13 *673:16 0.00139944
14 *673:8 0.00089349
15 *2730:SET_B *2867:A 0
16 *2730:SET_B *678:10 0
17 *2735:RESET_B *708:10 4.70393e-05
18 *2736:RESET_B *2736:D 0.000163199
19 *2769:RESET_B *2869:A 1.7386e-05
20 *2774:RESET_B *2774:D 0
21 *2862:A *2330:A 0
22 *2862:A *708:10 0
23 *2862:A *739:10 0
24 *673:8 *2863:A 2.66586e-05
25 *673:16 *2345:A 7.75325e-05
26 *673:16 *2867:A 0
27 *673:16 *708:10 0
28 *673:16 *739:10 0
29 *673:58 *2731:D 0
30 empty *2862:A 0
31 *2333:B *2736:RESET_B 7.35813e-05
32 *2336:B *2736:RESET_B 0.000119631
33 *2348:A1 *2730:SET_B 0
34 *2348:A1 *673:16 1.90931e-06
35 *2431:A1 *2862:A 6.15576e-06
36 *2431:S *2862:A 9.46978e-05
37 *2618:D *2862:A 0
38 *2721:CLK *2862:A 0
39 *2860:A *673:8 4.65515e-05
40 *228:10 *673:16 0
41 *230:14 *2730:SET_B 0.000112123
42 *551:26 *2735:RESET_B 8.07616e-05
43 *634:26 *2862:A 0.000152611
44 *639:59 *2774:RESET_B 0.000210005
45 *639:59 *673:58 5.47609e-05
46 *639:59 *673:74 6.00003e-05
47 *642:99 *673:58 0
48 *642:101 *2621:RESET_B 0
49 *642:101 *673:58 0
50 *647:27 *2621:RESET_B 1.01661e-05
51 *648:8 *673:58 0.000195244
52 *648:20 *2621:RESET_B 4.84393e-05
53 *648:20 *673:58 0.000252282
54 *648:53 *2774:RESET_B 0.000103557
55 *648:53 *673:58 0.000152821
56 *648:53 *673:74 0.00011686
57 *668:16 *2736:RESET_B 0.000116611
58 *668:20 *2736:RESET_B 0.00022927
59 *668:26 *2736:RESET_B 8.04342e-05
60 *669:14 *2730:SET_B 0
61 *669:14 *673:8 8.65961e-05
62 *672:10 *2862:A 4.66108e-05
*RES
1 *2863:X *673:8 7.5 
2 *673:8 *673:16 7.6575 
3 *673:16 *2735:RESET_B 2.7425 
4 *673:16 *2862:A 19.5 
5 *673:8 *2730:SET_B 4.4375 
6 *2730:SET_B *2736:RESET_B 18.87 
7 *2736:RESET_B *673:56 2 
8 *673:56 *673:58 6.99 
9 *673:58 *2621:RESET_B 3.83 
10 *673:58 *2731:RESET_B 2 
11 *673:56 *673:74 1.38 
12 *673:74 *2769:RESET_B 4.4675 
13 *673:74 *2774:RESET_B 5.465 
*END

*D_NET *674 0.0092524
*CONN
*I *2739:RESET_B I *D sky130_fd_sc_hd__dfrtp_1
*I *2762:RESET_B I *D sky130_fd_sc_hd__dfrtp_1
*I *2767:RESET_B I *D sky130_fd_sc_hd__dfrtp_2
*I *2768:RESET_B I *D sky130_fd_sc_hd__dfrtp_2
*I *2746:RESET_B I *D sky130_fd_sc_hd__dfrtp_4
*I *2763:RESET_B I *D sky130_fd_sc_hd__dfrtp_1
*I *2771:RESET_B I *D sky130_fd_sc_hd__dfrtp_1
*I *2766:RESET_B I *D sky130_fd_sc_hd__dfrtp_1
*I *2773:RESET_B I *D sky130_fd_sc_hd__dfrtp_1
*I *2738:RESET_B I *D sky130_fd_sc_hd__dfrtp_1
*I *2864:X O *D sky130_fd_sc_hd__clkbuf_4
*CAP
1 *2739:RESET_B 0.000405823
2 *2762:RESET_B 0
3 *2767:RESET_B 4.0888e-05
4 *2768:RESET_B 4.97478e-06
5 *2746:RESET_B 0.000213776
6 *2763:RESET_B 0.000136606
7 *2771:RESET_B 0
8 *2766:RESET_B 0
9 *2773:RESET_B 0.000808025
10 *2738:RESET_B 1.88353e-05
11 *2864:X 0.000105472
12 *674:92 0.000635127
13 *674:81 0.000270193
14 *674:54 0.000453121
15 *674:47 0.000232482
16 *674:22 0.000982106
17 *674:18 0.000216881
18 *674:16 0.000925693
19 *674:12 0.00106646
20 *674:8 0.000432647
21 *2739:RESET_B *2739:D 0
22 *2739:RESET_B *2778:D 0
23 *2739:RESET_B *2867:A 0
24 *2739:RESET_B *2947:A 8.55971e-05
25 *2739:RESET_B *676:23 0
26 *2746:RESET_B *2763:D 0
27 *2746:RESET_B *733:25 0
28 *2763:RESET_B *2761:RESET_B 0.000617025
29 *2763:RESET_B *2763:D 3.32922e-05
30 *2767:RESET_B *2947:A 5.2089e-05
31 *2767:RESET_B *739:10 5.2089e-05
32 *2773:RESET_B *2773:D 0.000278117
33 *674:18 *2771:D 6.18754e-05
34 *674:18 *755:10 0
35 *674:22 *2771:D 9.24049e-05
36 *674:22 *755:10 0
37 *674:47 *2766:D 0
38 *674:47 *2771:D 0.000113745
39 *674:54 *2766:D 0
40 *674:92 *2867:A 0
41 *674:92 *2947:A 0.000211717
42 *674:92 *739:10 4.43871e-06
43 *2642:CLK *674:22 0
44 *2768:CLK *674:16 5.73739e-05
45 *2773:CLK *2738:RESET_B 2.40101e-05
46 *2773:CLK *2773:RESET_B 0.000280733
47 *351:20 *2746:RESET_B 0
48 *351:22 *2746:RESET_B 0
49 *351:26 *674:22 0
50 *518:40 *2768:RESET_B 1.53577e-05
51 *518:40 *674:8 5.43869e-05
52 *518:40 *674:12 4.03215e-05
53 *518:40 *674:16 3.99879e-05
54 *670:29 *2746:RESET_B 0
55 *670:35 *2763:RESET_B 0.000188727
*RES
1 *2864:X *674:8 3.445 
2 *674:8 *674:12 3.915 
3 *674:12 *674:16 12.8 
4 *674:16 *674:18 1.38 
5 *674:18 *674:22 4.91 
6 *674:22 *2738:RESET_B 0.3975 
7 *674:22 *2773:RESET_B 11.2275 
8 *674:18 *2766:RESET_B 2 
9 *674:16 *674:47 2.91 
10 *674:47 *2771:RESET_B 2 
11 *674:47 *674:54 1.38 
12 *674:54 *2763:RESET_B 7.5725 
13 *674:54 *2746:RESET_B 5.465 
14 *674:12 *2768:RESET_B 0.3975 
15 *674:8 *674:81 2 
16 *674:81 *2767:RESET_B 3.125 
17 *674:81 *674:92 4.89 
18 *674:92 *2762:RESET_B 2 
19 *674:92 *2739:RESET_B 9.545 
*END

*D_NET *675 0.0122924
*CONN
*I *2864:A I *D sky130_fd_sc_hd__clkbuf_4
*I *2772:RESET_B I *D sky130_fd_sc_hd__dfrtp_1
*I *2778:RESET_B I *D sky130_fd_sc_hd__dfrtp_2
*I *2775:RESET_B I *D sky130_fd_sc_hd__dfrtp_1
*I *2744:RESET_B I *D sky130_fd_sc_hd__dfrtp_1
*I *2757:RESET_B I *D sky130_fd_sc_hd__dfrtp_1
*I *2755:RESET_B I *D sky130_fd_sc_hd__dfrtp_1
*I *2760:RESET_B I *D sky130_fd_sc_hd__dfrtp_1
*I *2756:RESET_B I *D sky130_fd_sc_hd__dfrtp_1
*I *2761:RESET_B I *D sky130_fd_sc_hd__dfrtp_1
*I *2865:X O *D sky130_fd_sc_hd__clkbuf_4
*CAP
1 *2864:A 9.16687e-05
2 *2772:RESET_B 1.8826e-05
3 *2778:RESET_B 0.000209829
4 *2775:RESET_B 5.2877e-05
5 *2744:RESET_B 0.000441679
6 *2757:RESET_B 0
7 *2755:RESET_B 4.77241e-05
8 *2760:RESET_B 0.000116194
9 *2756:RESET_B 8.4823e-05
10 *2761:RESET_B 0.00143926
11 *2865:X 0
12 *675:96 0.000761807
13 *675:68 0.000585619
14 *675:59 0.000224028
15 *675:42 0.000454155
16 *675:40 0.000423202
17 *675:32 0.000602927
18 *675:10 0.0022496
19 *675:4 0.00088696
20 *2744:RESET_B *2309:A 0.00016063
21 *2744:RESET_B *2755:D 0.000277723
22 *2744:RESET_B *2757:D 0.000155069
23 *2755:RESET_B *2759:D 4.66108e-05
24 *2760:RESET_B *2759:D 0.000254637
25 *2761:RESET_B *2766:D 0.000160635
26 *2778:RESET_B *2914:A 9.16315e-05
27 *2864:A *2767:D 7.44375e-05
28 *2864:A *2867:A 0.000139231
29 *675:10 *2768:D 0.000183731
30 *675:32 *2761:D 9.50342e-06
31 *675:42 *2759:D 2.07184e-05
32 *675:42 *2760:D 0
33 *675:42 *2775:D 0.000110215
34 *675:59 *2775:D 9.91719e-05
35 *675:68 *2775:D 3.90266e-05
36 *675:96 *2758:RESET_B 0
37 *675:96 *2768:D 8.53113e-06
38 *675:96 *2925:A 0
39 *2739:CLK *675:96 0.000227809
40 *2761:CLK *2756:RESET_B 8.92366e-05
41 *2761:CLK *675:32 9.66106e-05
42 *2763:RESET_B *2761:RESET_B 0.000617025
43 *2775:CLK *2744:RESET_B 3.64998e-06
44 *2817:A *2761:RESET_B 0.000198945
45 *352:25 *675:96 4.7043e-05
46 *352:29 *2772:RESET_B 2.40185e-05
47 *352:29 *675:96 0.000186204
48 *363:10 *2760:RESET_B 0
49 *363:10 *675:32 1.82563e-05
50 *363:10 *675:42 0
51 *363:10 *675:59 0
52 *363:10 *675:68 0
53 *518:40 *2864:A 3.1835e-05
54 *633:14 *675:32 2.03578e-05
55 *670:10 *675:10 7.27298e-06
56 *670:10 *675:96 3.95347e-05
57 *670:19 *675:96 5.99925e-05
58 *670:35 *2761:RESET_B 0.000101917
*RES
1 *2865:X *675:4 1.6 
2 *675:4 *675:10 11.495 
3 *675:10 *2761:RESET_B 15.6275 
4 *2761:RESET_B *675:32 12.2875 
5 *675:32 *2756:RESET_B 1.4325 
6 *675:32 *675:40 2 
7 *675:40 *675:42 5.46 
8 *675:42 *2760:RESET_B 4.91 
9 *675:42 *2755:RESET_B 2.7425 
10 *675:40 *675:59 2.91 
11 *675:59 *2757:RESET_B 2 
12 *675:59 *675:68 3.38 
13 *675:68 *2744:RESET_B 12.1675 
14 *675:68 *2775:RESET_B 0.7425 
15 *675:10 *675:96 13.385 
16 *675:96 *2778:RESET_B 7.6525 
17 *675:96 *2772:RESET_B 0.3975 
18 *675:4 *2864:A 8.03 
*END

*D_NET *676 0.0137401
*CONN
*I *2758:RESET_B I *D sky130_fd_sc_hd__dfrtp_1
*I *2776:RESET_B I *D sky130_fd_sc_hd__dfrtp_1
*I *2740:RESET_B I *D sky130_fd_sc_hd__dfrtp_1
*I *2745:RESET_B I *D sky130_fd_sc_hd__dfrtp_1
*I *2741:RESET_B I *D sky130_fd_sc_hd__dfrtp_1
*I *2777:RESET_B I *D sky130_fd_sc_hd__dfrtp_1
*I *2865:A I *D sky130_fd_sc_hd__clkbuf_4
*I *2866:X O *D sky130_fd_sc_hd__buf_2
*CAP
1 *2758:RESET_B 0.000380129
2 *2776:RESET_B 0.000160912
3 *2740:RESET_B 0.001206
4 *2745:RESET_B 0.00159316
5 *2741:RESET_B 0.000530077
6 *2777:RESET_B 0.000541823
7 *2865:A 0.000102673
8 *2866:X 4.62348e-05
9 *676:54 0.00120335
10 *676:46 0.0016551
11 *676:23 0.00117301
12 *676:8 0.000690475
13 *2741:RESET_B *2777:D 0
14 *2741:RESET_B *2914:A 0
15 *2745:RESET_B *2745:D 0.000190761
16 *2745:RESET_B *732:25 5.062e-06
17 *2758:RESET_B *2314:A 0
18 *2758:RESET_B *2376:A 0
19 *2758:RESET_B *2776:D 0
20 *2758:RESET_B *2925:A 0.00010506
21 *2776:RESET_B *732:25 8.58339e-06
22 *2865:A *2767:D 9.5433e-05
23 *2865:A *2866:A 7.70758e-05
24 *2865:A *2867:A 0
25 *676:8 *2767:D 9.60582e-07
26 *676:23 *2772:D 9.54399e-05
27 *676:23 *2778:D 0.000651216
28 *676:23 *2866:A 0.000186092
29 *676:23 *2867:A 0
30 *676:23 *677:25 0.000242078
31 *676:46 *2299:A 0.000119924
32 *676:46 *728:8 6.32842e-05
33 *676:54 *2299:A 8.65905e-05
34 *676:54 *2309:A 5.20968e-05
35 *676:54 *728:8 0.000108761
36 *2304:A *2740:RESET_B 0.000356803
37 *2306:A *2740:RESET_B 0
38 *2308:A2 *2740:RESET_B 7.70828e-05
39 *2325:A1 *2740:RESET_B 2.04147e-05
40 *2325:B1 *2740:RESET_B 5.20968e-05
41 *2378:A *676:54 0.000123225
42 *2387:B *2740:RESET_B 0
43 *2739:RESET_B *676:23 0
44 *2740:D *2740:RESET_B 4.70393e-05
45 *2741:CLK *2758:RESET_B 0.000175207
46 *2745:CLK *2776:RESET_B 9.17602e-05
47 *2777:CLK *676:23 0.000135159
48 *2818:A *2758:RESET_B 0
49 *2827:A *2740:RESET_B 0
50 *176:10 *2740:RESET_B 7.8848e-05
51 *183:10 *676:54 0.00023344
52 *188:10 *2740:RESET_B 0
53 *189:12 *2740:RESET_B 0
54 *190:21 *2740:RESET_B 0.000162325
55 *198:8 *2758:RESET_B 0
56 *352:25 *2758:RESET_B 0.000164686
57 *352:40 *676:23 9.24127e-05
58 *352:60 *2758:RESET_B 0.000132096
59 *363:10 *2740:RESET_B 0
60 *364:8 *2740:RESET_B 0.000360604
61 *365:8 *676:54 3.47837e-05
62 *623:10 *2740:RESET_B 3.07153e-05
63 *675:96 *2758:RESET_B 0
*RES
1 *2866:X *676:8 4.05 
2 *676:8 *2865:A 6 
3 *676:8 *676:23 16.19 
4 *676:23 *2777:RESET_B 0.3975 
5 *2777:RESET_B *2741:RESET_B 12.715 
6 *676:23 *676:46 7.83 
7 *676:46 *676:54 15.235 
8 *676:54 *2745:RESET_B 5.1525 
9 *2745:RESET_B *2740:RESET_B 26.8375 
10 *676:54 *2776:RESET_B 2.5875 
11 *676:46 *2758:RESET_B 12.4075 
*END

*D_NET *677 0.0235847
*CONN
*I *2742:RESET_B I *D sky130_fd_sc_hd__dfrtp_1
*I *2623:RESET_B I *D sky130_fd_sc_hd__dfrtp_1
*I *2619:RESET_B I *D sky130_fd_sc_hd__dfrtp_1
*I *2617:RESET_B I *D sky130_fd_sc_hd__dfrtp_1
*I *2743:RESET_B I *D sky130_fd_sc_hd__dfrtp_1
*I *2866:A I *D sky130_fd_sc_hd__buf_2
*I *2867:X O *D sky130_fd_sc_hd__buf_2
*CAP
1 *2742:RESET_B 3.75501e-05
2 *2623:RESET_B 1.20479e-05
3 *2619:RESET_B 0.00129988
4 *2617:RESET_B 0.00210197
5 *2743:RESET_B 0.00140035
6 *2866:A 0.000115523
7 *2867:X 4.78063e-05
8 *677:73 0.00226883
9 *677:31 0.00168124
10 *677:25 0.00409675
11 *677:8 0.00287167
12 *2619:RESET_B *2583:A0 0.000134837
13 *2742:RESET_B *729:8 1.54085e-05
14 *2743:RESET_B *2742:D 1.46828e-05
15 *2743:RESET_B *729:8 1.04556e-05
16 *677:25 *2309:A 0.000114183
17 *677:31 *2292:A 7.89611e-05
18 *677:31 *2378:B 0
19 *677:31 *2755:D 0
20 *677:31 *2757:D 0.000115244
21 *677:31 *729:48 8.88108e-06
22 *2306:A *677:31 0
23 *2365:B *677:31 7.35813e-05
24 *2383:A *677:31 5.51245e-05
25 *2386:B *677:31 0.000114492
26 *2389:B *677:31 0.000291372
27 *2414:A_N *677:31 6.02202e-05
28 *2418:S0 *2619:RESET_B 0.000202683
29 *2420:A1 *2619:RESET_B 0.000112373
30 *2420:S0 *2619:RESET_B 0.000153566
31 *2423:A0 *677:73 3.24046e-05
32 *2461:A1 *2619:RESET_B 0.00103726
33 *2461:S *2617:RESET_B 0.000104649
34 *2600:A0 *2619:RESET_B 0
35 *2600:A1 *2619:RESET_B 1.08194e-05
36 *2619:D *2619:RESET_B 1.70935e-05
37 *2623:CLK *2619:RESET_B 5.61663e-05
38 *2623:CLK *2623:RESET_B 2.01541e-05
39 *2633:CLK *2619:RESET_B 0
40 *2633:D *2619:RESET_B 9.30717e-05
41 *2739:CLK *677:25 9.66106e-05
42 *2740:D *677:31 0.000900385
43 *2743:CLK *2617:RESET_B 9.4346e-05
44 *2743:CLK *2743:RESET_B 0.000128514
45 *2747:D *2619:RESET_B 0.000118946
46 *2802:A *677:25 1.83756e-05
47 *2865:A *2866:A 7.70758e-05
48 *2959:A *2619:RESET_B 0.000103402
49 *2976:A *2619:RESET_B 1.1561e-05
50 *3028:A *677:73 4.65643e-05
51 *3034:A *677:73 7.83873e-05
52 *247:12 *2742:RESET_B 2.45989e-05
53 *247:12 *677:31 0.0001411
54 *323:86 *2619:RESET_B 0.000112147
55 *337:83 *2619:RESET_B 0.000201706
56 *345:72 *2619:RESET_B 0.000383698
57 *345:94 *2619:RESET_B 0.000220371
58 *350:77 *2617:RESET_B 0
59 *350:77 *2742:RESET_B 0
60 *350:77 *2743:RESET_B 0.000125172
61 *352:25 *677:25 0.000138521
62 *363:10 *677:31 0
63 *407:8 *2619:RESET_B 0.00014896
64 *624:8 *2617:RESET_B 5.05521e-05
65 *631:6 *677:73 8.99732e-06
66 *633:99 *677:31 0.000271341
67 *633:123 *2619:RESET_B 1.88602e-05
68 *633:129 *2619:RESET_B 0.000470922
69 *643:116 *2619:RESET_B 0
70 *670:64 *2619:RESET_B 0
71 *670:80 *2619:RESET_B 0.000304122
72 *676:23 *2866:A 0.000186092
73 *676:23 *677:25 0.000242078
*RES
1 *2867:X *677:8 4.05 
2 *677:8 *2866:A 6.51 
3 *677:8 *677:25 35.995 
4 *677:25 *677:31 30.2675 
5 *677:31 *2743:RESET_B 3.795 
6 *2743:RESET_B *2617:RESET_B 16.86 
7 *2617:RESET_B *677:73 19.4775 
8 *677:73 *2619:RESET_B 38.075 
9 *677:73 *2623:RESET_B 2.4875 
10 *677:31 *2742:RESET_B 1.275 
*END

*D_NET *678 0.0227646
*CONN
*I *2863:A I *D sky130_fd_sc_hd__buf_2
*I *2867:A I *D sky130_fd_sc_hd__buf_2
*I *2624:RESET_B I *D sky130_fd_sc_hd__dfrtp_1
*I *2622:RESET_B I *D sky130_fd_sc_hd__dfrtp_1
*I *2620:RESET_B I *D sky130_fd_sc_hd__dfrtp_1
*I *2868:X O *D sky130_fd_sc_hd__buf_2
*CAP
1 *2863:A 0.000100321
2 *2867:A 0.00158123
3 *2624:RESET_B 0.00102449
4 *2622:RESET_B 2.3296e-05
5 *2620:RESET_B 4.97478e-06
6 *2868:X 0
7 *678:26 0.00226872
8 *678:12 0.00416372
9 *678:10 0.00384455
10 *678:6 0.00248798
11 *678:4 0.000100321
12 *2867:A *2767:D 0.000150002
13 *2867:A *2778:D 5.05521e-05
14 *2867:A *739:10 0.000563156
15 aempty *678:10 0
16 rd_data[4] *678:10 6.24871e-05
17 *2298:A *678:10 6.28765e-05
18 *2350:A1 *678:10 0
19 *2357:B *678:12 1.33293e-05
20 *2357:C *678:12 8.8266e-05
21 *2360:A1 *678:10 0
22 *2360:B1 *678:12 1.7386e-05
23 *2361:A2 *678:10 0
24 *2361:B1 *678:10 3.38982e-05
25 *2390:B *2867:A 0.000280987
26 *2438:A3 *2624:RESET_B 2.39642e-05
27 *2462:S1 *2624:RESET_B 0.000154806
28 *2467:S *2624:RESET_B 0
29 *2517:S *2624:RESET_B 1.82476e-05
30 *2550:A1 *2624:RESET_B 0.000113691
31 *2578:A1 *678:12 0.00023468
32 *2596:A0 *678:12 0.000426206
33 *2596:A1 *678:12 4.82919e-05
34 *2596:S *678:12 4.47125e-05
35 *2605:S *2624:RESET_B 0
36 *2730:SET_B *2867:A 0
37 *2730:SET_B *678:10 0
38 *2739:RESET_B *2867:A 0
39 *2782:D *2624:RESET_B 9.30717e-05
40 *2804:A *2624:RESET_B 0.000104333
41 *2852:A *2624:RESET_B 0
42 *2860:A *2863:A 4.82919e-05
43 *2860:A *2867:A 0.000319167
44 *2864:A *2867:A 0.000139231
45 *2865:A *2867:A 0
46 *2886:A *678:12 0.00019637
47 *2983:A *2624:RESET_B 3.84318e-05
48 *3002:A *678:10 0
49 *3005:A *2867:A 0
50 *3006:A *2867:A 0
51 *3008:A *2867:A 0
52 *3017:A *678:10 0
53 *3018:A *678:10 0
54 *3019:A *678:10 0
55 *3029:A *2867:A 0
56 *3032:A *678:10 0.000406764
57 *230:14 *678:10 0
58 *264:10 *2867:A 0.000136905
59 *264:18 *2867:A 1.92979e-05
60 *345:22 *2624:RESET_B 0.000363276
61 *345:24 *2624:RESET_B 3.26735e-05
62 *355:90 *2624:RESET_B 0
63 *410:12 *2624:RESET_B 0.000468919
64 *518:25 *2867:A 0
65 *551:26 *2867:A 0
66 *628:8 *678:12 0.000163199
67 *630:10 *678:26 4.82919e-05
68 *632:14 *2624:RESET_B 0.000124402
69 *645:18 *2624:RESET_B 7.23961e-06
70 *649:14 *678:10 0
71 *659:116 *2624:RESET_B 0
72 *661:10 *2624:RESET_B 4.76303e-05
73 *661:47 *2624:RESET_B 0.000483276
74 *669:44 *2620:RESET_B 1.53577e-05
75 *669:44 *678:12 0.000575669
76 *669:44 *678:26 7.64183e-05
77 *669:50 *2622:RESET_B 2.40101e-05
78 *669:50 *678:26 0.000443075
79 *672:10 *2867:A 9.5433e-05
80 *672:14 *2867:A 0.000280085
81 *673:8 *2863:A 2.66586e-05
82 *673:16 *2867:A 0
83 *674:92 *2867:A 0
84 *676:23 *2867:A 0
*RES
1 *2868:X *678:4 1.6 
2 *678:4 *678:6 2 
3 *678:6 *678:10 18.17 
4 *678:10 *678:12 47.37 
5 *678:12 *2620:RESET_B 0.3975 
6 *678:12 *678:26 16.455 
7 *678:26 *2622:RESET_B 0.3975 
8 *678:26 *2624:RESET_B 29.2975 
9 *678:6 *2867:A 39.945 
10 *678:4 *2863:A 3.46 
*END

*D_NET *679 0.000407638
*CONN
*I *2774:D I *D sky130_fd_sc_hd__dfrtp_1
*I *2869:X O *D sky130_fd_sc_hd__dlygate4sd3_1
*CAP
1 *2774:D 0.000156103
2 *2869:X 0.000156103
3 *2774:RESET_B *2774:D 0
4 *639:59 *2774:D 0
5 *648:53 *2774:D 9.5433e-05
*RES
1 *2869:X *2774:D 9.465 
*END

*D_NET *680 0.000262207
*CONN
*I *2777:D I *D sky130_fd_sc_hd__dfrtp_1
*I *2914:X O *D sky130_fd_sc_hd__dlygate4sd3_1
*CAP
1 *2777:D 0.000131103
2 *2914:X 0.000131103
3 *2741:RESET_B *2777:D 0
*RES
1 *2914:X *2777:D 9.03 
*END

*D_NET *681 0.000736732
*CONN
*I *2776:D I *D sky130_fd_sc_hd__dfrtp_1
*I *2925:X O *D sky130_fd_sc_hd__dlygate4sd3_1
*CAP
1 *2776:D 0.000246048
2 *2925:X 0.000246048
3 *2776:D *2376:A 0.00012819
4 *2776:D *2758:D 0
5 *2776:D *733:25 5.20968e-05
6 *2389:A *2776:D 0
7 *2745:CLK *2776:D 1.4389e-05
8 *2758:RESET_B *2776:D 0
9 *352:25 *2776:D 4.99619e-05
*RES
1 *2925:X *2776:D 12.03 
*END

*D_NET *682 0.000541119
*CONN
*I *2295:A I *D sky130_fd_sc_hd__inv_2
*I *3022:X O *D sky130_fd_sc_hd__clkbuf_1
*CAP
1 *2295:A 0.000270559
2 *3022:X 0.000270559
3 *2295:A *2294:A 0
4 *2297:A *2295:A 0
*RES
1 *3022:X *2295:A 11.325 
*END

*D_NET *683 0.00148002
*CONN
*I *2775:D I *D sky130_fd_sc_hd__dfrtp_1
*I *2936:X O *D sky130_fd_sc_hd__dlygate4sd3_1
*CAP
1 *2775:D 0.000380708
2 *2936:X 0.000380708
3 *2775:D *2755:D 0
4 *2775:D *2757:D 0.000159964
5 *2775:D *2760:D 0.000191932
6 *633:14 *2775:D 0.000118294
7 *675:42 *2775:D 0.000110215
8 *675:59 *2775:D 9.91719e-05
9 *675:68 *2775:D 3.90266e-05
*RES
1 *2936:X *2775:D 16.275 
*END

*D_NET *684 0.00156555
*CONN
*I *2778:D I *D sky130_fd_sc_hd__dfrtp_2
*I *2947:X O *D sky130_fd_sc_hd__dlygate4sd3_1
*CAP
1 *2778:D 0.00043189
2 *2947:X 0.00043189
3 *2739:RESET_B *2778:D 0
4 *2867:A *2778:D 5.05521e-05
5 *676:23 *2778:D 0.000651216
*RES
1 *2947:X *2778:D 16.185 
*END

*D_NET *685 0.00125465
*CONN
*I *2566:A0 I *D sky130_fd_sc_hd__mux2_1
*I *2958:X O *D sky130_fd_sc_hd__dlygate4sd3_1
*CAP
1 *2566:A0 0.000346825
2 *2958:X 0.000346825
3 *2424:S0 *2566:A0 0.000229536
4 *2566:A1 *2566:A0 0.00015639
5 *2575:A0 *2566:A0 9.99434e-05
6 *2575:A1 *2566:A0 1.93583e-05
7 *2575:S *2566:A0 1.83847e-05
8 *2958:A *2566:A0 3.739e-05
*RES
1 *2958:X *2566:A0 8.945 
*END

*D_NET *686 0.000866477
*CONN
*I *2471:A0 I *D sky130_fd_sc_hd__mux2_1
*I *2969:X O *D sky130_fd_sc_hd__dlygate4sd3_1
*CAP
1 *2471:A0 0.00026191
2 *2969:X 0.00026191
3 *2481:A1 *2471:A0 0.00021866
4 *2969:A *2471:A0 5.26823e-05
5 *323:20 *2471:A0 2.30292e-05
6 *664:82 *2471:A0 4.82863e-05
*RES
1 *2969:X *2471:A0 7.445 
*END

*D_NET *687 0.00123341
*CONN
*I *2491:A0 I *D sky130_fd_sc_hd__mux2_1
*I *2980:X O *D sky130_fd_sc_hd__dlygate4sd3_1
*CAP
1 *2491:A0 0.000487185
2 *2980:X 0.000487185
3 *2491:A0 *2759:D 0.000120323
4 *2491:S *2491:A0 4.82863e-05
5 *2642:D *2491:A0 1.4399e-05
6 *2759:CLK *2491:A0 5.10415e-05
7 *2980:A *2491:A0 2.49909e-05
8 *633:22 *2491:A0 0
9 *634:168 *2491:A0 0
*RES
1 *2980:X *2491:A0 14.475 
*END

*D_NET *688 0.000319618
*CONN
*I *2483:A0 I *D sky130_fd_sc_hd__mux2_1
*I *2991:X O *D sky130_fd_sc_hd__dlygate4sd3_1
*CAP
1 *2483:A0 0.000120775
2 *2991:X 0.000120775
3 *2483:A1 *2483:A0 2.75229e-05
4 *2483:S *2483:A0 5.05437e-05
*RES
1 *2991:X *2483:A0 5.03 
*END

*D_NET *689 0.000362192
*CONN
*I *2583:A0 I *D sky130_fd_sc_hd__mux2_1
*I *2870:X O *D sky130_fd_sc_hd__dlygate4sd3_1
*CAP
1 *2583:A0 4.62591e-05
2 *2870:X 4.62591e-05
3 *2420:S0 *2583:A0 0.000134837
4 *2619:RESET_B *2583:A0 0.000134837
*RES
1 *2870:X *2583:A0 8.835 
*END

*D_NET *690 0.000397287
*CONN
*I *2529:A0 I *D sky130_fd_sc_hd__mux2_1
*I *2881:X O *D sky130_fd_sc_hd__dlygate4sd3_1
*CAP
1 *2529:A0 5.49388e-05
2 *2881:X 5.49388e-05
3 *2529:A0 *705:12 4.01778e-05
4 *2425:A1 *2529:A0 0.000160635
5 *2881:A *2529:A0 8.65961e-05
*RES
1 *2881:X *2529:A0 5.03 
*END

*D_NET *691 0.00129187
*CONN
*I *2484:A0 I *D sky130_fd_sc_hd__mux2_1
*I *2892:X O *D sky130_fd_sc_hd__dlygate4sd3_1
*CAP
1 *2484:A0 0.000283649
2 *2892:X 0.000283649
3 *2474:A1 *2484:A0 0.000225175
4 *2484:S *2484:A0 3.23391e-05
5 *2578:S *2484:A0 0.000332107
6 *2961:A *2484:A0 0.000134947
7 *647:78 *2484:A0 0
*RES
1 *2892:X *2484:A0 13.305 
*END

*D_NET *692 0.00021261
*CONN
*I *2530:A0 I *D sky130_fd_sc_hd__mux2_1
*I *2903:X O *D sky130_fd_sc_hd__dlygate4sd3_1
*CAP
1 *2530:A0 3.32745e-05
2 *2903:X 3.32745e-05
3 *2535:S *2530:A0 9.47454e-05
4 *650:66 *2530:A0 5.13155e-05
*RES
1 *2903:X *2530:A0 8.325 
*END

*D_NET *693 0.000536536
*CONN
*I *2294:A I *D sky130_fd_sc_hd__inv_2
*I *3023:X O *D sky130_fd_sc_hd__clkbuf_1
*CAP
1 *2294:A 0.000268268
2 *3023:X 0.000268268
3 *2295:A *2294:A 0
*RES
1 *3023:X *2294:A 11.325 
*END

*D_NET *694 0.000604684
*CONN
*I *2535:A0 I *D sky130_fd_sc_hd__mux2_1
*I *2908:X O *D sky130_fd_sc_hd__dlygate4sd3_1
*CAP
1 *2535:A0 0.000199992
2 *2908:X 0.000199992
3 *2495:S *2535:A0 2.67022e-05
4 *2680:CLK *2535:A0 0.000137462
5 *639:111 *2535:A0 4.05358e-05
*RES
1 *2908:X *2535:A0 10.245 
*END

*D_NET *695 0.000571042
*CONN
*I *2540:A0 I *D sky130_fd_sc_hd__mux2_1
*I *2909:X O *D sky130_fd_sc_hd__dlygate4sd3_1
*CAP
1 *2540:A0 0.000251798
2 *2909:X 0.000251798
3 *2540:A1 *2540:A0 4.82863e-05
4 *2541:S *2540:A0 0
5 *334:93 *2540:A0 1.91597e-05
*RES
1 *2909:X *2540:A0 10.245 
*END

*D_NET *696 0.000326844
*CONN
*I *2511:A0 I *D sky130_fd_sc_hd__mux2_1
*I *2910:X O *D sky130_fd_sc_hd__dlygate4sd3_1
*CAP
1 *2511:A0 0.000138934
2 *2910:X 0.000138934
3 *2511:A1 *2511:A0 2.49909e-05
4 *331:94 *2511:A0 2.39856e-05
*RES
1 *2910:X *2511:A0 5.03 
*END

*D_NET *697 0.000881534
*CONN
*I *2567:A0 I *D sky130_fd_sc_hd__mux2_1
*I *2911:X O *D sky130_fd_sc_hd__dlygate4sd3_1
*CAP
1 *2567:A0 0.000235586
2 *2911:X 0.000235586
3 *2512:A1 *2567:A0 0.000270415
4 *2517:S *2567:A0 5.20968e-05
5 *2911:A *2567:A0 3.00381e-05
6 *345:22 *2567:A0 3.47837e-05
7 *663:43 *2567:A0 2.30292e-05
*RES
1 *2911:X *2567:A0 11.64 
*END

*D_NET *698 0.000274069
*CONN
*I *2493:A0 I *D sky130_fd_sc_hd__mux2_1
*I *2912:X O *D sky130_fd_sc_hd__dlygate4sd3_1
*CAP
1 *2493:A0 9.0874e-05
2 *2912:X 9.0874e-05
3 *2493:A1 *2493:A0 2.75145e-05
4 *2493:S *2493:A0 3.72916e-05
5 *402:8 *2493:A0 2.75145e-05
*RES
1 *2912:X *2493:A0 5.03 
*END

*D_NET *699 0.000978299
*CONN
*I *2595:A0 I *D sky130_fd_sc_hd__mux2_1
*I *2913:X O *D sky130_fd_sc_hd__dlygate4sd3_1
*CAP
1 *2595:A0 0.000152685
2 *2913:X 0.000152685
3 *2586:A0 *2595:A0 2.30292e-05
4 *2586:A1 *2595:A0 0.000349598
5 *2586:S *2595:A0 8.65961e-05
6 *2595:S *2595:A0 4.66108e-05
7 *2913:A *2595:A0 0.000167096
*RES
1 *2913:X *2595:A0 8.135 
*END

*D_NET *700 0.000825299
*CONN
*I *2534:A0 I *D sky130_fd_sc_hd__mux2_1
*I *2915:X O *D sky130_fd_sc_hd__dlygate4sd3_1
*CAP
1 *2534:A0 0.00021565
2 *2915:X 0.00021565
3 *2457:A1 *2534:A0 3.39069e-05
4 *2460:S1 *2534:A0 0.000139933
5 *2580:S *2534:A0 0.00015896
6 *646:82 *2534:A0 3.1562e-06
7 *654:64 *2534:A0 5.8044e-05
*RES
1 *2915:X *2534:A0 11.115 
*END

*D_NET *701 0.00101041
*CONN
*I *2526:A0 I *D sky130_fd_sc_hd__mux2_1
*I *2916:X O *D sky130_fd_sc_hd__dlygate4sd3_1
*CAP
1 *2526:A0 0.000261295
2 *2916:X 0.000261295
3 *2526:S *2526:A0 4.99619e-05
4 *2552:S *2526:A0 0
5 *2916:A *2526:A0 0
6 *651:65 *2526:A0 0.000389566
7 *651:71 *2526:A0 4.82919e-05
*RES
1 *2916:X *2526:A0 12.735 
*END

*D_NET *702 0.000641201
*CONN
*I *2588:A0 I *D sky130_fd_sc_hd__mux2_1
*I *2917:X O *D sky130_fd_sc_hd__dlygate4sd3_1
*CAP
1 *2588:A0 0.000180996
2 *2917:X 0.000180996
3 *2588:S *2588:A0 7.23602e-05
4 *346:29 *2588:A0 1.14169e-05
5 *346:33 *2588:A0 0.000195432
*RES
1 *2917:X *2588:A0 9.9 
*END

*D_NET *703 0.000374945
*CONN
*I *2531:A0 I *D sky130_fd_sc_hd__mux2_1
*I *2918:X O *D sky130_fd_sc_hd__dlygate4sd3_1
*CAP
1 *2531:A0 4.39591e-05
2 *2918:X 4.39591e-05
3 *2531:A1 *2531:A0 4.82863e-05
4 *2918:A *2531:A0 3.7712e-05
5 *333:122 *2531:A0 8.65961e-05
6 *338:44 *2531:A0 0.000114433
*RES
1 *2918:X *2531:A0 5.03 
*END

*D_NET *704 0.000739627
*CONN
*I *2842:A I *D sky130_fd_sc_hd__clkbuf_2
*I *2731:Q O *D sky130_fd_sc_hd__dfrtp_1
*CAP
1 *2842:A 0.000232064
2 *2731:Q 0.000232064
3 *2842:A *2338:A 0.000112299
4 *647:27 *2842:A 0
5 *648:8 *2842:A 0
6 *648:20 *2842:A 0
7 *669:28 *2842:A 0.000163199
*RES
1 *2731:Q *2842:A 11.85 
*END

*D_NET *705 0.00803709
*CONN
*I *2837:A I *D sky130_fd_sc_hd__buf_2
*I *2835:A I *D sky130_fd_sc_hd__clkbuf_4
*I *2446:S1 I *D sky130_fd_sc_hd__mux4_1
*I *2425:S1 I *D sky130_fd_sc_hd__mux4_1
*I *2732:Q O *D sky130_fd_sc_hd__dfrtp_1
*CAP
1 *2837:A 0.000188151
2 *2835:A 0.000119899
3 *2446:S1 0.000422831
4 *2425:S1 0.00031594
5 *2732:Q 0
6 *705:40 0.000437728
7 *705:12 0.00202848
8 *705:6 0.00141939
9 *705:12 *753:10 0
10 *705:40 *753:10 0
11 *2395:B *2835:A 1.56428e-05
12 *2395:C *2835:A 1.70906e-05
13 *2396:B *2835:A 4.99619e-05
14 *2397:B *2837:A 2.7881e-05
15 *2403:C *2835:A 9.18506e-05
16 *2425:A0 *2425:S1 2.49909e-05
17 *2425:A0 *2446:S1 7.06865e-05
18 *2425:A0 *705:12 2.49909e-05
19 *2425:A1 *705:12 5.28702e-05
20 *2425:A2 *2425:S1 2.74381e-05
21 *2425:A3 *2425:S1 1.17649e-05
22 *2425:S0 *2425:S1 4.82919e-05
23 *2426:A0 *2425:S1 2.81216e-05
24 *2426:A0 *705:12 5.35181e-06
25 *2446:A1 *2446:S1 0.000314445
26 *2446:A2 *2446:S1 6.81315e-05
27 *2529:A0 *705:12 4.01778e-05
28 *2578:S *2425:S1 5.56629e-05
29 *2732:RESET_B *2837:A 0
30 *2732:RESET_B *705:40 0
31 *2783:D *2446:S1 0.000162325
32 *2881:A *705:12 0.000182343
33 *2892:A *2446:S1 0.000197599
34 *2961:A *2446:S1 0.000119227
35 *268:6 *2835:A 2.30292e-05
36 *325:34 *2425:S1 2.50049e-05
37 *327:103 *2446:S1 0.000361299
38 *634:40 *705:12 3.35323e-05
39 *637:62 *2446:S1 6.63413e-05
40 *647:78 *2446:S1 0
41 *648:53 *2837:A 2.23922e-05
42 *648:53 *705:12 0.000183738
43 *648:53 *705:40 0.000237362
44 *648:78 *2837:A 0.000327903
45 *668:79 *705:12 0.000187233
46 *672:40 *2837:A 0
*RES
1 *2732:Q *705:6 3.6 
2 *705:6 *705:12 18.74 
3 *705:12 *2425:S1 9.77 
4 *705:12 *2446:S1 17.63 
5 *705:6 *705:40 2.91 
6 *705:40 *2835:A 6.12 
7 *705:40 *2837:A 7.785 
*END

*D_NET *706 0.000839254
*CONN
*I *2833:A I *D sky130_fd_sc_hd__clkbuf_2
*I *2832:A I *D sky130_fd_sc_hd__buf_4
*I *2733:Q O *D sky130_fd_sc_hd__dfrtp_1
*CAP
1 *2833:A 0
2 *2832:A 0.000162277
3 *2733:Q 0.000129391
4 *706:8 0.000291668
5 *2832:A *2403:A 0
6 *2832:A *754:10 6.32027e-05
7 *637:10 *2832:A 6.22925e-05
8 *637:16 *2832:A 1.88656e-05
9 *639:6 *2832:A 4.66108e-05
10 *640:6 *706:8 1.83847e-05
11 *640:14 *706:8 4.65607e-05
*RES
1 *2733:Q *706:8 3.79 
2 *706:8 *2832:A 8.45 
3 *706:8 *2833:A 1.6 
*END

*D_NET *707 0.00564743
*CONN
*I *2831:A I *D sky130_fd_sc_hd__buf_4
*I *2430:S I *D sky130_fd_sc_hd__mux2_1
*I *2411:A I *D sky130_fd_sc_hd__xnor2_1
*I *2403:A I *D sky130_fd_sc_hd__and3_1
*I *2734:Q O *D sky130_fd_sc_hd__dfrtp_1
*CAP
1 *2831:A 0
2 *2430:S 0.00164125
3 *2411:A 0
4 *2403:A 0.000299906
5 *2734:Q 0.000173553
6 *707:23 0.00195793
7 *707:21 0.000352233
8 *707:6 0.00050901
9 *2403:A *753:10 0.00016214
10 *2403:A *754:10 0
11 *2430:A0 *2430:S 0.00010865
12 *2431:A1 *2430:S 1.76909e-05
13 *2737:RESET_B *2430:S 2.5139e-05
14 *2770:CLK *2430:S 0.000111909
15 *2770:RESET_B *2430:S 1.30699e-05
16 *2832:A *2403:A 0
17 *637:10 *2403:A 0
18 *637:10 *707:6 4.82863e-05
19 *640:49 *2403:A 4.94326e-05
20 *648:78 *707:23 8.40213e-05
21 *672:30 *707:6 6.13486e-05
22 *672:30 *707:21 0
23 *672:76 *2430:S 3.18568e-05
*RES
1 *2734:Q *707:6 3.775 
2 *707:6 *2403:A 11.255 
3 *707:6 *707:21 0.615 
4 *707:21 *707:23 4.935 
5 *707:23 *2411:A 1.6 
6 *707:23 *2430:S 20.44 
7 *707:21 *2831:A 1.6 
*END

*D_NET *708 0.00609579
*CONN
*I *2417:A I *D sky130_fd_sc_hd__xor2_1
*I *2409:A I *D sky130_fd_sc_hd__xnor2_1
*I *2773:D I *D sky130_fd_sc_hd__dfrtp_1
*I *2346:B I *D sky130_fd_sc_hd__xnor2_1
*I *2345:B I *D sky130_fd_sc_hd__xor2_1
*I *2735:Q O *D sky130_fd_sc_hd__dfrtp_4
*CAP
1 *2417:A 0
2 *2409:A 0
3 *2773:D 0.000301687
4 *2346:B 0
5 *2345:B 6.52026e-05
6 *2735:Q 0.000255584
7 *708:42 0.00104256
8 *708:34 0.000912208
9 *708:25 0.000351862
10 *708:10 0.000501318
11 *2345:B *2345:A 0.000141599
12 *2773:D *755:10 0
13 *708:10 *2330:A 0
14 *708:10 *2345:A 2.92496e-05
15 *708:25 *2346:A 0.00032595
16 *708:34 *2346:A 3.26889e-05
17 *708:42 *2334:A 0
18 *708:42 *2735:D 0
19 *708:42 *755:10 0
20 *2407:A2 *708:42 6.02123e-05
21 *2407:B2 *708:42 1.73877e-05
22 *2409:B *2773:D 3.09233e-05
23 *2409:B *708:42 0.000560264
24 *2413:A *708:42 0.000240896
25 *2413:C *708:42 3.86607e-05
26 *2735:RESET_B *708:10 4.70393e-05
27 *2773:CLK *2773:D 9.66106e-05
28 *2773:RESET_B *2773:D 0.000278117
29 *2862:A *708:10 0
30 *213:10 *708:25 1.12578e-05
31 *213:10 *708:34 0.000347029
32 *213:10 *708:42 3.09233e-05
33 *228:10 *2345:B 8.53113e-06
34 *229:6 *708:34 1.91597e-05
35 *273:10 *708:42 0
36 *551:26 *708:10 9.26565e-05
37 *634:26 *708:10 0.000138808
38 *637:174 *2345:B 0
39 *637:174 *708:10 0
40 *668:79 *708:42 0.000117403
41 *668:112 *708:42 0
42 *673:16 *708:10 0
*RES
1 *2735:Q *708:10 9.12 
2 *708:10 *2345:B 5.235 
3 *708:10 *708:25 5.57 
4 *708:25 *2346:B 1.6 
5 *708:25 *708:34 3.915 
6 *708:34 *708:42 18.925 
7 *708:42 *2773:D 12.05 
8 *708:42 *2409:A 1.6 
9 *708:34 *2417:A 1.6 
*END

*D_NET *709 0.000445733
*CONN
*I *2731:D I *D sky130_fd_sc_hd__dfrtp_1
*I *2393:Y O *D sky130_fd_sc_hd__nor2_1
*CAP
1 *2731:D 0.0001216
2 *2393:Y 0.0001216
3 *2391:A *2731:D 8.40213e-05
4 *642:101 *2731:D 0.000118513
5 *673:58 *2731:D 0
*RES
1 *2393:Y *2731:D 9.375 
*END

*D_NET *710 0.000633777
*CONN
*I *2732:D I *D sky130_fd_sc_hd__dfrtp_1
*I *2396:Y O *D sky130_fd_sc_hd__nor2_1
*CAP
1 *2732:D 0.000176868
2 *2396:Y 0.000176868
3 *2394:B1 *2732:D 0
4 *2733:CLK *2732:D 0.000118513
5 *640:20 *2732:D 0.000161529
6 *642:12 *2732:D 0
*RES
1 *2396:Y *2732:D 10.065 
*END

*D_NET *711 0.000367561
*CONN
*I *2733:D I *D sky130_fd_sc_hd__dfrtp_1
*I *2399:Y O *D sky130_fd_sc_hd__nor2_1
*CAP
1 *2733:D 5.8588e-05
2 *2399:Y 5.8588e-05
3 *2733:CLK *2733:D 5.05521e-05
4 *640:14 *2733:D 0.000199833
*RES
1 *2399:Y *2733:D 5.03 
*END

*D_NET *712 0.000657881
*CONN
*I *2734:D I *D sky130_fd_sc_hd__dfrtp_1
*I *2416:Y O *D sky130_fd_sc_hd__nor2_1
*CAP
1 *2734:D 0.000307575
2 *2416:Y 0.000307575
3 *2734:D *2330:A 0
4 *2416:A *2734:D 5.83121e-06
5 *2416:B *2734:D 1.47347e-05
6 *637:174 *2734:D 2.21654e-05
7 *668:112 *2734:D 0
*RES
1 *2416:Y *2734:D 10.845 
*END

*D_NET *713 0.000695153
*CONN
*I *2735:D I *D sky130_fd_sc_hd__dfrtp_4
*I *2417:X O *D sky130_fd_sc_hd__xor2_1
*CAP
1 *2735:D 0.000128294
2 *2417:X 0.000128294
3 *213:10 *2735:D 1.94805e-05
4 *551:26 *2735:D 0.000160635
5 *634:26 *2735:D 4.13933e-05
6 *668:55 *2735:D 0.000155227
7 *668:79 *2735:D 6.18292e-05
8 *708:42 *2735:D 0
*RES
1 *2417:X *2735:D 10.575 
*END

*D_NET *714 0.0011731
*CONN
*I *2299:A I *D sky130_fd_sc_hd__xnor2_2
*I *2314:B I *D sky130_fd_sc_hd__xor2_2
*I *2778:Q O *D sky130_fd_sc_hd__dfrtp_2
*CAP
1 *2299:A 0.000140547
2 *2314:B 0.000332465
3 *2778:Q 0.000191918
4 *2299:A *2914:A 0
5 *2299:A *728:8 0.000237243
6 *2741:CLK *2299:A 6.44134e-05
7 *676:46 *2299:A 0.000119924
8 *676:54 *2299:A 8.65905e-05
*RES
1 *2778:Q *2314:B 4.4275 
2 *2314:B *2299:A 9.665 
*END

*D_NET *715 0.000824931
*CONN
*I *2769:D I *D sky130_fd_sc_hd__dfrtp_1
*I *2736:Q O *D sky130_fd_sc_hd__dfrtp_1
*CAP
1 *2769:D 0.000323851
2 *2736:Q 0.000323851
3 *348:76 *2769:D 3.89528e-05
4 *634:52 *2769:D 9.54399e-05
5 *639:59 *2769:D 3.9186e-05
6 *668:26 *2769:D 3.64998e-06
*RES
1 *2736:Q *2769:D 11.535 
*END

*D_NET *716 0.000685137
*CONN
*I *2770:D I *D sky130_fd_sc_hd__dfrtp_1
*I *2737:Q O *D sky130_fd_sc_hd__dfrtp_1
*CAP
1 *2770:D 0.000246067
2 *2737:Q 0.000246067
3 *2430:A0 *2770:D 9.14049e-05
4 *633:22 *2770:D 9.30787e-05
5 *639:26 *2770:D 8.52003e-06
*RES
1 *2737:Q *2770:D 10.5 
*END

*D_NET *717 0.00134996
*CONN
*I *2771:D I *D sky130_fd_sc_hd__dfrtp_1
*I *2738:Q O *D sky130_fd_sc_hd__dfrtp_1
*CAP
1 *2771:D 0.000416851
2 *2738:Q 0.000416851
3 *2771:D *2766:D 0.000152964
4 *2773:CLK *2771:D 9.52646e-05
5 *670:41 *2771:D 0
6 *674:18 *2771:D 6.18754e-05
7 *674:22 *2771:D 9.24049e-05
8 *674:47 *2771:D 0.000113745
*RES
1 *2738:Q *2771:D 15.975 
*END

*D_NET *718 0.000415325
*CONN
*I *2772:D I *D sky130_fd_sc_hd__dfrtp_1
*I *2739:Q O *D sky130_fd_sc_hd__dfrtp_1
*CAP
1 *2772:D 0.000127025
2 *2739:Q 0.000127025
3 *352:29 *2772:D 6.58339e-05
4 *676:23 *2772:D 9.54399e-05
*RES
1 *2739:Q *2772:D 9.465 
*END

*D_NET *719 0.00193438
*CONN
*I *2405:B I *D sky130_fd_sc_hd__xor2_1
*I *2736:D I *D sky130_fd_sc_hd__dfrtp_1
*I *2404:Y O *D sky130_fd_sc_hd__xnor2_1
*CAP
1 *2405:B 0.000187345
2 *2736:D 2.89941e-05
3 *2404:Y 0.000374054
4 *719:10 0.000590393
5 *2405:B *2338:A 0.000129678
6 *719:10 *2338:A 7.25122e-05
7 *2736:RESET_B *2736:D 0.000163199
8 *648:8 *719:10 0
9 *648:53 *2405:B 0
10 *648:53 *719:10 0
11 *668:20 *2736:D 1.34503e-05
12 *668:26 *2736:D 7.60965e-05
13 *669:28 *719:10 0.000298658
*RES
1 *2404:Y *719:10 10.335 
2 *719:10 *2736:D 5.085 
3 *719:10 *2405:B 7.275 
*END

*D_NET *720 0.00453098
*CONN
*I *2737:D I *D sky130_fd_sc_hd__dfrtp_1
*I *2401:B I *D sky130_fd_sc_hd__and2_1
*I *2402:B I *D sky130_fd_sc_hd__nor2_1
*I *2400:Y O *D sky130_fd_sc_hd__xnor2_1
*CAP
1 *2737:D 0.000473179
2 *2401:B 0
3 *2402:B 0.00015864
4 *2400:Y 0
5 *720:18 0.000530751
6 *720:6 0.000845291
7 *2402:B *2334:A 4.24292e-06
8 *2402:B *2402:A 4.82863e-05
9 *2402:B *754:18 9.69431e-05
10 *720:18 *2401:A 8.49205e-05
11 *2399:A *2737:D 0.000157637
12 *2399:B *2737:D 0.000136781
13 *2407:A2 *2402:B 5.83121e-06
14 *2407:C1 *2402:B 4.43871e-06
15 *2732:RESET_B *720:18 0.00030289
16 *2733:CLK *2737:D 4.98446e-05
17 *273:6 *2402:B 2.54522e-05
18 *363:10 *2737:D 0
19 *551:26 *720:18 0.000379058
20 *634:26 *720:18 0.000512356
21 *639:26 *2737:D 0.000380565
22 *639:59 *2737:D 0
23 *639:59 *720:18 0
24 *640:49 *2402:B 3.05373e-05
25 *640:55 *2402:B 7.17811e-05
26 *642:99 *2737:D 0.000111371
27 *642:99 *720:18 0.000120186
*RES
1 *2400:Y *720:6 3.6 
2 *720:6 *720:18 13.025 
3 *720:18 *2402:B 9.245 
4 *720:18 *2401:B 1.6 
5 *720:6 *2737:D 13.605 
*END

*D_NET *721 0.00209288
*CONN
*I *2412:B I *D sky130_fd_sc_hd__xnor2_1
*I *2738:D I *D sky130_fd_sc_hd__dfrtp_1
*I *2411:Y O *D sky130_fd_sc_hd__xnor2_1
*CAP
1 *2412:B 0.000454945
2 *2738:D 0.00022463
3 *2411:Y 0.000259476
4 *721:8 0.000939051
5 *2412:B *753:10 3.45679e-05
6 *2738:D *2765:D 0
7 *721:8 *2765:D 0
8 *2642:CLK *2738:D 0
9 *644:27 *721:8 0
10 *648:78 *721:8 0
11 *669:106 *721:8 0
12 *672:66 *2412:B 0.000180207
*RES
1 *2411:Y *721:8 7.53 
2 *721:8 *2738:D 7.275 
3 *721:8 *2412:B 11.745 
*END

*D_NET *722 0.00293814
*CONN
*I *2739:D I *D sky130_fd_sc_hd__dfrtp_1
*I *2410:B I *D sky130_fd_sc_hd__xnor2_1
*I *2409:Y O *D sky130_fd_sc_hd__xnor2_1
*CAP
1 *2739:D 0.00127474
2 *2410:B 0
3 *2409:Y 0.000152902
4 *722:8 0.00142765
5 *2739:D *2410:A 4.82863e-05
6 *2739:D *2762:D 0
7 *2739:D *2768:D 0
8 *2739:D *2947:A 0
9 *2739:D *739:10 0
10 *2739:D *756:14 0
11 *2413:B *722:8 3.45588e-05
12 *2739:CLK *2739:D 0
13 *2739:RESET_B *2739:D 0
14 *2861:A *2739:D 0
15 *670:10 *2739:D 0
*RES
1 *2409:Y *722:8 4.135 
2 *722:8 *2410:B 1.6 
3 *722:8 *2739:D 26.33 
*END

*D_NET *723 0.000545837
*CONN
*I *2869:A I *D sky130_fd_sc_hd__dlygate4sd3_1
*I *2769:Q O *D sky130_fd_sc_hd__dfrtp_1
*CAP
1 *2869:A 0.000143671
2 *2769:Q 0.000143671
3 *2769:RESET_B *2869:A 1.7386e-05
4 *639:59 *2869:A 0.000119512
5 *642:99 *2869:A 0.000121597
*RES
1 *2769:Q *2869:A 11.07 
*END

*D_NET *724 0.00251468
*CONN
*I *2936:A I *D sky130_fd_sc_hd__dlygate4sd3_1
*I *2770:Q O *D sky130_fd_sc_hd__dfrtp_1
*CAP
1 *2936:A 0.000474223
2 *2770:Q 0.000474223
3 *2936:A *2765:D 0
4 *363:10 *2936:A 0.00111397
5 *633:14 *2936:A 8.65961e-05
6 *669:106 *2936:A 3.04982e-05
7 *672:76 *2936:A 0.00033517
*RES
1 *2770:Q *2936:A 20.85 
*END

*D_NET *725 0.00170172
*CONN
*I *2925:A I *D sky130_fd_sc_hd__dlygate4sd3_1
*I *2771:Q O *D sky130_fd_sc_hd__dfrtp_1
*CAP
1 *2925:A 0.000798331
2 *2771:Q 0.000798331
3 *2925:A *2763:D 0
4 *2925:A *733:25 0
5 *2758:RESET_B *2925:A 0.00010506
6 *2818:A *2925:A 0
7 *351:14 *2925:A 0
8 *675:96 *2925:A 0
*RES
1 *2771:Q *2925:A 18.6 
*END

*D_NET *726 0.00113653
*CONN
*I *2914:A I *D sky130_fd_sc_hd__dlygate4sd3_1
*I *2772:Q O *D sky130_fd_sc_hd__dfrtp_1
*CAP
1 *2914:A 0.000522448
2 *2772:Q 0.000522448
3 *2299:A *2914:A 0
4 *2741:CLK *2914:A 0
5 *2741:RESET_B *2914:A 0
6 *2778:RESET_B *2914:A 9.16315e-05
7 *352:60 *2914:A 0
*RES
1 *2772:Q *2914:A 15.525 
*END

*D_NET *727 0.00140598
*CONN
*I *2947:A I *D sky130_fd_sc_hd__dlygate4sd3_1
*I *2773:Q O *D sky130_fd_sc_hd__dfrtp_1
*CAP
1 *2947:A 0.000528287
2 *2773:Q 0.000528287
3 *2947:A *739:10 0
4 *2739:D *2947:A 0
5 *2739:RESET_B *2947:A 8.55971e-05
6 *2767:RESET_B *2947:A 5.2089e-05
7 *674:92 *2947:A 0.000211717
*RES
1 *2773:Q *2947:A 17.535 
*END

*D_NET *728 0.00205385
*CONN
*I *2299:B I *D sky130_fd_sc_hd__xnor2_2
*I *2376:A I *D sky130_fd_sc_hd__xnor2_1
*I *2777:Q O *D sky130_fd_sc_hd__dfrtp_1
*CAP
1 *2299:B 0
2 *2376:A 0.000265479
3 *2777:Q 0.00026752
4 *728:8 0.000532998
5 *2376:A *2314:A 0.000261177
6 *2376:A *733:27 4.82863e-05
7 *2299:A *728:8 0.000237243
8 *2389:A *2376:A 0
9 *2758:RESET_B *2376:A 0
10 *2776:D *2376:A 0.00012819
11 *198:8 *2376:A 0.000140912
12 *676:46 *728:8 6.32842e-05
13 *676:54 *728:8 0.000108761
*RES
1 *2777:Q *728:8 7.24 
2 *728:8 *2376:A 11.615 
3 *728:8 *2299:B 1.6 
*END

*D_NET *729 0.00444712
*CONN
*I *2365:A I *D sky130_fd_sc_hd__nor2_1
*I *2292:A I *D sky130_fd_sc_hd__inv_2
*I *2366:A I *D sky130_fd_sc_hd__and2_1
*I *2488:B I *D sky130_fd_sc_hd__or3b_4
*I *2468:B I *D sky130_fd_sc_hd__or3b_4
*I *2368:B I *D sky130_fd_sc_hd__and3_2
*I *2742:Q O *D sky130_fd_sc_hd__dfrtp_1
*CAP
1 *2365:A 4.36766e-05
2 *2292:A 7.62279e-05
3 *2366:A 0.000135368
4 *2488:B 0
5 *2468:B 0.000211468
6 *2368:B 0.000262484
7 *2742:Q 0
8 *729:48 0.000207468
9 *729:25 0.000230123
10 *729:10 0.000333056
11 *729:8 0.000676852
12 *729:4 0.000577131
13 *2366:A *2742:D 0
14 *2468:B *730:19 4.99619e-05
15 *729:8 *2742:D 4.41506e-05
16 *729:10 *730:10 6.28843e-05
17 *729:25 *730:19 4.82863e-05
18 *2468:A *2368:B 0
19 *2468:A *2468:B 0.000163199
20 *2468:C_N *2468:B 4.99619e-05
21 *2478:B *2368:B 0.000140912
22 *2740:CLK *2366:A 2.34423e-05
23 *2742:RESET_B *729:8 1.54085e-05
24 *2743:RESET_B *729:8 1.04556e-05
25 *175:16 *2368:B 0.000196376
26 *246:61 *2468:B 7.59904e-05
27 *247:12 *2365:A 1.85674e-05
28 *247:12 *729:8 0.000279498
29 *247:12 *729:48 3.00381e-05
30 *248:19 *2366:A 0.000179015
31 *248:19 *2368:B 2.14129e-05
32 *248:19 *729:10 0.00013521
33 *322:10 *2468:B 2.75229e-05
34 *326:12 *2368:B 0
35 *350:71 *2368:B 3.31282e-05
36 *677:31 *2292:A 7.89611e-05
37 *677:31 *729:48 8.88108e-06
*RES
1 *2742:Q *729:4 1.6 
2 *729:4 *729:8 8.315 
3 *729:8 *729:10 1.635 
4 *729:10 *2368:B 8.085 
5 *729:10 *729:25 2.45 
6 *729:25 *2468:B 6.19 
7 *729:25 *2488:B 1.6 
8 *729:8 *2366:A 6.255 
9 *729:4 *729:48 1.14 
10 *729:48 *2292:A 7.235 
11 *729:48 *2365:A 2.47 
*END

*D_NET *730 0.00215709
*CONN
*I *2369:A I *D sky130_fd_sc_hd__nor2_1
*I *2382:A I *D sky130_fd_sc_hd__xnor2_1
*I *2368:A I *D sky130_fd_sc_hd__and3_2
*I *2291:A I *D sky130_fd_sc_hd__inv_2
*I *2488:A I *D sky130_fd_sc_hd__or3b_4
*I *2743:Q O *D sky130_fd_sc_hd__dfrtp_1
*CAP
1 *2369:A 0.000102482
2 *2382:A 0
3 *2368:A 0
4 *2291:A 6.38643e-05
5 *2488:A 0
6 *2743:Q 6.99966e-05
7 *730:45 0.000117848
8 *730:29 0.000217828
9 *730:19 0.000261812
10 *730:10 0.000162478
11 *2368:C *730:29 9.0283e-05
12 *2369:B *2369:A 0.0001167
13 *2369:B *730:19 5.74791e-05
14 *2369:B *730:45 8.65961e-05
15 *2468:B *730:19 4.99619e-05
16 *175:6 *2291:A 4.82863e-05
17 *175:16 *2291:A 7.35729e-05
18 *175:16 *730:29 2.26018e-05
19 *246:61 *730:19 9.96764e-05
20 *249:16 *2291:A 0
21 *250:10 *2369:A 0.000200615
22 *250:10 *730:19 4.82919e-05
23 *250:10 *730:29 0.000117832
24 *250:10 *730:45 3.7712e-05
25 *729:10 *730:10 6.28843e-05
26 *729:25 *730:19 4.82863e-05
*RES
1 *2743:Q *730:10 6.98 
2 *730:10 *2488:A 1.6 
3 *730:10 *730:19 2.535 
4 *730:19 *730:29 6.88 
5 *730:29 *2291:A 3.1 
6 *730:29 *2368:A 1.6 
7 *730:19 *730:45 0.795 
8 *730:45 *2382:A 1.6 
9 *730:45 *2369:A 4.84 
*END

*D_NET *731 0.00420821
*CONN
*I *2309:A I *D sky130_fd_sc_hd__or2_1
*I *2830:A I *D sky130_fd_sc_hd__buf_2
*I *2744:Q O *D sky130_fd_sc_hd__dfrtp_1
*CAP
1 *2309:A 0.00167507
2 *2830:A 5.24018e-05
3 *2744:Q 0
4 *731:4 0.00172747
5 *2309:A *2415:A 0
6 *2309:A *732:25 0
7 *2830:A *2755:D 4.40899e-05
8 *2302:A *2309:A 0
9 *2304:A *2309:A 0
10 *2744:RESET_B *2309:A 0.00016063
11 *183:21 *2309:A 0
12 *186:12 *2309:A 0.000317507
13 *364:8 *2309:A 0
14 *365:8 *2309:A 0
15 *639:26 *2830:A 6.47594e-05
16 *676:54 *2309:A 5.20968e-05
17 *677:25 *2309:A 0.000114183
*RES
1 *2744:Q *731:4 1.6 
2 *731:4 *2830:A 6.98 
3 *731:4 *2309:A 28.925 
*END

*D_NET *732 0.00580527
*CONN
*I *2301:A I *D sky130_fd_sc_hd__nand2_1
*I *2312:A I *D sky130_fd_sc_hd__nor2_1
*I *2300:A I *D sky130_fd_sc_hd__and2_1
*I *2829:A I *D sky130_fd_sc_hd__clkbuf_4
*I *2745:Q O *D sky130_fd_sc_hd__dfrtp_1
*CAP
1 *2301:A 1.38876e-05
2 *2312:A 0
3 *2300:A 0
4 *2829:A 0.000471201
5 *2745:Q 0
6 *732:34 7.56822e-05
7 *732:25 0.00132041
8 *732:4 0.00172981
9 *732:25 *2745:D 0.00029032
10 *2301:B *2301:A 4.99619e-05
11 *2301:B *732:34 4.84704e-05
12 *2302:A *732:25 0.000183738
13 *2309:A *732:25 0
14 *2385:A *2829:A 4.60584e-05
15 *2385:B *2829:A 8.8266e-05
16 *2389:A *732:25 0
17 *2745:CLK *732:25 5.05437e-05
18 *2745:RESET_B *732:25 5.062e-06
19 *2776:RESET_B *732:25 8.58339e-06
20 *2827:A *2829:A 0.000307391
21 *183:10 *732:25 0
22 *183:21 *732:25 0.000239813
23 *183:28 *732:25 7.66083e-05
24 *183:28 *732:34 4.99619e-05
25 *186:12 *732:25 0
26 *260:12 *2829:A 0.00012657
27 *365:8 *732:25 0.000116158
28 *633:93 *2829:A 0.000148089
29 *633:93 *732:25 0.000124895
30 *633:99 *2829:A 0.000233792
*RES
1 *2745:Q *732:4 1.6 
2 *732:4 *2829:A 10.525 
3 *732:4 *732:25 24.37 
4 *732:25 *2300:A 1.6 
5 *732:25 *732:34 1.5 
6 *732:34 *2312:A 1.6 
7 *732:34 *2301:A 2.05 
*END

*D_NET *733 0.00528528
*CONN
*I *2314:A I *D sky130_fd_sc_hd__xor2_2
*I *2375:A I *D sky130_fd_sc_hd__xnor2_1
*I *2415:A I *D sky130_fd_sc_hd__xnor2_1
*I *2763:D I *D sky130_fd_sc_hd__dfrtp_1
*I *2746:Q O *D sky130_fd_sc_hd__dfrtp_4
*CAP
1 *2314:A 0.000392331
2 *2375:A 2.08101e-05
3 *2415:A 0.000539437
4 *2763:D 0.000190577
5 *2746:Q 2.87332e-05
6 *733:27 0.000932029
7 *733:25 0.000989862
8 *733:8 0.000445059
9 *733:25 *2758:D 0.000149749
10 *733:27 *747:8 0.00019639
11 *2309:A *2415:A 0
12 *2375:B *2415:A 0.000184866
13 *2376:A *2314:A 0.000261177
14 *2376:A *733:27 4.82863e-05
15 *2746:RESET_B *2763:D 0
16 *2746:RESET_B *733:25 0
17 *2758:RESET_B *2314:A 0
18 *2763:RESET_B *2763:D 3.32922e-05
19 *2776:D *733:25 5.20968e-05
20 *2801:A *733:8 4.99619e-05
21 *2802:A *733:25 0
22 *2818:A *733:25 0.000206123
23 *2925:A *2763:D 0
24 *2925:A *733:25 0
25 *345:174 *2415:A 7.35729e-05
26 *351:14 *733:25 4.70343e-05
27 *351:20 *2415:A 0
28 *352:64 *2314:A 0.000235568
29 *364:8 *2415:A 0.00012881
30 *633:8 *2415:A 0
31 *670:29 *2763:D 4.49498e-05
32 *670:29 *733:8 3.45588e-05
*RES
1 *2746:Q *733:8 4.395 
2 *733:8 *2763:D 6.69375 
3 *733:8 *733:25 7.715 
4 *733:25 *733:27 6.315 
5 *733:27 *2415:A 15.665 
6 *733:27 *2375:A 1.96 
7 *733:25 *2314:A 13.04 
*END

*D_NET *734 0.000734061
*CONN
*I *2742:D I *D sky130_fd_sc_hd__dfrtp_1
*I *2367:Y O *D sky130_fd_sc_hd__nor2_1
*CAP
1 *2742:D 0.000219932
2 *2367:Y 0.000219932
3 *2366:A *2742:D 0
4 *2743:CLK *2742:D 0.000176538
5 *2743:RESET_B *2742:D 1.46828e-05
6 *350:77 *2742:D 5.8825e-05
7 *729:8 *2742:D 4.41506e-05
*RES
1 *2367:Y *2742:D 11.355 
*END

*D_NET *735 0.00093657
*CONN
*I *2743:D I *D sky130_fd_sc_hd__dfrtp_1
*I *2370:Y O *D sky130_fd_sc_hd__nor2_1
*CAP
1 *2743:D 0.000423618
2 *2370:Y 0.000423618
3 *2370:B *2743:D 4.82863e-05
4 *2468:A *2743:D 0
5 *322:10 *2743:D 0
6 *325:67 *2743:D 4.10476e-05
*RES
1 *2370:Y *2743:D 13.14 
*END

*D_NET *736 0.000887216
*CONN
*I *2744:D I *D sky130_fd_sc_hd__dfrtp_1
*I *2373:Y O *D sky130_fd_sc_hd__nor2_1
*CAP
1 *2744:D 0.000247527
2 *2373:Y 0.000247527
3 *2744:D *2756:D 0
4 *2377:B *2744:D 6.47516e-05
5 *2545:B *2744:D 0.000178
6 *350:54 *2744:D 0.000139245
7 *635:101 *2744:D 1.01661e-05
*RES
1 *2373:Y *2744:D 12.405 
*END

*D_NET *737 0.00106913
*CONN
*I *2745:D I *D sky130_fd_sc_hd__dfrtp_1
*I *2414:X O *D sky130_fd_sc_hd__and2b_1
*CAP
1 *2745:D 0.000185368
2 *2414:X 0.000185368
3 *2745:RESET_B *2745:D 0.000190761
4 *2827:A *2745:D 1.83756e-05
5 *633:93 *2745:D 0.000198939
6 *732:25 *2745:D 0.00029032
*RES
1 *2414:X *2745:D 9.515 
*END

*D_NET *738 0.000449402
*CONN
*I *2746:D I *D sky130_fd_sc_hd__dfrtp_4
*I *2415:Y O *D sky130_fd_sc_hd__xnor2_1
*CAP
1 *2746:D 0.000105616
2 *2415:Y 0.000105616
3 *2746:CLK *2746:D 7.6916e-05
4 *345:174 *2746:D 0.000161253
*RES
1 *2415:Y *2746:D 6.215 
*END

*D_NET *739 0.00467591
*CONN
*I *2330:B I *D sky130_fd_sc_hd__xnor2_2
*I *2345:A I *D sky130_fd_sc_hd__xor2_1
*I *2346:A I *D sky130_fd_sc_hd__xnor2_1
*I *2768:Q O *D sky130_fd_sc_hd__dfrtp_2
*CAP
1 *2330:B 0
2 *2345:A 5.75456e-05
3 *2346:A 7.76084e-05
4 *2768:Q 0.000925458
5 *739:14 0.000299456
6 *739:10 0.00108976
7 *2346:A *2330:A 0.000237238
8 *739:14 *2330:A 0.000123225
9 *2345:B *2345:A 0.000141599
10 *2431:A1 *739:10 1.88602e-05
11 *2431:S *739:10 9.73814e-05
12 *2739:D *739:10 0
13 *2767:RESET_B *739:10 5.2089e-05
14 *2862:A *739:10 0
15 *2867:A *739:10 0.000563156
16 *2947:A *739:10 0
17 *213:10 *2346:A 6.90876e-05
18 *228:10 *2345:A 1.26548e-05
19 *264:10 *739:10 7.01908e-05
20 *264:18 *739:10 1.00941e-05
21 *634:26 *739:10 0.000152611
22 *672:10 *739:10 4.84393e-05
23 *672:14 *739:10 0.000159593
24 *673:16 *2345:A 7.75325e-05
25 *673:16 *739:10 0
26 *674:92 *739:10 4.43871e-06
27 *708:10 *2345:A 2.92496e-05
28 *708:25 *2346:A 0.00032595
29 *708:34 *2346:A 3.26889e-05
*RES
1 *2768:Q *739:10 27.38 
2 *739:10 *739:14 2.88 
3 *739:14 *2346:A 5.17 
4 *739:14 *2345:A 7.745 
5 *739:10 *2330:B 1.6 
*END

*D_NET *740 0.00138691
*CONN
*I *2759:D I *D sky130_fd_sc_hd__dfrtp_1
*I *2755:Q O *D sky130_fd_sc_hd__dfrtp_1
*CAP
1 *2759:D 0.000405527
2 *2755:Q 0.000405527
3 *2759:D *2760:D 0
4 *2491:A0 *2759:D 0.000120323
5 *2755:RESET_B *2759:D 4.66108e-05
6 *2759:CLK *2759:D 2.49909e-05
7 *2760:RESET_B *2759:D 0.000254637
8 *363:10 *2759:D 0
9 *633:22 *2759:D 0
10 *634:168 *2759:D 0.000108577
11 *675:42 *2759:D 2.07184e-05
*RES
1 *2755:Q *2759:D 15.18 
*END

*D_NET *741 0.00168529
*CONN
*I *2760:D I *D sky130_fd_sc_hd__dfrtp_1
*I *2756:Q O *D sky130_fd_sc_hd__dfrtp_1
*CAP
1 *2760:D 0.000379471
2 *2756:Q 0.000379471
3 *2760:D *2755:D 9.9535e-05
4 *2759:D *2760:D 0
5 *2760:CLK *2760:D 2.24336e-05
6 *2761:CLK *2760:D 0.000570467
7 *2775:D *2760:D 0.000191932
8 *670:58 *2760:D 4.19797e-05
9 *675:42 *2760:D 0
*RES
1 *2756:Q *2760:D 17.205 
*END

*D_NET *742 0.000359094
*CONN
*I *2761:D I *D sky130_fd_sc_hd__dfrtp_1
*I *2757:Q O *D sky130_fd_sc_hd__dfrtp_1
*CAP
1 *2761:D 0.000137441
2 *2757:Q 0.000137441
3 *345:174 *2761:D 9.18292e-06
4 *363:10 *2761:D 6.5525e-05
5 *633:14 *2761:D 0
6 *675:32 *2761:D 9.50342e-06
*RES
1 *2757:Q *2761:D 9.375 
*END

*D_NET *743 0.000742679
*CONN
*I *2762:D I *D sky130_fd_sc_hd__dfrtp_1
*I *2758:Q O *D sky130_fd_sc_hd__dfrtp_1
*CAP
1 *2762:D 0.00030801
2 *2758:Q 0.00030801
3 *2739:CLK *2762:D 7.5448e-05
4 *2739:D *2762:D 0
5 *670:10 *2762:D 4.18603e-06
6 *670:19 *2762:D 4.70256e-05
*RES
1 *2758:Q *2762:D 12.105 
*END

*D_NET *744 0.00538331
*CONN
*I *2383:B I *D sky130_fd_sc_hd__xnor2_1
*I *2755:D I *D sky130_fd_sc_hd__dfrtp_1
*I *2382:Y O *D sky130_fd_sc_hd__xnor2_1
*CAP
1 *2383:B 2.946e-05
2 *2755:D 0.00133246
3 *2382:Y 0.000616962
4 *744:12 0.00197888
5 *2755:D *2757:D 0.00011665
6 *2755:D *745:10 0
7 *744:12 *745:10 5.4256e-05
8 *2368:C *744:12 4.04834e-05
9 *2379:B *744:12 0
10 *2383:A *2755:D 5.72091e-05
11 *2386:B *2755:D 0
12 *2388:D_N *2755:D 0.00013687
13 *2744:RESET_B *2755:D 0.000277723
14 *2760:D *2755:D 9.9535e-05
15 *2761:CLK *2755:D 0.000411493
16 *2775:D *2755:D 0
17 *2830:A *2755:D 4.40899e-05
18 *327:99 *2755:D 0
19 *350:71 *744:12 0
20 *633:22 *2755:D 2.42236e-05
21 *633:99 *2755:D 0
22 *639:26 *2755:D 0
23 *670:58 *2755:D 0.000163019
24 *677:31 *2755:D 0
*RES
1 *2382:Y *744:12 15.62 
2 *744:12 *2755:D 31.265 
3 *744:12 *2383:B 2.05 
*END

*D_NET *745 0.00399569
*CONN
*I *2381:B I *D sky130_fd_sc_hd__nand2_1
*I *2380:B I *D sky130_fd_sc_hd__nor2_1
*I *2756:D I *D sky130_fd_sc_hd__dfrtp_1
*I *2379:Y O *D sky130_fd_sc_hd__xnor2_1
*CAP
1 *2381:B 0.000100524
2 *2380:B 0
3 *2756:D 0.000509272
4 *2379:Y 0.000225239
5 *745:23 0.000276657
6 *745:10 0.000910645
7 *2303:A *745:10 5.05437e-05
8 *2377:B *2756:D 1.26626e-05
9 *2380:A *2381:B 4.24643e-05
10 *2381:A *2381:B 5.4155e-06
11 *2744:D *2756:D 0
12 *2755:D *745:10 0
13 *2800:A *2756:D 0
14 *251:10 *2756:D 7.36562e-05
15 *323:20 *2756:D 0
16 *327:99 *2756:D 0.00123663
17 *327:99 *745:10 0.000116853
18 *338:10 *2756:D 3.55105e-05
19 *338:22 *2756:D 0
20 *349:56 *2756:D 0.000164679
21 *350:54 *2756:D 0
22 *350:71 *2756:D 0
23 *350:71 *745:10 0
24 *635:101 *2756:D 0.000180682
25 *744:12 *745:10 5.4256e-05
*RES
1 *2379:Y *745:10 8.07 
2 *745:10 *2756:D 17.985 
3 *745:10 *745:23 4.52 
4 *745:23 *2380:B 1.6 
5 *745:23 *2381:B 3.46 
*END

*D_NET *746 0.00316157
*CONN
*I *2378:B I *D sky130_fd_sc_hd__xor2_1
*I *2757:D I *D sky130_fd_sc_hd__dfrtp_1
*I *2377:Y O *D sky130_fd_sc_hd__xnor2_1
*CAP
1 *2378:B 0.000268861
2 *2757:D 0.000355208
3 *2377:Y 0.000148541
4 *746:6 0.000772611
5 *2374:A *746:6 0.000200615
6 *2374:B *746:6 2.96334e-05
7 *2375:B *2378:B 7.49327e-05
8 *2414:A_N *2378:B 6.02202e-05
9 *2744:RESET_B *2757:D 0.000155069
10 *2755:D *2757:D 0.00011665
11 *2775:D *2757:D 0.000159964
12 *253:6 *2378:B 0.000198945
13 *253:6 *746:6 0.000123225
14 *345:174 *2757:D 0.000111293
15 *363:10 *2378:B 0.000183963
16 *363:10 *2757:D 0
17 *636:8 *746:6 8.65905e-05
18 *677:31 *2378:B 0
19 *677:31 *2757:D 0.000115244
*RES
1 *2377:Y *746:6 5.155 
2 *746:6 *2757:D 14.855 
3 *746:6 *2378:B 12.05 
*END

*D_NET *747 0.00137248
*CONN
*I *2376:B I *D sky130_fd_sc_hd__xnor2_1
*I *2758:D I *D sky130_fd_sc_hd__dfrtp_1
*I *2375:Y O *D sky130_fd_sc_hd__xnor2_1
*CAP
1 *2376:B 0
2 *2758:D 0.000238555
3 *2375:Y 0.00025132
4 *747:8 0.000489875
5 *2776:D *2758:D 0
6 *2802:A *2758:D 0
7 *2818:A *2758:D 4.65868e-05
8 *733:25 *2758:D 0.000149749
9 *733:27 *747:8 0.00019639
*RES
1 *2375:Y *747:8 6.205 
2 *747:8 *2758:D 9.99875 
3 *747:8 *2376:B 1.6 
*END

*D_NET *748 0.000237227
*CONN
*I *2764:D I *D sky130_fd_sc_hd__dfrtp_1
*I *2759:Q O *D sky130_fd_sc_hd__dfrtp_1
*CAP
1 *2764:D 7.07241e-05
2 *2759:Q 7.07241e-05
3 *2764:CLK *2764:D 4.99619e-05
4 *672:66 *2764:D 4.58166e-05
*RES
1 *2759:Q *2764:D 4.685 
*END

*D_NET *749 0.00112996
*CONN
*I *2765:D I *D sky130_fd_sc_hd__dfrtp_1
*I *2760:Q O *D sky130_fd_sc_hd__dfrtp_1
*CAP
1 *2765:D 0.000356553
2 *2760:Q 0.000356553
3 *2738:D *2765:D 0
4 *2765:CLK *2765:D 8.8266e-05
5 *2936:A *2765:D 0
6 *644:27 *2765:D 0.000201508
7 *648:78 *2765:D 3.99879e-05
8 *669:106 *2765:D 8.70923e-05
9 *721:8 *2765:D 0
*RES
1 *2760:Q *2765:D 14.235 
*END

*D_NET *750 0.00113241
*CONN
*I *2766:D I *D sky130_fd_sc_hd__dfrtp_1
*I *2761:Q O *D sky130_fd_sc_hd__dfrtp_1
*CAP
1 *2766:D 0.000303287
2 *2761:Q 0.000303287
3 *2761:RESET_B *2766:D 0.000160635
4 *2771:D *2766:D 0.000152964
5 *670:35 *2766:D 0.000197888
6 *670:41 *2766:D 1.43521e-05
7 *674:47 *2766:D 0
8 *674:54 *2766:D 0
*RES
1 *2761:Q *2766:D 14.4 
*END

*D_NET *751 0.000950133
*CONN
*I *2767:D I *D sky130_fd_sc_hd__dfrtp_2
*I *2762:Q O *D sky130_fd_sc_hd__dfrtp_1
*CAP
1 *2767:D 0.00031465
2 *2762:Q 0.00031465
3 *2864:A *2767:D 7.44375e-05
4 *2865:A *2767:D 9.5433e-05
5 *2867:A *2767:D 0.000150002
6 *518:25 *2767:D 0
7 *518:40 *2767:D 0
8 *676:8 *2767:D 9.60582e-07
*RES
1 *2762:Q *2767:D 13.71 
*END

*D_NET *752 0.000655441
*CONN
*I *2768:D I *D sky130_fd_sc_hd__dfrtp_2
*I *2763:Q O *D sky130_fd_sc_hd__dfrtp_1
*CAP
1 *2768:D 0.00012579
2 *2763:Q 0.00012579
3 *2739:D *2768:D 0
4 *2861:A *2768:D 0.000139238
5 *670:10 *2768:D 7.23602e-05
6 *675:10 *2768:D 0.000183731
7 *675:96 *2768:D 8.53113e-06
*RES
1 *2763:Q *2768:D 10.62 
*END

*D_NET *753 0.00448351
*CONN
*I *2405:A I *D sky130_fd_sc_hd__xor2_1
*I *2338:A I *D sky130_fd_sc_hd__xnor2_1
*I *2764:Q O *D sky130_fd_sc_hd__dfrtp_1
*CAP
1 *2405:A 5.66458e-05
2 *2338:A 0.000524867
3 *2764:Q 0.000929321
4 *753:10 0.00151083
5 *753:10 *2334:A 0
6 *753:10 *754:10 0
7 *2403:A *753:10 0.00016214
8 *2405:B *2338:A 0.000129678
9 *2412:B *753:10 3.45679e-05
10 *2732:RESET_B *753:10 0.000193372
11 *2764:RESET_B *753:10 5.02217e-05
12 *2842:A *2338:A 0.000112299
13 *3032:A *2338:A 5.30673e-05
14 *219:8 *2338:A 0.000284826
15 *637:10 *753:10 0
16 *640:49 *753:10 0
17 *640:55 *2338:A 0
18 *640:55 *753:10 0
19 *647:27 *2338:A 0
20 *648:20 *2338:A 5.05521e-05
21 *648:53 *2338:A 0
22 *648:53 *753:10 0
23 *672:30 *753:10 0
24 *672:40 *753:10 0.0003186
25 *705:12 *753:10 0
26 *705:40 *753:10 0
27 *719:10 *2338:A 7.25122e-05
*RES
1 *2764:Q *753:10 22.095 
2 *753:10 *2338:A 16.74 
3 *753:10 *2405:A 4.395 
*END

*D_NET *754 0.00486415
*CONN
*I *2402:A I *D sky130_fd_sc_hd__nor2_1
*I *2336:A I *D sky130_fd_sc_hd__xnor2_2
*I *2401:A I *D sky130_fd_sc_hd__and2_1
*I *2765:Q O *D sky130_fd_sc_hd__dfrtp_1
*CAP
1 *2402:A 1.17533e-05
2 *2336:A 0.000495486
3 *2401:A 2.64706e-05
4 *2765:Q 0.000518244
5 *754:18 0.000634378
6 *754:10 0.000642419
7 *2336:A *2334:A 0.000538158
8 *754:10 *2334:A 0.000635294
9 *754:18 *2334:A 0.000174039
10 *2402:B *2402:A 4.82863e-05
11 *2402:B *754:18 9.69431e-05
12 *2403:A *754:10 0
13 *2406:B1 *2336:A 8.09021e-06
14 *2407:A1 *2336:A 8.40213e-05
15 *2407:C1 *2336:A 4.66108e-05
16 *2832:A *754:10 6.32027e-05
17 *213:10 *2336:A 0
18 *213:16 *2336:A 0
19 *217:8 *2336:A 0
20 *217:14 *2336:A 0
21 *273:6 *2402:A 2.75145e-05
22 *273:10 *2336:A 2.14129e-05
23 *273:14 *2336:A 0.000157602
24 *551:26 *2336:A 3.38341e-05
25 *551:26 *2401:A 2.30292e-05
26 *634:26 *2336:A 2.55587e-05
27 *634:26 *2401:A 0.000120655
28 *637:10 *754:10 0.000195423
29 *637:16 *754:10 1.7635e-05
30 *640:49 *754:10 0
31 *640:49 *754:18 0
32 *640:55 *2336:A 0
33 *672:30 *754:10 0.000133164
34 *720:18 *2401:A 8.49205e-05
35 *753:10 *754:10 0
*RES
1 *2765:Q *754:10 14.31 
2 *754:10 *754:18 4.7 
3 *754:18 *2401:A 2.74 
4 *754:18 *2336:A 17.045 
5 *754:10 *2402:A 4.05 
*END

*D_NET *755 0.00428812
*CONN
*I *2412:A I *D sky130_fd_sc_hd__xnor2_1
*I *2334:A I *D sky130_fd_sc_hd__xor2_2
*I *2766:Q O *D sky130_fd_sc_hd__dfrtp_1
*CAP
1 *2412:A 0
2 *2334:A 0.000750354
3 *2766:Q 0.000474286
4 *755:10 0.00122464
5 *2336:A *2334:A 0.000538158
6 *2402:B *2334:A 4.24292e-06
7 *2406:B1 *2334:A 0.000188283
8 *2407:C1 *2334:A 0.000183043
9 *2409:B *755:10 0
10 *2413:C *2334:A 0
11 *2773:D *755:10 0
12 *273:10 *2334:A 0.000115782
13 *672:30 *2334:A 0
14 *674:18 *755:10 0
15 *674:22 *755:10 0
16 *708:42 *2334:A 0
17 *708:42 *755:10 0
18 *753:10 *2334:A 0
19 *754:10 *2334:A 0.000635294
20 *754:18 *2334:A 0.000174039
*RES
1 *2766:Q *755:10 11.04 
2 *755:10 *2334:A 21.81 
3 *755:10 *2412:A 3.6 
*END

*D_NET *756 0.00368489
*CONN
*I *2410:A I *D sky130_fd_sc_hd__xnor2_1
*I *2330:A I *D sky130_fd_sc_hd__xnor2_2
*I *2767:Q O *D sky130_fd_sc_hd__dfrtp_2
*CAP
1 *2410:A 2.22788e-05
2 *2330:A 0.000954982
3 *2767:Q 0.000534021
4 *756:14 0.00151128
5 empty *2330:A 0
6 *2346:A *2330:A 0.000237238
7 *2413:B *2330:A 7.45707e-05
8 *2618:D *2330:A 0
9 *2721:CLK *2330:A 9.24127e-05
10 *2734:D *2330:A 0
11 *2739:D *2410:A 4.82863e-05
12 *2739:D *756:14 0
13 *2862:A *2330:A 0
14 *213:10 *2330:A 8.65961e-05
15 *637:174 *2330:A 0
16 *668:112 *2330:A 0
17 *708:10 *2330:A 0
18 *739:14 *2330:A 0.000123225
*RES
1 *2767:Q *756:14 11.94 
2 *756:14 *2330:A 20.94 
3 *756:14 *2410:A 4.05 
*END
