*SPEF "ieee 1481-1999"
*DESIGN "async_fifo"
*DATE "16:36:02 Friday August 28, 2026"
*VENDOR "The OpenROAD Project"
*PROGRAM "OpenROAD"
*VERSION "edf00dff99f6c40d67a30c0e22a8191c5d2ed9d6"
*DESIGN_FLOW "NAME_SCOPE LOCAL" "PIN_CAP NONE"
*DIVIDER /
*DELIMITER :
*BUS_DELIMITER []
*T_UNIT 1 NS
*C_UNIT 1 PF
*R_UNIT 1 OHM
*L_UNIT 1 HENRY

*NAME_MAP
*3 aempty
*4 aempty_threshold[0]
*5 aempty_threshold[1]
*6 aempty_threshold[2]
*7 aempty_threshold[3]
*8 aempty_threshold[4]
*9 afull
*10 afull_threshold[0]
*11 afull_threshold[1]
*12 afull_threshold[2]
*13 afull_threshold[3]
*14 afull_threshold[4]
*15 arst_n
*16 empty
*17 full
*18 rd_clk
*19 rd_data[0]
*20 rd_data[1]
*21 rd_data[2]
*22 rd_data[3]
*23 rd_data[4]
*24 rd_data[5]
*25 rd_data[6]
*26 rd_data[7]
*27 rd_en
*28 wr_clk
*29 wr_data[0]
*30 wr_data[1]
*31 wr_data[2]
*32 wr_data[3]
*33 wr_data[4]
*34 wr_data[5]
*35 wr_data[6]
*36 wr_data[7]
*37 wr_en
*38 _000_
*39 _001_
*40 _002_
*41 _003_
*42 _004_
*43 _005_
*44 _006_
*45 _007_
*46 _008_
*47 _009_
*48 _010_
*49 _011_
*50 _012_
*51 _013_
*52 _014_
*53 _015_
*54 _016_
*55 _017_
*56 _018_
*57 _019_
*58 _020_
*59 _021_
*60 _022_
*61 _023_
*62 _024_
*63 _025_
*64 _026_
*65 _027_
*66 _028_
*67 _029_
*68 _030_
*69 _031_
*70 _032_
*71 _033_
*72 _034_
*73 _035_
*74 _036_
*75 _037_
*76 _038_
*77 _039_
*78 _040_
*79 _041_
*80 _042_
*81 _043_
*82 _044_
*83 _045_
*84 _046_
*85 _047_
*86 _048_
*87 _049_
*88 _050_
*89 _051_
*90 _052_
*91 _053_
*92 _054_
*93 _055_
*94 _056_
*95 _057_
*96 _058_
*97 _059_
*98 _060_
*99 _061_
*100 _062_
*101 _063_
*102 _064_
*103 _065_
*104 _066_
*105 _067_
*106 _068_
*107 _069_
*108 _070_
*109 _071_
*110 _072_
*111 _073_
*112 _074_
*113 _075_
*114 _076_
*115 _077_
*116 _078_
*117 _079_
*118 _080_
*119 _081_
*120 _082_
*121 _083_
*122 _084_
*123 _085_
*124 _086_
*125 _087_
*126 _088_
*127 _089_
*128 _090_
*129 _091_
*130 _092_
*131 _093_
*132 _094_
*133 _095_
*134 _096_
*135 _097_
*136 _098_
*137 _099_
*138 _100_
*139 _101_
*140 _102_
*141 _103_
*142 _104_
*143 _105_
*144 _106_
*145 _107_
*146 _108_
*147 _109_
*148 _110_
*149 _111_
*150 _112_
*151 _113_
*152 _114_
*153 _115_
*154 _116_
*155 _117_
*156 _118_
*157 _119_
*158 _120_
*159 _121_
*160 _122_
*161 _123_
*162 _124_
*163 _125_
*164 _126_
*165 _127_
*166 _128_
*167 _129_
*168 _130_
*169 _131_
*170 _132_
*171 _133_
*172 _134_
*173 _135_
*174 _136_
*175 _137_
*176 _138_
*177 _139_
*178 _140_
*179 _141_
*180 _142_
*181 _143_
*182 _144_
*183 _145_
*184 _146_
*185 _147_
*186 _148_
*187 _149_
*188 _150_
*189 _151_
*190 _152_
*191 _153_
*192 _154_
*193 _155_
*194 _156_
*195 _157_
*196 _158_
*197 _159_
*198 _160_
*199 _161_
*200 _162_
*201 _163_
*202 _164_
*203 _165_
*204 _166_
*205 _167_
*206 _168_
*207 _169_
*208 _170_
*209 _171_
*210 _172_
*211 _173_
*212 _174_
*213 _175_
*214 _176_
*215 _177_
*216 _178_
*217 _179_
*218 _180_
*219 _181_
*220 _182_
*221 _183_
*222 _184_
*223 _185_
*224 _186_
*225 _187_
*226 _188_
*227 _189_
*228 _190_
*229 _191_
*230 _192_
*231 _193_
*232 _194_
*233 _195_
*234 _196_
*235 _197_
*236 _198_
*237 _199_
*238 _200_
*239 _201_
*240 _202_
*241 _203_
*242 _204_
*243 _205_
*244 _206_
*245 _207_
*246 _208_
*247 _209_
*248 _210_
*249 _211_
*250 _212_
*251 _213_
*252 _214_
*253 _215_
*254 _216_
*255 _217_
*256 _218_
*257 _219_
*258 _220_
*259 _221_
*260 _222_
*261 _223_
*262 _224_
*263 _225_
*264 _226_
*265 _227_
*266 _228_
*267 _229_
*268 _230_
*269 _231_
*270 _232_
*271 _233_
*272 _234_
*273 _235_
*274 _236_
*275 _237_
*276 _238_
*277 _239_
*278 _240_
*279 _241_
*280 _242_
*281 _243_
*282 _244_
*283 _245_
*284 _246_
*285 _247_
*286 _248_
*287 _249_
*288 _250_
*289 _251_
*290 _252_
*291 _253_
*292 _254_
*293 _255_
*294 _256_
*295 _257_
*296 _258_
*297 _259_
*298 _260_
*299 _261_
*300 _262_
*301 _263_
*302 _264_
*303 _265_
*304 _266_
*305 _267_
*306 _268_
*307 _269_
*308 _270_
*309 _271_
*310 _272_
*311 _273_
*312 _274_
*313 _275_
*314 _276_
*315 _277_
*316 _278_
*317 _279_
*318 _280_
*319 _281_
*320 _282_
*321 _283_
*322 _284_
*323 _285_
*324 _286_
*325 _287_
*326 _288_
*327 _289_
*328 _290_
*329 _291_
*330 _292_
*331 _293_
*332 _294_
*333 _295_
*334 _296_
*335 _297_
*336 _298_
*337 _299_
*338 _300_
*339 _301_
*340 _302_
*341 _303_
*342 _304_
*343 aempty_next
*344 afull_next
*345 clknet_0_wr_clk
*346 clknet_4_0_0_wr_clk
*347 clknet_4_10_0_wr_clk
*348 clknet_4_11_0_wr_clk
*349 clknet_4_12_0_wr_clk
*350 clknet_4_13_0_wr_clk
*351 clknet_4_14_0_wr_clk
*352 clknet_4_15_0_wr_clk
*353 clknet_4_1_0_wr_clk
*354 clknet_4_2_0_wr_clk
*355 clknet_4_3_0_wr_clk
*356 clknet_4_4_0_wr_clk
*357 clknet_4_5_0_wr_clk
*358 clknet_4_6_0_wr_clk
*359 clknet_4_7_0_wr_clk
*360 clknet_4_8_0_wr_clk
*361 clknet_4_9_0_wr_clk
*362 empty_next
*363 full_compare\[0\]
*364 full_compare\[1\]
*365 full_compare\[2\]
*366 full_next
*367 mem\[0\]\[0\]
*368 mem\[0\]\[1\]
*369 mem\[0\]\[2\]
*370 mem\[0\]\[3\]
*371 mem\[0\]\[4\]
*372 mem\[0\]\[5\]
*373 mem\[0\]\[6\]
*374 mem\[0\]\[7\]
*375 mem\[10\]\[0\]
*376 mem\[10\]\[1\]
*377 mem\[10\]\[2\]
*378 mem\[10\]\[3\]
*379 mem\[10\]\[4\]
*380 mem\[10\]\[5\]
*381 mem\[10\]\[6\]
*382 mem\[10\]\[7\]
*383 mem\[11\]\[0\]
*384 mem\[11\]\[1\]
*385 mem\[11\]\[2\]
*386 mem\[11\]\[3\]
*387 mem\[11\]\[4\]
*388 mem\[11\]\[5\]
*389 mem\[11\]\[6\]
*390 mem\[11\]\[7\]
*391 mem\[12\]\[0\]
*392 mem\[12\]\[1\]
*393 mem\[12\]\[2\]
*394 mem\[12\]\[3\]
*395 mem\[12\]\[4\]
*396 mem\[12\]\[5\]
*397 mem\[12\]\[6\]
*398 mem\[12\]\[7\]
*399 mem\[13\]\[0\]
*400 mem\[13\]\[1\]
*401 mem\[13\]\[2\]
*402 mem\[13\]\[3\]
*403 mem\[13\]\[4\]
*404 mem\[13\]\[5\]
*405 mem\[13\]\[6\]
*406 mem\[13\]\[7\]
*407 mem\[14\]\[0\]
*408 mem\[14\]\[1\]
*409 mem\[14\]\[2\]
*410 mem\[14\]\[3\]
*411 mem\[14\]\[4\]
*412 mem\[14\]\[5\]
*413 mem\[14\]\[6\]
*414 mem\[14\]\[7\]
*415 mem\[15\]\[0\]
*416 mem\[15\]\[1\]
*417 mem\[15\]\[2\]
*418 mem\[15\]\[3\]
*419 mem\[15\]\[4\]
*420 mem\[15\]\[5\]
*421 mem\[15\]\[6\]
*422 mem\[15\]\[7\]
*423 mem\[1\]\[0\]
*424 mem\[1\]\[1\]
*425 mem\[1\]\[2\]
*426 mem\[1\]\[3\]
*427 mem\[1\]\[4\]
*428 mem\[1\]\[5\]
*429 mem\[1\]\[6\]
*430 mem\[1\]\[7\]
*431 mem\[2\]\[0\]
*432 mem\[2\]\[1\]
*433 mem\[2\]\[2\]
*434 mem\[2\]\[3\]
*435 mem\[2\]\[4\]
*436 mem\[2\]\[5\]
*437 mem\[2\]\[6\]
*438 mem\[2\]\[7\]
*439 mem\[3\]\[0\]
*440 mem\[3\]\[1\]
*441 mem\[3\]\[2\]
*442 mem\[3\]\[3\]
*443 mem\[3\]\[4\]
*444 mem\[3\]\[5\]
*445 mem\[3\]\[6\]
*446 mem\[3\]\[7\]
*447 mem\[4\]\[0\]
*448 mem\[4\]\[1\]
*449 mem\[4\]\[2\]
*450 mem\[4\]\[3\]
*451 mem\[4\]\[4\]
*452 mem\[4\]\[5\]
*453 mem\[4\]\[6\]
*454 mem\[4\]\[7\]
*455 mem\[5\]\[0\]
*456 mem\[5\]\[1\]
*457 mem\[5\]\[2\]
*458 mem\[5\]\[3\]
*459 mem\[5\]\[4\]
*460 mem\[5\]\[5\]
*461 mem\[5\]\[6\]
*462 mem\[5\]\[7\]
*463 mem\[6\]\[0\]
*464 mem\[6\]\[1\]
*465 mem\[6\]\[2\]
*466 mem\[6\]\[3\]
*467 mem\[6\]\[4\]
*468 mem\[6\]\[5\]
*469 mem\[6\]\[6\]
*470 mem\[6\]\[7\]
*471 mem\[7\]\[0\]
*472 mem\[7\]\[1\]
*473 mem\[7\]\[2\]
*474 mem\[7\]\[3\]
*475 mem\[7\]\[4\]
*476 mem\[7\]\[5\]
*477 mem\[7\]\[6\]
*478 mem\[7\]\[7\]
*479 mem\[8\]\[0\]
*480 mem\[8\]\[1\]
*481 mem\[8\]\[2\]
*482 mem\[8\]\[3\]
*483 mem\[8\]\[4\]
*484 mem\[8\]\[5\]
*485 mem\[8\]\[6\]
*486 mem\[8\]\[7\]
*487 mem\[9\]\[0\]
*488 mem\[9\]\[1\]
*489 mem\[9\]\[2\]
*490 mem\[9\]\[3\]
*491 mem\[9\]\[4\]
*492 mem\[9\]\[5\]
*493 mem\[9\]\[6\]
*494 mem\[9\]\[7\]
*495 net1
*496 net10
*497 net100
*498 net101
*499 net102
*500 net103
*501 net104
*502 net105
*503 net106
*504 net107
*505 net108
*506 net109
*507 net11
*508 net110
*509 net111
*510 net112
*511 net113
*512 net114
*513 net115
*514 net116
*515 net117
*516 net118
*517 net119
*518 net12
*519 net120
*520 net121
*521 net122
*522 net123
*523 net124
*524 net125
*525 net126
*526 net127
*527 net128
*528 net129
*529 net13
*530 net130
*531 net131
*532 net132
*533 net133
*534 net134
*535 net135
*536 net136
*537 net137
*538 net138
*539 net139
*540 net14
*541 net140
*542 net141
*543 net142
*544 net143
*545 net144
*546 net145
*547 net146
*548 net147
*549 net148
*550 net149
*551 net15
*552 net150
*553 net151
*554 net152
*555 net153
*556 net154
*557 net155
*558 net156
*559 net157
*560 net158
*561 net159
*562 net16
*563 net160
*564 net161
*565 net162
*566 net163
*567 net164
*568 net165
*569 net166
*570 net167
*571 net168
*572 net169
*573 net17
*574 net170
*575 net171
*576 net172
*577 net173
*578 net174
*579 net175
*580 net176
*581 net177
*582 net178
*583 net179
*584 net18
*585 net180
*586 net181
*587 net182
*588 net183
*589 net184
*590 net185
*591 net186
*592 net187
*593 net188
*594 net189
*595 net19
*596 net190
*597 net191
*598 net192
*599 net193
*600 net194
*601 net195
*602 net196
*603 net197
*604 net198
*605 net199
*606 net2
*607 net20
*608 net200
*609 net201
*610 net202
*611 net203
*612 net204
*613 net205
*614 net206
*615 net207
*616 net208
*617 net209
*618 net21
*619 net22
*620 net23
*621 net24
*622 net25
*623 net26
*624 net27
*625 net28
*626 net29
*627 net3
*628 net30
*629 net31
*630 net32
*631 net33
*632 net34
*633 net35
*634 net36
*635 net37
*636 net38
*637 net39
*638 net4
*639 net40
*640 net41
*641 net42
*642 net43
*643 net44
*644 net45
*645 net46
*646 net47
*647 net48
*648 net49
*649 net5
*650 net50
*651 net51
*652 net52
*653 net53
*654 net54
*655 net55
*656 net56
*657 net57
*658 net58
*659 net59
*660 net6
*661 net60
*662 net61
*663 net62
*664 net63
*665 net64
*666 net65
*667 net66
*668 net67
*669 net68
*670 net69
*671 net7
*672 net70
*673 net71
*674 net72
*675 net73
*676 net74
*677 net75
*678 net76
*679 net77
*680 net78
*681 net79
*682 net8
*683 net80
*684 net81
*685 net82
*686 net83
*687 net84
*688 net85
*689 net86
*690 net87
*691 net88
*692 net89
*693 net9
*694 net90
*695 net91
*696 net92
*697 net93
*698 net94
*699 net95
*700 net96
*701 net97
*702 net98
*703 net99
*704 rd_bin\[0\]
*705 rd_bin\[1\]
*706 rd_bin\[2\]
*707 rd_bin\[3\]
*708 rd_bin\[4\]
*709 rd_bin_next\[0\]
*710 rd_bin_next\[1\]
*711 rd_bin_next\[2\]
*712 rd_bin_next\[3\]
*713 rd_bin_next\[4\]
*714 rd_bin_sync\[4\]
*715 rd_gray\[0\]
*716 rd_gray\[1\]
*717 rd_gray\[2\]
*718 rd_gray\[3\]
*719 rd_gray_next\[0\]
*720 rd_gray_next\[1\]
*721 rd_gray_next\[2\]
*722 rd_gray_next\[3\]
*723 rd_gray_sync1\[0\]
*724 rd_gray_sync1\[1\]
*725 rd_gray_sync1\[2\]
*726 rd_gray_sync1\[3\]
*727 rd_gray_sync1\[4\]
*728 rd_gray_sync2\[3\]
*729 wr_bin\[0\]
*730 wr_bin\[1\]
*731 wr_bin\[2\]
*732 wr_bin\[3\]
*733 wr_bin\[4\]
*734 wr_bin_next\[0\]
*735 wr_bin_next\[1\]
*736 wr_bin_next\[2\]
*737 wr_bin_next\[3\]
*738 wr_bin_next\[4\]
*739 wr_bin_sync\[4\]
*740 wr_gray\[0\]
*741 wr_gray\[1\]
*742 wr_gray\[2\]
*743 wr_gray\[3\]
*744 wr_gray_next\[0\]
*745 wr_gray_next\[1\]
*746 wr_gray_next\[2\]
*747 wr_gray_next\[3\]
*748 wr_gray_sync1\[0\]
*749 wr_gray_sync1\[1\]
*750 wr_gray_sync1\[2\]
*751 wr_gray_sync1\[3\]
*752 wr_gray_sync1\[4\]
*753 wr_gray_sync2\[0\]
*754 wr_gray_sync2\[1\]
*755 wr_gray_sync2\[2\]
*756 wr_gray_sync2\[3\]
*757 FILLER_0_109
*758 FILLER_0_113
*759 FILLER_0_121
*760 FILLER_0_126
*761 FILLER_0_138
*762 FILLER_0_141
*763 FILLER_0_15
*764 FILLER_0_153
*765 FILLER_0_161
*766 FILLER_0_169
*767 FILLER_0_174
*768 FILLER_0_186
*769 FILLER_0_194
*770 FILLER_0_197
*771 FILLER_0_209
*772 FILLER_0_221
*773 FILLER_0_225
*774 FILLER_0_23
*775 FILLER_0_237
*776 FILLER_0_249
*777 FILLER_0_253
*778 FILLER_0_265
*779 FILLER_0_27
*780 FILLER_0_277
*781 FILLER_0_281
*782 FILLER_0_29
*783 FILLER_0_293
*784 FILLER_0_3
*785 FILLER_0_301
*786 FILLER_0_41
*787 FILLER_0_53
*788 FILLER_0_57
*789 FILLER_0_65
*790 FILLER_0_69
*791 FILLER_0_81
*792 FILLER_0_85
*793 FILLER_0_97
*794 FILLER_10_116
*795 FILLER_10_128
*796 FILLER_10_161
*797 FILLER_10_169
*798 FILLER_10_179
*799 FILLER_10_191
*800 FILLER_10_195
*801 FILLER_10_205
*802 FILLER_10_217
*803 FILLER_10_229
*804 FILLER_10_24
*805 FILLER_10_241
*806 FILLER_10_249
*807 FILLER_10_253
*808 FILLER_10_265
*809 FILLER_10_282
*810 FILLER_10_294
*811 FILLER_10_298
*812 FILLER_10_3
*813 FILLER_10_45
*814 FILLER_10_56
*815 FILLER_10_64
*816 FILLER_10_75
*817 FILLER_10_83
*818 FILLER_10_85
*819 FILLER_10_93
*820 FILLER_11_106
*821 FILLER_11_149
*822 FILLER_11_193
*823 FILLER_11_205
*824 FILLER_11_217
*825 FILLER_11_22
*826 FILLER_11_223
*827 FILLER_11_225
*828 FILLER_11_237
*829 FILLER_11_249
*830 FILLER_11_273
*831 FILLER_11_288
*832 FILLER_11_296
*833 FILLER_11_3
*834 FILLER_11_57
*835 FILLER_11_61
*836 FILLER_11_71
*837 FILLER_12_137
*838 FILLER_12_141
*839 FILLER_12_145
*840 FILLER_12_155
*841 FILLER_12_170
*842 FILLER_12_191
*843 FILLER_12_195
*844 FILLER_12_218
*845 FILLER_12_230
*846 FILLER_12_242
*847 FILLER_12_25
*848 FILLER_12_250
*849 FILLER_12_266
*850 FILLER_12_293
*851 FILLER_12_3
*852 FILLER_12_45
*853 FILLER_12_51
*854 FILLER_12_93
*855 FILLER_13_113
*856 FILLER_13_15
*857 FILLER_13_162
*858 FILLER_13_190
*859 FILLER_13_203
*860 FILLER_13_245
*861 FILLER_13_256
*862 FILLER_13_26
*863 FILLER_13_268
*864 FILLER_13_285
*865 FILLER_13_297
*866 FILLER_13_3
*867 FILLER_13_30
*868 FILLER_13_95
*869 FILLER_14_115
*870 FILLER_14_121
*871 FILLER_14_138
*872 FILLER_14_141
*873 FILLER_14_15
*874 FILLER_14_222
*875 FILLER_14_226
*876 FILLER_14_247
*877 FILLER_14_251
*878 FILLER_14_253
*879 FILLER_14_265
*880 FILLER_14_27
*881 FILLER_14_271
*882 FILLER_14_275
*883 FILLER_14_298
*884 FILLER_14_3
*885 FILLER_14_37
*886 FILLER_14_48
*887 FILLER_14_79
*888 FILLER_14_83
*889 FILLER_14_85
*890 FILLER_14_93
*891 FILLER_15_103
*892 FILLER_15_124
*893 FILLER_15_136
*894 FILLER_15_148
*895 FILLER_15_15
*896 FILLER_15_169
*897 FILLER_15_175
*898 FILLER_15_219
*899 FILLER_15_223
*900 FILLER_15_225
*901 FILLER_15_240
*902 FILLER_15_252
*903 FILLER_15_258
*904 FILLER_15_267
*905 FILLER_15_279
*906 FILLER_15_288
*907 FILLER_15_3
*908 FILLER_15_34
*909 FILLER_15_38
*910 FILLER_15_53
*911 FILLER_15_57
*912 FILLER_15_61
*913 FILLER_15_79
*914 FILLER_15_91
*915 FILLER_16_103
*916 FILLER_16_111
*917 FILLER_16_125
*918 FILLER_16_137
*919 FILLER_16_141
*920 FILLER_16_153
*921 FILLER_16_184
*922 FILLER_16_21
*923 FILLER_16_213
*924 FILLER_16_221
*925 FILLER_16_244
*926 FILLER_16_253
*927 FILLER_16_265
*928 FILLER_16_27
*929 FILLER_16_3
*930 FILLER_16_300
*931 FILLER_16_56
*932 FILLER_16_64
*933 FILLER_16_73
*934 FILLER_16_81
*935 FILLER_16_85
*936 FILLER_16_97
*937 FILLER_17_138
*938 FILLER_17_150
*939 FILLER_17_162
*940 FILLER_17_169
*941 FILLER_17_182
*942 FILLER_17_21
*943 FILLER_17_217
*944 FILLER_17_223
*945 FILLER_17_225
*946 FILLER_17_246
*947 FILLER_17_250
*948 FILLER_17_264
*949 FILLER_17_272
*950 FILLER_17_3
*951 FILLER_17_54
*952 FILLER_18_137
*953 FILLER_18_141
*954 FILLER_18_153
*955 FILLER_18_165
*956 FILLER_18_177
*957 FILLER_18_189
*958 FILLER_18_195
*959 FILLER_18_205
*960 FILLER_18_21
*961 FILLER_18_213
*962 FILLER_18_234
*963 FILLER_18_246
*964 FILLER_18_253
*965 FILLER_18_265
*966 FILLER_18_27
*967 FILLER_18_271
*968 FILLER_18_3
*969 FILLER_18_94
*970 FILLER_19_101
*971 FILLER_19_113
*972 FILLER_19_148
*973 FILLER_19_160
*974 FILLER_19_169
*975 FILLER_19_181
*976 FILLER_19_193
*977 FILLER_19_205
*978 FILLER_19_217
*979 FILLER_19_223
*980 FILLER_19_252
*981 FILLER_19_271
*982 FILLER_19_279
*983 FILLER_19_281
*984 FILLER_19_293
*985 FILLER_19_3
*986 FILLER_19_35
*987 FILLER_19_46
*988 FILLER_19_57
*989 FILLER_19_9
*990 FILLER_19_93
*991 FILLER_1_105
*992 FILLER_1_111
*993 FILLER_1_113
*994 FILLER_1_140
*995 FILLER_1_15
*996 FILLER_1_152
*997 FILLER_1_164
*998 FILLER_1_178
*999 FILLER_1_191
*1000 FILLER_1_203
*1001 FILLER_1_215
*1002 FILLER_1_223
*1003 FILLER_1_225
*1004 FILLER_1_237
*1005 FILLER_1_249
*1006 FILLER_1_261
*1007 FILLER_1_27
*1008 FILLER_1_273
*1009 FILLER_1_279
*1010 FILLER_1_281
*1011 FILLER_1_293
*1012 FILLER_1_3
*1013 FILLER_1_301
*1014 FILLER_1_39
*1015 FILLER_1_57
*1016 FILLER_1_69
*1017 FILLER_1_81
*1018 FILLER_1_93
*1019 FILLER_20_105
*1020 FILLER_20_109
*1021 FILLER_20_118
*1022 FILLER_20_138
*1023 FILLER_20_149
*1024 FILLER_20_167
*1025 FILLER_20_178
*1026 FILLER_20_190
*1027 FILLER_20_213
*1028 FILLER_20_22
*1029 FILLER_20_225
*1030 FILLER_20_239
*1031 FILLER_20_251
*1032 FILLER_20_253
*1033 FILLER_20_265
*1034 FILLER_20_277
*1035 FILLER_20_288
*1036 FILLER_20_29
*1037 FILLER_20_296
*1038 FILLER_20_42
*1039 FILLER_20_48
*1040 FILLER_20_65
*1041 FILLER_20_7
*1042 FILLER_20_82
*1043 FILLER_20_85
*1044 FILLER_20_93
*1045 FILLER_21_113
*1046 FILLER_21_121
*1047 FILLER_21_166
*1048 FILLER_21_178
*1049 FILLER_21_21
*1050 FILLER_21_222
*1051 FILLER_21_225
*1052 FILLER_21_237
*1053 FILLER_21_249
*1054 FILLER_21_261
*1055 FILLER_21_270
*1056 FILLER_21_279
*1057 FILLER_21_294
*1058 FILLER_21_298
*1059 FILLER_21_3
*1060 FILLER_21_51
*1061 FILLER_21_55
*1062 FILLER_21_57
*1063 FILLER_21_66
*1064 FILLER_21_82
*1065 FILLER_21_90
*1066 FILLER_22_109
*1067 FILLER_22_121
*1068 FILLER_22_129
*1069 FILLER_22_21
*1070 FILLER_22_217
*1071 FILLER_22_244
*1072 FILLER_22_253
*1073 FILLER_22_268
*1074 FILLER_22_27
*1075 FILLER_22_293
*1076 FILLER_22_301
*1077 FILLER_22_50
*1078 FILLER_22_6
*1079 FILLER_22_67
*1080 FILLER_22_79
*1081 FILLER_22_83
*1082 FILLER_22_85
*1083 FILLER_22_97
*1084 FILLER_23_108
*1085 FILLER_23_121
*1086 FILLER_23_133
*1087 FILLER_23_153
*1088 FILLER_23_165
*1089 FILLER_23_216
*1090 FILLER_23_220
*1091 FILLER_23_243
*1092 FILLER_23_25
*1093 FILLER_23_251
*1094 FILLER_23_260
*1095 FILLER_23_272
*1096 FILLER_23_281
*1097 FILLER_23_293
*1098 FILLER_23_3
*1099 FILLER_23_301
*1100 FILLER_23_51
*1101 FILLER_23_55
*1102 FILLER_23_84
*1103 FILLER_23_96
*1104 FILLER_24_109
*1105 FILLER_24_119
*1106 FILLER_24_129
*1107 FILLER_24_137
*1108 FILLER_24_141
*1109 FILLER_24_15
*1110 FILLER_24_179
*1111 FILLER_24_187
*1112 FILLER_24_214
*1113 FILLER_24_226
*1114 FILLER_24_253
*1115 FILLER_24_258
*1116 FILLER_24_27
*1117 FILLER_24_270
*1118 FILLER_24_282
*1119 FILLER_24_29
*1120 FILLER_24_296
*1121 FILLER_24_3
*1122 FILLER_24_45
*1123 FILLER_24_83
*1124 FILLER_24_85
*1125 FILLER_24_94
*1126 FILLER_25_110
*1127 FILLER_25_137
*1128 FILLER_25_15
*1129 FILLER_25_169
*1130 FILLER_25_181
*1131 FILLER_25_193
*1132 FILLER_25_221
*1133 FILLER_25_225
*1134 FILLER_25_233
*1135 FILLER_25_247
*1136 FILLER_25_255
*1137 FILLER_25_27
*1138 FILLER_25_270
*1139 FILLER_25_278
*1140 FILLER_25_281
*1141 FILLER_25_3
*1142 FILLER_25_39
*1143 FILLER_25_47
*1144 FILLER_25_57
*1145 FILLER_26_134
*1146 FILLER_26_141
*1147 FILLER_26_156
*1148 FILLER_26_168
*1149 FILLER_26_180
*1150 FILLER_26_186
*1151 FILLER_26_197
*1152 FILLER_26_20
*1153 FILLER_26_203
*1154 FILLER_26_224
*1155 FILLER_26_232
*1156 FILLER_26_242
*1157 FILLER_26_250
*1158 FILLER_26_279
*1159 FILLER_26_3
*1160 FILLER_26_301
*1161 FILLER_26_45
*1162 FILLER_26_53
*1163 FILLER_26_79
*1164 FILLER_26_83
*1165 FILLER_26_85
*1166 FILLER_27_129
*1167 FILLER_27_165
*1168 FILLER_27_169
*1169 FILLER_27_181
*1170 FILLER_27_198
*1171 FILLER_27_210
*1172 FILLER_27_222
*1173 FILLER_27_225
*1174 FILLER_27_229
*1175 FILLER_27_250
*1176 FILLER_27_262
*1177 FILLER_27_279
*1178 FILLER_27_29
*1179 FILLER_27_3
*1180 FILLER_27_55
*1181 FILLER_27_57
*1182 FILLER_27_69
*1183 FILLER_27_87
*1184 FILLER_28_109
*1185 FILLER_28_123
*1186 FILLER_28_141
*1187 FILLER_28_145
*1188 FILLER_28_191
*1189 FILLER_28_195
*1190 FILLER_28_206
*1191 FILLER_28_25
*1192 FILLER_28_253
*1193 FILLER_28_264
*1194 FILLER_28_272
*1195 FILLER_28_281
*1196 FILLER_28_293
*1197 FILLER_28_3
*1198 FILLER_28_300
*1199 FILLER_28_58
*1200 FILLER_28_66
*1201 FILLER_28_77
*1202 FILLER_28_83
*1203 FILLER_28_85
*1204 FILLER_28_97
*1205 FILLER_29_102
*1206 FILLER_29_11
*1207 FILLER_29_110
*1208 FILLER_29_113
*1209 FILLER_29_125
*1210 FILLER_29_165
*1211 FILLER_29_169
*1212 FILLER_29_177
*1213 FILLER_29_225
*1214 FILLER_29_237
*1215 FILLER_29_249
*1216 FILLER_29_261
*1217 FILLER_29_273
*1218 FILLER_29_279
*1219 FILLER_29_281
*1220 FILLER_29_29
*1221 FILLER_29_293
*1222 FILLER_29_3
*1223 FILLER_29_49
*1224 FILLER_29_55
*1225 FILLER_29_57
*1226 FILLER_29_78
*1227 FILLER_29_90
*1228 FILLER_2_103
*1229 FILLER_2_120
*1230 FILLER_2_138
*1231 FILLER_2_149
*1232 FILLER_2_15
*1233 FILLER_2_161
*1234 FILLER_2_165
*1235 FILLER_2_191
*1236 FILLER_2_195
*1237 FILLER_2_197
*1238 FILLER_2_209
*1239 FILLER_2_221
*1240 FILLER_2_233
*1241 FILLER_2_245
*1242 FILLER_2_251
*1243 FILLER_2_253
*1244 FILLER_2_265
*1245 FILLER_2_27
*1246 FILLER_2_277
*1247 FILLER_2_289
*1248 FILLER_2_29
*1249 FILLER_2_3
*1250 FILLER_2_301
*1251 FILLER_2_65
*1252 FILLER_2_77
*1253 FILLER_2_83
*1254 FILLER_2_85
*1255 FILLER_2_97
*1256 FILLER_30_10
*1257 FILLER_30_110
*1258 FILLER_30_122
*1259 FILLER_30_134
*1260 FILLER_30_150
*1261 FILLER_30_154
*1262 FILLER_30_163
*1263 FILLER_30_190
*1264 FILLER_30_205
*1265 FILLER_30_22
*1266 FILLER_30_229
*1267 FILLER_30_253
*1268 FILLER_30_265
*1269 FILLER_30_29
*1270 FILLER_30_291
*1271 FILLER_30_299
*1272 FILLER_30_35
*1273 FILLER_30_45
*1274 FILLER_30_57
*1275 FILLER_30_85
*1276 FILLER_31_122
*1277 FILLER_31_134
*1278 FILLER_31_146
*1279 FILLER_31_155
*1280 FILLER_31_167
*1281 FILLER_31_169
*1282 FILLER_31_196
*1283 FILLER_31_219
*1284 FILLER_31_223
*1285 FILLER_31_225
*1286 FILLER_31_237
*1287 FILLER_31_261
*1288 FILLER_31_273
*1289 FILLER_31_279
*1290 FILLER_31_3
*1291 FILLER_31_30
*1292 FILLER_31_57
*1293 FILLER_32_101
*1294 FILLER_32_122
*1295 FILLER_32_134
*1296 FILLER_32_141
*1297 FILLER_32_153
*1298 FILLER_32_165
*1299 FILLER_32_194
*1300 FILLER_32_205
*1301 FILLER_32_217
*1302 FILLER_32_227
*1303 FILLER_32_239
*1304 FILLER_32_25
*1305 FILLER_32_251
*1306 FILLER_32_253
*1307 FILLER_32_265
*1308 FILLER_32_3
*1309 FILLER_32_300
*1310 FILLER_32_74
*1311 FILLER_32_85
*1312 FILLER_32_91
*1313 FILLER_33_104
*1314 FILLER_33_129
*1315 FILLER_33_15
*1316 FILLER_33_155
*1317 FILLER_33_167
*1318 FILLER_33_169
*1319 FILLER_33_181
*1320 FILLER_33_187
*1321 FILLER_33_197
*1322 FILLER_33_209
*1323 FILLER_33_221
*1324 FILLER_33_225
*1325 FILLER_33_237
*1326 FILLER_33_25
*1327 FILLER_33_259
*1328 FILLER_33_271
*1329 FILLER_33_278
*1330 FILLER_33_281
*1331 FILLER_33_29
*1332 FILLER_33_293
*1333 FILLER_33_3
*1334 FILLER_33_301
*1335 FILLER_33_55
*1336 FILLER_33_68
*1337 FILLER_33_85
*1338 FILLER_33_93
*1339 FILLER_34_101
*1340 FILLER_34_126
*1341 FILLER_34_130
*1342 FILLER_34_141
*1343 FILLER_34_15
*1344 FILLER_34_175
*1345 FILLER_34_188
*1346 FILLER_34_19
*1347 FILLER_34_217
*1348 FILLER_34_241
*1349 FILLER_34_253
*1350 FILLER_34_3
*1351 FILLER_34_301
*1352 FILLER_34_37
*1353 FILLER_34_43
*1354 FILLER_34_66
*1355 FILLER_34_72
*1356 FILLER_34_82
*1357 FILLER_34_85
*1358 FILLER_34_97
*1359 FILLER_35_11
*1360 FILLER_35_124
*1361 FILLER_35_165
*1362 FILLER_35_178
*1363 FILLER_35_197
*1364 FILLER_35_223
*1365 FILLER_35_225
*1366 FILLER_35_235
*1367 FILLER_35_270
*1368 FILLER_35_278
*1369 FILLER_35_281
*1370 FILLER_35_295
*1371 FILLER_35_3
*1372 FILLER_35_301
*1373 FILLER_35_47
*1374 FILLER_35_55
*1375 FILLER_35_57
*1376 FILLER_35_91
*1377 FILLER_36_141
*1378 FILLER_36_145
*1379 FILLER_36_180
*1380 FILLER_36_184
*1381 FILLER_36_206
*1382 FILLER_36_21
*1383 FILLER_36_210
*1384 FILLER_36_231
*1385 FILLER_36_243
*1386 FILLER_36_253
*1387 FILLER_36_27
*1388 FILLER_36_277
*1389 FILLER_36_289
*1390 FILLER_36_3
*1391 FILLER_36_301
*1392 FILLER_36_45
*1393 FILLER_36_49
*1394 FILLER_36_66
*1395 FILLER_36_94
*1396 FILLER_37_129
*1397 FILLER_37_141
*1398 FILLER_37_153
*1399 FILLER_37_159
*1400 FILLER_37_169
*1401 FILLER_37_208
*1402 FILLER_37_21
*1403 FILLER_37_220
*1404 FILLER_37_225
*1405 FILLER_37_237
*1406 FILLER_37_249
*1407 FILLER_37_25
*1408 FILLER_37_271
*1409 FILLER_37_279
*1410 FILLER_37_3
*1411 FILLER_37_301
*1412 FILLER_37_51
*1413 FILLER_37_55
*1414 FILLER_37_57
*1415 FILLER_38_11
*1416 FILLER_38_136
*1417 FILLER_38_141
*1418 FILLER_38_153
*1419 FILLER_38_165
*1420 FILLER_38_169
*1421 FILLER_38_195
*1422 FILLER_38_21
*1423 FILLER_38_211
*1424 FILLER_38_223
*1425 FILLER_38_231
*1426 FILLER_38_239
*1427 FILLER_38_247
*1428 FILLER_38_251
*1429 FILLER_38_253
*1430 FILLER_38_262
*1431 FILLER_38_27
*1432 FILLER_38_274
*1433 FILLER_38_280
*1434 FILLER_38_3
*1435 FILLER_38_301
*1436 FILLER_38_50
*1437 FILLER_38_80
*1438 FILLER_38_93
*1439 FILLER_39_101
*1440 FILLER_39_111
*1441 FILLER_39_113
*1442 FILLER_39_122
*1443 FILLER_39_134
*1444 FILLER_39_146
*1445 FILLER_39_15
*1446 FILLER_39_158
*1447 FILLER_39_166
*1448 FILLER_39_169
*1449 FILLER_39_181
*1450 FILLER_39_208
*1451 FILLER_39_216
*1452 FILLER_39_27
*1453 FILLER_39_278
*1454 FILLER_39_3
*1455 FILLER_39_35
*1456 FILLER_39_45
*1457 FILLER_39_53
*1458 FILLER_39_57
*1459 FILLER_39_69
*1460 FILLER_39_93
*1461 FILLER_3_138
*1462 FILLER_3_15
*1463 FILLER_3_150
*1464 FILLER_3_209
*1465 FILLER_3_221
*1466 FILLER_3_225
*1467 FILLER_3_237
*1468 FILLER_3_249
*1469 FILLER_3_261
*1470 FILLER_3_27
*1471 FILLER_3_273
*1472 FILLER_3_279
*1473 FILLER_3_281
*1474 FILLER_3_293
*1475 FILLER_3_3
*1476 FILLER_3_301
*1477 FILLER_3_35
*1478 FILLER_3_52
*1479 FILLER_3_66
*1480 FILLER_3_78
*1481 FILLER_3_90
*1482 FILLER_40_122
*1483 FILLER_40_134
*1484 FILLER_40_15
*1485 FILLER_40_162
*1486 FILLER_40_174
*1487 FILLER_40_187
*1488 FILLER_40_197
*1489 FILLER_40_224
*1490 FILLER_40_236
*1491 FILLER_40_248
*1492 FILLER_40_253
*1493 FILLER_40_259
*1494 FILLER_40_27
*1495 FILLER_40_273
*1496 FILLER_40_299
*1497 FILLER_40_3
*1498 FILLER_40_37
*1499 FILLER_40_49
*1500 FILLER_40_76
*1501 FILLER_40_85
*1502 FILLER_40_97
*1503 FILLER_41_145
*1504 FILLER_41_165
*1505 FILLER_41_169
*1506 FILLER_41_192
*1507 FILLER_41_204
*1508 FILLER_41_213
*1509 FILLER_41_222
*1510 FILLER_41_228
*1511 FILLER_41_253
*1512 FILLER_41_265
*1513 FILLER_41_277
*1514 FILLER_41_281
*1515 FILLER_41_297
*1516 FILLER_41_3
*1517 FILLER_41_30
*1518 FILLER_41_301
*1519 FILLER_41_43
*1520 FILLER_41_55
*1521 FILLER_41_73
*1522 FILLER_41_92
*1523 FILLER_42_129
*1524 FILLER_42_141
*1525 FILLER_42_163
*1526 FILLER_42_169
*1527 FILLER_42_195
*1528 FILLER_42_206
*1529 FILLER_42_21
*1530 FILLER_42_220
*1531 FILLER_42_224
*1532 FILLER_42_236
*1533 FILLER_42_248
*1534 FILLER_42_253
*1535 FILLER_42_265
*1536 FILLER_42_27
*1537 FILLER_42_277
*1538 FILLER_42_289
*1539 FILLER_42_3
*1540 FILLER_42_301
*1541 FILLER_42_50
*1542 FILLER_42_88
*1543 FILLER_43_101
*1544 FILLER_43_11
*1545 FILLER_43_122
*1546 FILLER_43_151
*1547 FILLER_43_162
*1548 FILLER_43_169
*1549 FILLER_43_173
*1550 FILLER_43_199
*1551 FILLER_43_211
*1552 FILLER_43_223
*1553 FILLER_43_246
*1554 FILLER_43_25
*1555 FILLER_43_265
*1556 FILLER_43_277
*1557 FILLER_43_281
*1558 FILLER_43_293
*1559 FILLER_43_3
*1560 FILLER_43_301
*1561 FILLER_43_52
*1562 FILLER_43_57
*1563 FILLER_43_68
*1564 FILLER_43_93
*1565 FILLER_44_105
*1566 FILLER_44_124
*1567 FILLER_44_141
*1568 FILLER_44_15
*1569 FILLER_44_171
*1570 FILLER_44_183
*1571 FILLER_44_195
*1572 FILLER_44_197
*1573 FILLER_44_209
*1574 FILLER_44_221
*1575 FILLER_44_233
*1576 FILLER_44_239
*1577 FILLER_44_243
*1578 FILLER_44_251
*1579 FILLER_44_260
*1580 FILLER_44_27
*1581 FILLER_44_271
*1582 FILLER_44_279
*1583 FILLER_44_3
*1584 FILLER_44_301
*1585 FILLER_44_53
*1586 FILLER_44_65
*1587 FILLER_44_80
*1588 FILLER_44_85
*1589 FILLER_44_97
*1590 FILLER_45_100
*1591 FILLER_45_122
*1592 FILLER_45_134
*1593 FILLER_45_140
*1594 FILLER_45_166
*1595 FILLER_45_169
*1596 FILLER_45_18
*1597 FILLER_45_184
*1598 FILLER_45_204
*1599 FILLER_45_216
*1600 FILLER_45_225
*1601 FILLER_45_233
*1602 FILLER_45_245
*1603 FILLER_45_257
*1604 FILLER_45_279
*1605 FILLER_45_281
*1606 FILLER_45_289
*1607 FILLER_45_293
*1608 FILLER_45_297
*1609 FILLER_45_30
*1610 FILLER_45_38
*1611 FILLER_45_47
*1612 FILLER_45_55
*1613 FILLER_45_57
*1614 FILLER_45_6
*1615 FILLER_45_63
*1616 FILLER_45_88
*1617 FILLER_46_103
*1618 FILLER_46_132
*1619 FILLER_46_15
*1620 FILLER_46_150
*1621 FILLER_46_162
*1622 FILLER_46_174
*1623 FILLER_46_195
*1624 FILLER_46_207
*1625 FILLER_46_213
*1626 FILLER_46_217
*1627 FILLER_46_221
*1628 FILLER_46_229
*1629 FILLER_46_247
*1630 FILLER_46_251
*1631 FILLER_46_267
*1632 FILLER_46_27
*1633 FILLER_46_279
*1634 FILLER_46_29
*1635 FILLER_46_291
*1636 FILLER_46_3
*1637 FILLER_46_41
*1638 FILLER_46_53
*1639 FILLER_46_65
*1640 FILLER_46_77
*1641 FILLER_46_83
*1642 FILLER_46_85
*1643 FILLER_46_97
*1644 FILLER_47_105
*1645 FILLER_47_111
*1646 FILLER_47_122
*1647 FILLER_47_128
*1648 FILLER_47_149
*1649 FILLER_47_15
*1650 FILLER_47_161
*1651 FILLER_47_167
*1652 FILLER_47_169
*1653 FILLER_47_215
*1654 FILLER_47_225
*1655 FILLER_47_252
*1656 FILLER_47_264
*1657 FILLER_47_27
*1658 FILLER_47_276
*1659 FILLER_47_281
*1660 FILLER_47_293
*1661 FILLER_47_3
*1662 FILLER_47_301
*1663 FILLER_47_39
*1664 FILLER_47_51
*1665 FILLER_47_55
*1666 FILLER_47_57
*1667 FILLER_47_69
*1668 FILLER_47_81
*1669 FILLER_47_93
*1670 FILLER_48_123
*1671 FILLER_48_135
*1672 FILLER_48_139
*1673 FILLER_48_141
*1674 FILLER_48_15
*1675 FILLER_48_153
*1676 FILLER_48_165
*1677 FILLER_48_177
*1678 FILLER_48_185
*1679 FILLER_48_195
*1680 FILLER_48_197
*1681 FILLER_48_219
*1682 FILLER_48_227
*1683 FILLER_48_253
*1684 FILLER_48_262
*1685 FILLER_48_27
*1686 FILLER_48_274
*1687 FILLER_48_286
*1688 FILLER_48_29
*1689 FILLER_48_298
*1690 FILLER_48_3
*1691 FILLER_48_41
*1692 FILLER_48_53
*1693 FILLER_48_65
*1694 FILLER_48_77
*1695 FILLER_48_83
*1696 FILLER_48_85
*1697 FILLER_48_97
*1698 FILLER_49_105
*1699 FILLER_49_111
*1700 FILLER_49_113
*1701 FILLER_49_125
*1702 FILLER_49_137
*1703 FILLER_49_149
*1704 FILLER_49_15
*1705 FILLER_49_161
*1706 FILLER_49_167
*1707 FILLER_49_169
*1708 FILLER_49_181
*1709 FILLER_49_193
*1710 FILLER_49_205
*1711 FILLER_49_215
*1712 FILLER_49_223
*1713 FILLER_49_225
*1714 FILLER_49_237
*1715 FILLER_49_249
*1716 FILLER_49_261
*1717 FILLER_49_27
*1718 FILLER_49_273
*1719 FILLER_49_279
*1720 FILLER_49_281
*1721 FILLER_49_293
*1722 FILLER_49_3
*1723 FILLER_49_301
*1724 FILLER_49_39
*1725 FILLER_49_51
*1726 FILLER_49_55
*1727 FILLER_49_57
*1728 FILLER_49_69
*1729 FILLER_49_81
*1730 FILLER_49_93
*1731 FILLER_4_119
*1732 FILLER_4_138
*1733 FILLER_4_141
*1734 FILLER_4_15
*1735 FILLER_4_153
*1736 FILLER_4_161
*1737 FILLER_4_171
*1738 FILLER_4_193
*1739 FILLER_4_197
*1740 FILLER_4_209
*1741 FILLER_4_221
*1742 FILLER_4_233
*1743 FILLER_4_245
*1744 FILLER_4_251
*1745 FILLER_4_253
*1746 FILLER_4_265
*1747 FILLER_4_27
*1748 FILLER_4_277
*1749 FILLER_4_289
*1750 FILLER_4_3
*1751 FILLER_4_301
*1752 FILLER_4_67
*1753 FILLER_4_79
*1754 FILLER_4_83
*1755 FILLER_4_85
*1756 FILLER_4_97
*1757 FILLER_50_109
*1758 FILLER_50_113
*1759 FILLER_50_125
*1760 FILLER_50_133
*1761 FILLER_50_139
*1762 FILLER_50_141
*1763 FILLER_50_147
*1764 FILLER_50_15
*1765 FILLER_50_153
*1766 FILLER_50_165
*1767 FILLER_50_169
*1768 FILLER_50_181
*1769 FILLER_50_193
*1770 FILLER_50_197
*1771 FILLER_50_209
*1772 FILLER_50_216
*1773 FILLER_50_225
*1774 FILLER_50_233
*1775 FILLER_50_237
*1776 FILLER_50_244
*1777 FILLER_50_251
*1778 FILLER_50_253
*1779 FILLER_50_261
*1780 FILLER_50_265
*1781 FILLER_50_27
*1782 FILLER_50_277
*1783 FILLER_50_281
*1784 FILLER_50_29
*1785 FILLER_50_293
*1786 FILLER_50_3
*1787 FILLER_50_301
*1788 FILLER_50_41
*1789 FILLER_50_53
*1790 FILLER_50_57
*1791 FILLER_50_69
*1792 FILLER_50_81
*1793 FILLER_50_85
*1794 FILLER_50_97
*1795 FILLER_5_102
*1796 FILLER_5_113
*1797 FILLER_5_125
*1798 FILLER_5_146
*1799 FILLER_5_15
*1800 FILLER_5_158
*1801 FILLER_5_166
*1802 FILLER_5_169
*1803 FILLER_5_187
*1804 FILLER_5_199
*1805 FILLER_5_211
*1806 FILLER_5_223
*1807 FILLER_5_225
*1808 FILLER_5_23
*1809 FILLER_5_237
*1810 FILLER_5_249
*1811 FILLER_5_261
*1812 FILLER_5_273
*1813 FILLER_5_279
*1814 FILLER_5_281
*1815 FILLER_5_293
*1816 FILLER_5_3
*1817 FILLER_5_301
*1818 FILLER_5_54
*1819 FILLER_5_65
*1820 FILLER_5_73
*1821 FILLER_5_90
*1822 FILLER_6_109
*1823 FILLER_6_126
*1824 FILLER_6_138
*1825 FILLER_6_15
*1826 FILLER_6_157
*1827 FILLER_6_165
*1828 FILLER_6_175
*1829 FILLER_6_187
*1830 FILLER_6_195
*1831 FILLER_6_206
*1832 FILLER_6_218
*1833 FILLER_6_230
*1834 FILLER_6_242
*1835 FILLER_6_250
*1836 FILLER_6_253
*1837 FILLER_6_265
*1838 FILLER_6_27
*1839 FILLER_6_277
*1840 FILLER_6_289
*1841 FILLER_6_3
*1842 FILLER_6_301
*1843 FILLER_6_53
*1844 FILLER_6_83
*1845 FILLER_7_101
*1846 FILLER_7_113
*1847 FILLER_7_126
*1848 FILLER_7_15
*1849 FILLER_7_165
*1850 FILLER_7_169
*1851 FILLER_7_193
*1852 FILLER_7_220
*1853 FILLER_7_225
*1854 FILLER_7_237
*1855 FILLER_7_249
*1856 FILLER_7_261
*1857 FILLER_7_27
*1858 FILLER_7_273
*1859 FILLER_7_279
*1860 FILLER_7_281
*1861 FILLER_7_293
*1862 FILLER_7_3
*1863 FILLER_7_301
*1864 FILLER_7_39
*1865 FILLER_7_51
*1866 FILLER_7_55
*1867 FILLER_7_57
*1868 FILLER_7_61
*1869 FILLER_8_103
*1870 FILLER_8_122
*1871 FILLER_8_132
*1872 FILLER_8_15
*1873 FILLER_8_157
*1874 FILLER_8_165
*1875 FILLER_8_193
*1876 FILLER_8_218
*1877 FILLER_8_230
*1878 FILLER_8_242
*1879 FILLER_8_250
*1880 FILLER_8_253
*1881 FILLER_8_265
*1882 FILLER_8_27
*1883 FILLER_8_277
*1884 FILLER_8_289
*1885 FILLER_8_29
*1886 FILLER_8_3
*1887 FILLER_8_301
*1888 FILLER_8_41
*1889 FILLER_8_49
*1890 FILLER_8_77
*1891 FILLER_8_83
*1892 FILLER_8_94
*1893 FILLER_9_108
*1894 FILLER_9_113
*1895 FILLER_9_122
*1896 FILLER_9_134
*1897 FILLER_9_140
*1898 FILLER_9_149
*1899 FILLER_9_15
*1900 FILLER_9_161
*1901 FILLER_9_167
*1902 FILLER_9_169
*1903 FILLER_9_173
*1904 FILLER_9_225
*1905 FILLER_9_237
*1906 FILLER_9_249
*1907 FILLER_9_261
*1908 FILLER_9_273
*1909 FILLER_9_279
*1910 FILLER_9_281
*1911 FILLER_9_29
*1912 FILLER_9_293
*1913 FILLER_9_3
*1914 FILLER_9_301
*1915 FILLER_9_41
*1916 FILLER_9_53
*1917 FILLER_9_57
*1918 FILLER_9_63
*1919 FILLER_9_67
*1920 FILLER_9_78
*1921 FILLER_9_90
*1922 FILLER_9_98
*1923 PHY_EDGE_ROW_0_Left_51
*1924 PHY_EDGE_ROW_0_Right_0
*1925 PHY_EDGE_ROW_10_Left_61
*1926 PHY_EDGE_ROW_10_Right_10
*1927 PHY_EDGE_ROW_11_Left_62
*1928 PHY_EDGE_ROW_11_Right_11
*1929 PHY_EDGE_ROW_12_Left_63
*1930 PHY_EDGE_ROW_12_Right_12
*1931 PHY_EDGE_ROW_13_Left_64
*1932 PHY_EDGE_ROW_13_Right_13
*1933 PHY_EDGE_ROW_14_Left_65
*1934 PHY_EDGE_ROW_14_Right_14
*1935 PHY_EDGE_ROW_15_Left_66
*1936 PHY_EDGE_ROW_15_Right_15
*1937 PHY_EDGE_ROW_16_Left_67
*1938 PHY_EDGE_ROW_16_Right_16
*1939 PHY_EDGE_ROW_17_Left_68
*1940 PHY_EDGE_ROW_17_Right_17
*1941 PHY_EDGE_ROW_18_Left_69
*1942 PHY_EDGE_ROW_18_Right_18
*1943 PHY_EDGE_ROW_19_Left_70
*1944 PHY_EDGE_ROW_19_Right_19
*1945 PHY_EDGE_ROW_1_Left_52
*1946 PHY_EDGE_ROW_1_Right_1
*1947 PHY_EDGE_ROW_20_Left_71
*1948 PHY_EDGE_ROW_20_Right_20
*1949 PHY_EDGE_ROW_21_Left_72
*1950 PHY_EDGE_ROW_21_Right_21
*1951 PHY_EDGE_ROW_22_Left_73
*1952 PHY_EDGE_ROW_22_Right_22
*1953 PHY_EDGE_ROW_23_Left_74
*1954 PHY_EDGE_ROW_23_Right_23
*1955 PHY_EDGE_ROW_24_Left_75
*1956 PHY_EDGE_ROW_24_Right_24
*1957 PHY_EDGE_ROW_25_Left_76
*1958 PHY_EDGE_ROW_25_Right_25
*1959 PHY_EDGE_ROW_26_Left_77
*1960 PHY_EDGE_ROW_26_Right_26
*1961 PHY_EDGE_ROW_27_Left_78
*1962 PHY_EDGE_ROW_27_Right_27
*1963 PHY_EDGE_ROW_28_Left_79
*1964 PHY_EDGE_ROW_28_Right_28
*1965 PHY_EDGE_ROW_29_Left_80
*1966 PHY_EDGE_ROW_29_Right_29
*1967 PHY_EDGE_ROW_2_Left_53
*1968 PHY_EDGE_ROW_2_Right_2
*1969 PHY_EDGE_ROW_30_Left_81
*1970 PHY_EDGE_ROW_30_Right_30
*1971 PHY_EDGE_ROW_31_Left_82
*1972 PHY_EDGE_ROW_31_Right_31
*1973 PHY_EDGE_ROW_32_Left_83
*1974 PHY_EDGE_ROW_32_Right_32
*1975 PHY_EDGE_ROW_33_Left_84
*1976 PHY_EDGE_ROW_33_Right_33
*1977 PHY_EDGE_ROW_34_Left_85
*1978 PHY_EDGE_ROW_34_Right_34
*1979 PHY_EDGE_ROW_35_Left_86
*1980 PHY_EDGE_ROW_35_Right_35
*1981 PHY_EDGE_ROW_36_Left_87
*1982 PHY_EDGE_ROW_36_Right_36
*1983 PHY_EDGE_ROW_37_Left_88
*1984 PHY_EDGE_ROW_37_Right_37
*1985 PHY_EDGE_ROW_38_Left_89
*1986 PHY_EDGE_ROW_38_Right_38
*1987 PHY_EDGE_ROW_39_Left_90
*1988 PHY_EDGE_ROW_39_Right_39
*1989 PHY_EDGE_ROW_3_Left_54
*1990 PHY_EDGE_ROW_3_Right_3
*1991 PHY_EDGE_ROW_40_Left_91
*1992 PHY_EDGE_ROW_40_Right_40
*1993 PHY_EDGE_ROW_41_Left_92
*1994 PHY_EDGE_ROW_41_Right_41
*1995 PHY_EDGE_ROW_42_Left_93
*1996 PHY_EDGE_ROW_42_Right_42
*1997 PHY_EDGE_ROW_43_Left_94
*1998 PHY_EDGE_ROW_43_Right_43
*1999 PHY_EDGE_ROW_44_Left_95
*2000 PHY_EDGE_ROW_44_Right_44
*2001 PHY_EDGE_ROW_45_Left_96
*2002 PHY_EDGE_ROW_45_Right_45
*2003 PHY_EDGE_ROW_46_Left_97
*2004 PHY_EDGE_ROW_46_Right_46
*2005 PHY_EDGE_ROW_47_Left_98
*2006 PHY_EDGE_ROW_47_Right_47
*2007 PHY_EDGE_ROW_48_Left_99
*2008 PHY_EDGE_ROW_48_Right_48
*2009 PHY_EDGE_ROW_49_Left_100
*2010 PHY_EDGE_ROW_49_Right_49
*2011 PHY_EDGE_ROW_4_Left_55
*2012 PHY_EDGE_ROW_4_Right_4
*2013 PHY_EDGE_ROW_50_Left_101
*2014 PHY_EDGE_ROW_50_Right_50
*2015 PHY_EDGE_ROW_5_Left_56
*2016 PHY_EDGE_ROW_5_Right_5
*2017 PHY_EDGE_ROW_6_Left_57
*2018 PHY_EDGE_ROW_6_Right_6
*2019 PHY_EDGE_ROW_7_Left_58
*2020 PHY_EDGE_ROW_7_Right_7
*2021 PHY_EDGE_ROW_8_Left_59
*2022 PHY_EDGE_ROW_8_Right_8
*2023 PHY_EDGE_ROW_9_Left_60
*2024 PHY_EDGE_ROW_9_Right_9
*2025 TAP_TAPCELL_ROW_0_102
*2026 TAP_TAPCELL_ROW_0_103
*2027 TAP_TAPCELL_ROW_0_104
*2028 TAP_TAPCELL_ROW_0_105
*2029 TAP_TAPCELL_ROW_0_106
*2030 TAP_TAPCELL_ROW_0_107
*2031 TAP_TAPCELL_ROW_0_108
*2032 TAP_TAPCELL_ROW_0_109
*2033 TAP_TAPCELL_ROW_0_110
*2034 TAP_TAPCELL_ROW_0_111
*2035 TAP_TAPCELL_ROW_10_157
*2036 TAP_TAPCELL_ROW_10_158
*2037 TAP_TAPCELL_ROW_10_159
*2038 TAP_TAPCELL_ROW_10_160
*2039 TAP_TAPCELL_ROW_10_161
*2040 TAP_TAPCELL_ROW_11_162
*2041 TAP_TAPCELL_ROW_11_163
*2042 TAP_TAPCELL_ROW_11_164
*2043 TAP_TAPCELL_ROW_11_165
*2044 TAP_TAPCELL_ROW_11_166
*2045 TAP_TAPCELL_ROW_12_167
*2046 TAP_TAPCELL_ROW_12_168
*2047 TAP_TAPCELL_ROW_12_169
*2048 TAP_TAPCELL_ROW_12_170
*2049 TAP_TAPCELL_ROW_12_171
*2050 TAP_TAPCELL_ROW_13_172
*2051 TAP_TAPCELL_ROW_13_173
*2052 TAP_TAPCELL_ROW_13_174
*2053 TAP_TAPCELL_ROW_13_175
*2054 TAP_TAPCELL_ROW_13_176
*2055 TAP_TAPCELL_ROW_14_177
*2056 TAP_TAPCELL_ROW_14_178
*2057 TAP_TAPCELL_ROW_14_179
*2058 TAP_TAPCELL_ROW_14_180
*2059 TAP_TAPCELL_ROW_14_181
*2060 TAP_TAPCELL_ROW_15_182
*2061 TAP_TAPCELL_ROW_15_183
*2062 TAP_TAPCELL_ROW_15_184
*2063 TAP_TAPCELL_ROW_15_185
*2064 TAP_TAPCELL_ROW_15_186
*2065 TAP_TAPCELL_ROW_16_187
*2066 TAP_TAPCELL_ROW_16_188
*2067 TAP_TAPCELL_ROW_16_189
*2068 TAP_TAPCELL_ROW_16_190
*2069 TAP_TAPCELL_ROW_16_191
*2070 TAP_TAPCELL_ROW_17_192
*2071 TAP_TAPCELL_ROW_17_193
*2072 TAP_TAPCELL_ROW_17_194
*2073 TAP_TAPCELL_ROW_17_195
*2074 TAP_TAPCELL_ROW_17_196
*2075 TAP_TAPCELL_ROW_18_197
*2076 TAP_TAPCELL_ROW_18_198
*2077 TAP_TAPCELL_ROW_18_199
*2078 TAP_TAPCELL_ROW_18_200
*2079 TAP_TAPCELL_ROW_18_201
*2080 TAP_TAPCELL_ROW_19_202
*2081 TAP_TAPCELL_ROW_19_203
*2082 TAP_TAPCELL_ROW_19_204
*2083 TAP_TAPCELL_ROW_19_205
*2084 TAP_TAPCELL_ROW_19_206
*2085 TAP_TAPCELL_ROW_1_112
*2086 TAP_TAPCELL_ROW_1_113
*2087 TAP_TAPCELL_ROW_1_114
*2088 TAP_TAPCELL_ROW_1_115
*2089 TAP_TAPCELL_ROW_1_116
*2090 TAP_TAPCELL_ROW_20_207
*2091 TAP_TAPCELL_ROW_20_208
*2092 TAP_TAPCELL_ROW_20_209
*2093 TAP_TAPCELL_ROW_20_210
*2094 TAP_TAPCELL_ROW_20_211
*2095 TAP_TAPCELL_ROW_21_212
*2096 TAP_TAPCELL_ROW_21_213
*2097 TAP_TAPCELL_ROW_21_214
*2098 TAP_TAPCELL_ROW_21_215
*2099 TAP_TAPCELL_ROW_21_216
*2100 TAP_TAPCELL_ROW_22_217
*2101 TAP_TAPCELL_ROW_22_218
*2102 TAP_TAPCELL_ROW_22_219
*2103 TAP_TAPCELL_ROW_22_220
*2104 TAP_TAPCELL_ROW_22_221
*2105 TAP_TAPCELL_ROW_23_222
*2106 TAP_TAPCELL_ROW_23_223
*2107 TAP_TAPCELL_ROW_23_224
*2108 TAP_TAPCELL_ROW_23_225
*2109 TAP_TAPCELL_ROW_23_226
*2110 TAP_TAPCELL_ROW_24_227
*2111 TAP_TAPCELL_ROW_24_228
*2112 TAP_TAPCELL_ROW_24_229
*2113 TAP_TAPCELL_ROW_24_230
*2114 TAP_TAPCELL_ROW_24_231
*2115 TAP_TAPCELL_ROW_25_232
*2116 TAP_TAPCELL_ROW_25_233
*2117 TAP_TAPCELL_ROW_25_234
*2118 TAP_TAPCELL_ROW_25_235
*2119 TAP_TAPCELL_ROW_25_236
*2120 TAP_TAPCELL_ROW_26_237
*2121 TAP_TAPCELL_ROW_26_238
*2122 TAP_TAPCELL_ROW_26_239
*2123 TAP_TAPCELL_ROW_26_240
*2124 TAP_TAPCELL_ROW_26_241
*2125 TAP_TAPCELL_ROW_27_242
*2126 TAP_TAPCELL_ROW_27_243
*2127 TAP_TAPCELL_ROW_27_244
*2128 TAP_TAPCELL_ROW_27_245
*2129 TAP_TAPCELL_ROW_27_246
*2130 TAP_TAPCELL_ROW_28_247
*2131 TAP_TAPCELL_ROW_28_248
*2132 TAP_TAPCELL_ROW_28_249
*2133 TAP_TAPCELL_ROW_28_250
*2134 TAP_TAPCELL_ROW_28_251
*2135 TAP_TAPCELL_ROW_29_252
*2136 TAP_TAPCELL_ROW_29_253
*2137 TAP_TAPCELL_ROW_29_254
*2138 TAP_TAPCELL_ROW_29_255
*2139 TAP_TAPCELL_ROW_29_256
*2140 TAP_TAPCELL_ROW_2_117
*2141 TAP_TAPCELL_ROW_2_118
*2142 TAP_TAPCELL_ROW_2_119
*2143 TAP_TAPCELL_ROW_2_120
*2144 TAP_TAPCELL_ROW_2_121
*2145 TAP_TAPCELL_ROW_30_257
*2146 TAP_TAPCELL_ROW_30_258
*2147 TAP_TAPCELL_ROW_30_259
*2148 TAP_TAPCELL_ROW_30_260
*2149 TAP_TAPCELL_ROW_30_261
*2150 TAP_TAPCELL_ROW_31_262
*2151 TAP_TAPCELL_ROW_31_263
*2152 TAP_TAPCELL_ROW_31_264
*2153 TAP_TAPCELL_ROW_31_265
*2154 TAP_TAPCELL_ROW_31_266
*2155 TAP_TAPCELL_ROW_32_267
*2156 TAP_TAPCELL_ROW_32_268
*2157 TAP_TAPCELL_ROW_32_269
*2158 TAP_TAPCELL_ROW_32_270
*2159 TAP_TAPCELL_ROW_32_271
*2160 TAP_TAPCELL_ROW_33_272
*2161 TAP_TAPCELL_ROW_33_273
*2162 TAP_TAPCELL_ROW_33_274
*2163 TAP_TAPCELL_ROW_33_275
*2164 TAP_TAPCELL_ROW_33_276
*2165 TAP_TAPCELL_ROW_34_277
*2166 TAP_TAPCELL_ROW_34_278
*2167 TAP_TAPCELL_ROW_34_279
*2168 TAP_TAPCELL_ROW_34_280
*2169 TAP_TAPCELL_ROW_34_281
*2170 TAP_TAPCELL_ROW_35_282
*2171 TAP_TAPCELL_ROW_35_283
*2172 TAP_TAPCELL_ROW_35_284
*2173 TAP_TAPCELL_ROW_35_285
*2174 TAP_TAPCELL_ROW_35_286
*2175 TAP_TAPCELL_ROW_36_287
*2176 TAP_TAPCELL_ROW_36_288
*2177 TAP_TAPCELL_ROW_36_289
*2178 TAP_TAPCELL_ROW_36_290
*2179 TAP_TAPCELL_ROW_36_291
*2180 TAP_TAPCELL_ROW_37_292
*2181 TAP_TAPCELL_ROW_37_293
*2182 TAP_TAPCELL_ROW_37_294
*2183 TAP_TAPCELL_ROW_37_295
*2184 TAP_TAPCELL_ROW_37_296
*2185 TAP_TAPCELL_ROW_38_297
*2186 TAP_TAPCELL_ROW_38_298
*2187 TAP_TAPCELL_ROW_38_299
*2188 TAP_TAPCELL_ROW_38_300
*2189 TAP_TAPCELL_ROW_38_301
*2190 TAP_TAPCELL_ROW_39_302
*2191 TAP_TAPCELL_ROW_39_303
*2192 TAP_TAPCELL_ROW_39_304
*2193 TAP_TAPCELL_ROW_39_305
*2194 TAP_TAPCELL_ROW_39_306
*2195 TAP_TAPCELL_ROW_3_122
*2196 TAP_TAPCELL_ROW_3_123
*2197 TAP_TAPCELL_ROW_3_124
*2198 TAP_TAPCELL_ROW_3_125
*2199 TAP_TAPCELL_ROW_3_126
*2200 TAP_TAPCELL_ROW_40_307
*2201 TAP_TAPCELL_ROW_40_308
*2202 TAP_TAPCELL_ROW_40_309
*2203 TAP_TAPCELL_ROW_40_310
*2204 TAP_TAPCELL_ROW_40_311
*2205 TAP_TAPCELL_ROW_41_312
*2206 TAP_TAPCELL_ROW_41_313
*2207 TAP_TAPCELL_ROW_41_314
*2208 TAP_TAPCELL_ROW_41_315
*2209 TAP_TAPCELL_ROW_41_316
*2210 TAP_TAPCELL_ROW_42_317
*2211 TAP_TAPCELL_ROW_42_318
*2212 TAP_TAPCELL_ROW_42_319
*2213 TAP_TAPCELL_ROW_42_320
*2214 TAP_TAPCELL_ROW_42_321
*2215 TAP_TAPCELL_ROW_43_322
*2216 TAP_TAPCELL_ROW_43_323
*2217 TAP_TAPCELL_ROW_43_324
*2218 TAP_TAPCELL_ROW_43_325
*2219 TAP_TAPCELL_ROW_43_326
*2220 TAP_TAPCELL_ROW_44_327
*2221 TAP_TAPCELL_ROW_44_328
*2222 TAP_TAPCELL_ROW_44_329
*2223 TAP_TAPCELL_ROW_44_330
*2224 TAP_TAPCELL_ROW_44_331
*2225 TAP_TAPCELL_ROW_45_332
*2226 TAP_TAPCELL_ROW_45_333
*2227 TAP_TAPCELL_ROW_45_334
*2228 TAP_TAPCELL_ROW_45_335
*2229 TAP_TAPCELL_ROW_45_336
*2230 TAP_TAPCELL_ROW_46_337
*2231 TAP_TAPCELL_ROW_46_338
*2232 TAP_TAPCELL_ROW_46_339
*2233 TAP_TAPCELL_ROW_46_340
*2234 TAP_TAPCELL_ROW_46_341
*2235 TAP_TAPCELL_ROW_47_342
*2236 TAP_TAPCELL_ROW_47_343
*2237 TAP_TAPCELL_ROW_47_344
*2238 TAP_TAPCELL_ROW_47_345
*2239 TAP_TAPCELL_ROW_47_346
*2240 TAP_TAPCELL_ROW_48_347
*2241 TAP_TAPCELL_ROW_48_348
*2242 TAP_TAPCELL_ROW_48_349
*2243 TAP_TAPCELL_ROW_48_350
*2244 TAP_TAPCELL_ROW_48_351
*2245 TAP_TAPCELL_ROW_49_352
*2246 TAP_TAPCELL_ROW_49_353
*2247 TAP_TAPCELL_ROW_49_354
*2248 TAP_TAPCELL_ROW_49_355
*2249 TAP_TAPCELL_ROW_49_356
*2250 TAP_TAPCELL_ROW_4_127
*2251 TAP_TAPCELL_ROW_4_128
*2252 TAP_TAPCELL_ROW_4_129
*2253 TAP_TAPCELL_ROW_4_130
*2254 TAP_TAPCELL_ROW_4_131
*2255 TAP_TAPCELL_ROW_50_357
*2256 TAP_TAPCELL_ROW_50_358
*2257 TAP_TAPCELL_ROW_50_359
*2258 TAP_TAPCELL_ROW_50_360
*2259 TAP_TAPCELL_ROW_50_361
*2260 TAP_TAPCELL_ROW_50_362
*2261 TAP_TAPCELL_ROW_50_363
*2262 TAP_TAPCELL_ROW_50_364
*2263 TAP_TAPCELL_ROW_50_365
*2264 TAP_TAPCELL_ROW_50_366
*2265 TAP_TAPCELL_ROW_5_132
*2266 TAP_TAPCELL_ROW_5_133
*2267 TAP_TAPCELL_ROW_5_134
*2268 TAP_TAPCELL_ROW_5_135
*2269 TAP_TAPCELL_ROW_5_136
*2270 TAP_TAPCELL_ROW_6_137
*2271 TAP_TAPCELL_ROW_6_138
*2272 TAP_TAPCELL_ROW_6_139
*2273 TAP_TAPCELL_ROW_6_140
*2274 TAP_TAPCELL_ROW_6_141
*2275 TAP_TAPCELL_ROW_7_142
*2276 TAP_TAPCELL_ROW_7_143
*2277 TAP_TAPCELL_ROW_7_144
*2278 TAP_TAPCELL_ROW_7_145
*2279 TAP_TAPCELL_ROW_7_146
*2280 TAP_TAPCELL_ROW_8_147
*2281 TAP_TAPCELL_ROW_8_148
*2282 TAP_TAPCELL_ROW_8_149
*2283 TAP_TAPCELL_ROW_8_150
*2284 TAP_TAPCELL_ROW_8_151
*2285 TAP_TAPCELL_ROW_9_152
*2286 TAP_TAPCELL_ROW_9_153
*2287 TAP_TAPCELL_ROW_9_154
*2288 TAP_TAPCELL_ROW_9_155
*2289 TAP_TAPCELL_ROW_9_156
*2290 _305_
*2291 _306_
*2292 _307_
*2293 _308_
*2294 _309_
*2295 _310_
*2296 _311_
*2297 _312_
*2298 _313_
*2299 _314_
*2300 _315_
*2301 _316_
*2302 _317_
*2303 _318_
*2304 _319_
*2305 _320_
*2306 _321_
*2307 _322_
*2308 _323_
*2309 _324_
*2310 _325_
*2311 _326_
*2312 _327_
*2313 _328_
*2314 _329_
*2315 _330_
*2316 _331_
*2317 _332_
*2318 _333_
*2319 _334_
*2320 _335_
*2321 _336_
*2322 _337_
*2323 _338_
*2324 _339_
*2325 _340_
*2326 _341_
*2327 _342_
*2328 _343_
*2329 _344_
*2330 _345_
*2331 _346_
*2332 _347_
*2333 _348_
*2334 _349_
*2335 _350_
*2336 _351_
*2337 _352_
*2338 _353_
*2339 _354_
*2340 _355_
*2341 _356_
*2342 _357_
*2343 _358_
*2344 _359_
*2345 _360_
*2346 _361_
*2347 _362_
*2348 _363_
*2349 _364_
*2350 _365_
*2351 _366_
*2352 _367_
*2353 _368_
*2354 _369_
*2355 _370_
*2356 _371_
*2357 _372_
*2358 _373_
*2359 _374_
*2360 _375_
*2361 _376_
*2362 _377_
*2363 _378_
*2364 _379_
*2365 _380_
*2366 _381_
*2367 _382_
*2368 _383_
*2369 _384_
*2370 _385_
*2371 _386_
*2372 _387_
*2373 _388_
*2374 _389_
*2375 _390_
*2376 _391_
*2377 _392_
*2378 _393_
*2379 _394_
*2380 _395_
*2381 _396_
*2382 _397_
*2383 _398_
*2384 _399_
*2385 _400_
*2386 _401_
*2387 _402_
*2388 _403_
*2389 _404_
*2390 _405_
*2391 _406_
*2392 _407_
*2393 _408_
*2394 _409_
*2395 _410_
*2396 _411_
*2397 _412_
*2398 _413_
*2399 _414_
*2400 _415_
*2401 _416_
*2402 _417_
*2403 _418_
*2404 _419_
*2405 _420_
*2406 _421_
*2407 _422_
*2408 _423_
*2409 _424_
*2410 _425_
*2411 _426_
*2412 _427_
*2413 _428_
*2414 _429_
*2415 _430_
*2416 _431_
*2417 _432_
*2418 _433_
*2419 _434_
*2420 _435_
*2421 _436_
*2422 _437_
*2423 _438_
*2424 _439_
*2425 _440_
*2426 _441_
*2427 _442_
*2428 _443_
*2429 _444_
*2430 _445_
*2431 _446_
*2432 _447_
*2433 _448_
*2434 _449_
*2435 _450_
*2436 _451_
*2437 _452_
*2438 _453_
*2439 _454_
*2440 _455_
*2441 _456_
*2442 _457_
*2443 _458_
*2444 _459_
*2445 _460_
*2446 _461_
*2447 _462_
*2448 _463_
*2449 _464_
*2450 _465_
*2451 _466_
*2452 _467_
*2453 _468_
*2454 _469_
*2455 _470_
*2456 _471_
*2457 _472_
*2458 _473_
*2459 _474_
*2460 _475_
*2461 _476_
*2462 _477_
*2463 _478_
*2464 _479_
*2465 _480_
*2466 _481_
*2467 _482_
*2468 _483_
*2469 _484_
*2470 _485_
*2471 _486_
*2472 _487_
*2473 _488_
*2474 _489_
*2475 _490_
*2476 _491_
*2477 _492_
*2478 _493_
*2479 _494_
*2480 _495_
*2481 _496_
*2482 _497_
*2483 _498_
*2484 _499_
*2485 _500_
*2486 _501_
*2487 _502_
*2488 _503_
*2489 _504_
*2490 _505_
*2491 _506_
*2492 _507_
*2493 _508_
*2494 _509_
*2495 _510_
*2496 _511_
*2497 _512_
*2498 _513_
*2499 _514_
*2500 _515_
*2501 _516_
*2502 _517_
*2503 _518_
*2504 _519_
*2505 _520_
*2506 _521_
*2507 _522_
*2508 _523_
*2509 _524_
*2510 _525_
*2511 _526_
*2512 _527_
*2513 _528_
*2514 _529_
*2515 _530_
*2516 _531_
*2517 _532_
*2518 _533_
*2519 _534_
*2520 _535_
*2521 _536_
*2522 _537_
*2523 _538_
*2524 _539_
*2525 _540_
*2526 _541_
*2527 _542_
*2528 _543_
*2529 _544_
*2530 _545_
*2531 _546_
*2532 _547_
*2533 _548_
*2534 _549_
*2535 _550_
*2536 _551_
*2537 _552_
*2538 _553_
*2539 _554_
*2540 _555_
*2541 _556_
*2542 _557_
*2543 _558_
*2544 _559_
*2545 _560_
*2546 _561_
*2547 _562_
*2548 _563_
*2549 _564_
*2550 _565_
*2551 _566_
*2552 _567_
*2553 _568_
*2554 _569_
*2555 _570_
*2556 _571_
*2557 _572_
*2558 _573_
*2559 _574_
*2560 _575_
*2561 _576_
*2562 _577_
*2563 _578_
*2564 _579_
*2565 _580_
*2566 _581_
*2567 _582_
*2568 _583_
*2569 _584_
*2570 _585_
*2571 _586_
*2572 _587_
*2573 _588_
*2574 _589_
*2575 _590_
*2576 _591_
*2577 _592_
*2578 _593_
*2579 _594_
*2580 _595_
*2581 _596_
*2582 _597_
*2583 _598_
*2584 _599_
*2585 _600_
*2586 _601_
*2587 _602_
*2588 _603_
*2589 _604_
*2590 _605_
*2591 _606_
*2592 _607_
*2593 _608_
*2594 _609_
*2595 _610_
*2596 _611_
*2597 _612_
*2598 _613_
*2599 _614_
*2600 _615_
*2601 _616_
*2602 _617_
*2603 _618_
*2604 _619_
*2605 _620_
*2606 _621_
*2607 _622_
*2608 _623_
*2609 _624_
*2610 _625_
*2611 _626_
*2612 _627_
*2613 _628_
*2614 _629_
*2615 _630_
*2616 _631_
*2617 _632_
*2618 _633_
*2619 _634_
*2620 _635_
*2621 _636_
*2622 _637_
*2623 _638_
*2624 _639_
*2625 _640_
*2626 _641_
*2627 _642_
*2628 _643_
*2629 _644_
*2630 _645_
*2631 _646_
*2632 _647_
*2633 _648_
*2634 _649_
*2635 _650_
*2636 _651_
*2637 _652_
*2638 _653_
*2639 _654_
*2640 _655_
*2641 _656_
*2642 _657_
*2643 _658_
*2644 _659_
*2645 _660_
*2646 _661_
*2647 _662_
*2648 _663_
*2649 _664_
*2650 _665_
*2651 _666_
*2652 _667_
*2653 _668_
*2654 _669_
*2655 _670_
*2656 _671_
*2657 _672_
*2658 _673_
*2659 _674_
*2660 _675_
*2661 _676_
*2662 _677_
*2663 _678_
*2664 _679_
*2665 _680_
*2666 _681_
*2667 _682_
*2668 _683_
*2669 _684_
*2670 _685_
*2671 _686_
*2672 _687_
*2673 _688_
*2674 _689_
*2675 _690_
*2676 _691_
*2677 _692_
*2678 _693_
*2679 _694_
*2680 _695_
*2681 _696_
*2682 _697_
*2683 _698_
*2684 _699_
*2685 _700_
*2686 _701_
*2687 _702_
*2688 _703_
*2689 _704_
*2690 _705_
*2691 _706_
*2692 _707_
*2693 _708_
*2694 _709_
*2695 _710_
*2696 _711_
*2697 _712_
*2698 _713_
*2699 _714_
*2700 _715_
*2701 _716_
*2702 _717_
*2703 _718_
*2704 _719_
*2705 _720_
*2706 _721_
*2707 _722_
*2708 _723_
*2709 _724_
*2710 _725_
*2711 _726_
*2712 _727_
*2713 _728_
*2714 _729_
*2715 _730_
*2716 _731_
*2717 _732_
*2718 _733_
*2719 _734_
*2720 _735_
*2721 _736_
*2722 _737_
*2723 _738_
*2724 _739_
*2725 _740_
*2726 _741_
*2727 _742_
*2728 _743_
*2729 _744_
*2730 _745_
*2731 _746_
*2732 _747_
*2733 _748_
*2734 _749_
*2735 _750_
*2736 _751_
*2737 _752_
*2738 _753_
*2739 _754_
*2740 _755_
*2741 _756_
*2742 _757_
*2743 _758_
*2744 _759_
*2745 _760_
*2746 _761_
*2747 _762_
*2748 _763_
*2749 _764_
*2750 _765_
*2751 _766_
*2752 _767_
*2753 _768_
*2754 _769_
*2755 _770_
*2756 _771_
*2757 _772_
*2758 _773_
*2759 _774_
*2760 _775_
*2761 _776_
*2762 _777_
*2763 _778_
*2764 _779_
*2765 _780_
*2766 _781_
*2767 _782_
*2768 _783_
*2769 _784_
*2770 _785_
*2771 _786_
*2772 _787_
*2773 _788_
*2774 _789_
*2775 _790_
*2776 _791_
*2777 _792_
*2778 _793_
*2779 _794_
*2780 _795_
*2781 _796_
*2782 _797_
*2783 _798_
*2784 _799_
*2785 _800_
*2786 _801_
*2787 _802_
*2788 _803_
*2789 _804_
*2790 _805_
*2791 _806_
*2792 _807_
*2793 _808_
*2794 _809_
*2795 clkbuf_0_wr_clk
*2796 clkbuf_4_0_0_wr_clk
*2797 clkbuf_4_10_0_wr_clk
*2798 clkbuf_4_11_0_wr_clk
*2799 clkbuf_4_12_0_wr_clk
*2800 clkbuf_4_13_0_wr_clk
*2801 clkbuf_4_14_0_wr_clk
*2802 clkbuf_4_15_0_wr_clk
*2803 clkbuf_4_1_0_wr_clk
*2804 clkbuf_4_2_0_wr_clk
*2805 clkbuf_4_3_0_wr_clk
*2806 clkbuf_4_4_0_wr_clk
*2807 clkbuf_4_5_0_wr_clk
*2808 clkbuf_4_6_0_wr_clk
*2809 clkbuf_4_7_0_wr_clk
*2810 clkbuf_4_8_0_wr_clk
*2811 clkbuf_4_9_0_wr_clk
*2812 clkload0
*2813 clkload1
*2814 clkload10
*2815 clkload11
*2816 clkload12
*2817 clkload13
*2818 clkload14
*2819 clkload2
*2820 clkload3
*2821 clkload4
*2822 clkload5
*2823 clkload6
*2824 clkload7
*2825 clkload8
*2826 clkload9
*2827 fanout35
*2828 fanout36
*2829 fanout37
*2830 fanout38
*2831 fanout39
*2832 fanout40
*2833 fanout41
*2834 fanout42
*2835 fanout43
*2836 fanout44
*2837 fanout45
*2838 fanout46
*2839 fanout47
*2840 fanout48
*2841 fanout49
*2842 fanout50
*2843 fanout51
*2844 fanout52
*2845 fanout53
*2846 fanout54
*2847 fanout55
*2848 fanout56
*2849 fanout57
*2850 fanout58
*2851 fanout59
*2852 fanout60
*2853 fanout61
*2854 fanout62
*2855 fanout63
*2856 fanout64
*2857 fanout65
*2858 fanout66
*2859 fanout67
*2860 fanout68
*2861 fanout69
*2862 fanout70
*2863 fanout71
*2864 fanout72
*2865 fanout73
*2866 fanout74
*2867 fanout75
*2868 fanout76
*2869 hold1
*2870 hold10
*2871 hold100
*2872 hold101
*2873 hold102
*2874 hold103
*2875 hold104
*2876 hold105
*2877 hold106
*2878 hold107
*2879 hold108
*2880 hold109
*2881 hold11
*2882 hold110
*2883 hold111
*2884 hold112
*2885 hold113
*2886 hold114
*2887 hold115
*2888 hold116
*2889 hold117
*2890 hold118
*2891 hold119
*2892 hold12
*2893 hold120
*2894 hold121
*2895 hold122
*2896 hold123
*2897 hold124
*2898 hold125
*2899 hold126
*2900 hold127
*2901 hold128
*2902 hold129
*2903 hold13
*2904 hold130
*2905 hold131
*2906 hold132
*2907 hold133
*2908 hold14
*2909 hold15
*2910 hold16
*2911 hold17
*2912 hold18
*2913 hold19
*2914 hold2
*2915 hold20
*2916 hold21
*2917 hold22
*2918 hold23
*2919 hold24
*2920 hold25
*2921 hold26
*2922 hold27
*2923 hold28
*2924 hold29
*2925 hold3
*2926 hold30
*2927 hold31
*2928 hold32
*2929 hold33
*2930 hold34
*2931 hold35
*2932 hold36
*2933 hold37
*2934 hold38
*2935 hold39
*2936 hold4
*2937 hold40
*2938 hold41
*2939 hold42
*2940 hold43
*2941 hold44
*2942 hold45
*2943 hold46
*2944 hold47
*2945 hold48
*2946 hold49
*2947 hold5
*2948 hold50
*2949 hold51
*2950 hold52
*2951 hold53
*2952 hold54
*2953 hold55
*2954 hold56
*2955 hold57
*2956 hold58
*2957 hold59
*2958 hold6
*2959 hold60
*2960 hold61
*2961 hold62
*2962 hold63
*2963 hold64
*2964 hold65
*2965 hold66
*2966 hold67
*2967 hold68
*2968 hold69
*2969 hold7
*2970 hold70
*2971 hold71
*2972 hold72
*2973 hold73
*2974 hold74
*2975 hold75
*2976 hold76
*2977 hold77
*2978 hold78
*2979 hold79
*2980 hold8
*2981 hold80
*2982 hold81
*2983 hold82
*2984 hold83
*2985 hold84
*2986 hold85
*2987 hold86
*2988 hold87
*2989 hold88
*2990 hold89
*2991 hold9
*2992 hold90
*2993 hold91
*2994 hold92
*2995 hold93
*2996 hold94
*2997 hold95
*2998 hold96
*2999 hold97
*3000 hold98
*3001 hold99
*3002 input1
*3003 input10
*3004 input11
*3005 input12
*3006 input13
*3007 input14
*3008 input15
*3009 input16
*3010 input17
*3011 input18
*3012 input19
*3013 input2
*3014 input20
*3015 input21
*3016 input22
*3017 input3
*3018 input4
*3019 input5
*3020 input6
*3021 input7
*3022 input8
*3023 input9
*3024 output23
*3025 output24
*3026 output25
*3027 output26
*3028 output27
*3029 output28
*3030 output29
*3031 output30
*3032 output31
*3033 output32
*3034 output33
*3035 output34

*PORTS
aempty O
aempty_threshold[0] I
aempty_threshold[1] I
aempty_threshold[2] I
aempty_threshold[3] I
aempty_threshold[4] I
afull O
afull_threshold[0] I
afull_threshold[1] I
afull_threshold[2] I
afull_threshold[3] I
afull_threshold[4] I
arst_n I
empty O
full O
rd_clk I
rd_data[0] O
rd_data[1] O
rd_data[2] O
rd_data[3] O
rd_data[4] O
rd_data[5] O
rd_data[6] O
rd_data[7] O
rd_en I
wr_clk I
wr_data[0] I
wr_data[1] I
wr_data[2] I
wr_data[3] I
wr_data[4] I
wr_data[5] I
wr_data[6] I
wr_data[7] I
wr_en I

*D_NET *3 0.00103576
*CONN
*P aempty O
*I *3024:X O *D sky130_fd_sc_hd__buf_2
*CAP
1 aempty 0.000347782
2 *3024:X 0.000347782
3 aempty rd_data[4] 0
4 aempty *3004:A 7.60209e-05
5 aempty *3019:A 5.888e-05
6 aempty *3024:A 7.71417e-05
7 aempty *649:14 0.000128154
8 aempty *678:10 0
*RES
1 *3024:X aempty 21.8378 
*END

*D_NET *4 0.000526142
*CONN
*P aempty_threshold[0] I
*I *3002:A I *D sky130_fd_sc_hd__clkbuf_1
*CAP
1 aempty_threshold[0] 0.000225061
2 *3002:A 0.000225061
3 *3002:A *3013:A 7.60209e-05
4 *3002:A *678:10 0
*RES
1 aempty_threshold[0] *3002:A 19.2651 
*END

*D_NET *5 0.00050815
*CONN
*P aempty_threshold[1] I
*I *3013:A I *D sky130_fd_sc_hd__clkbuf_1
*CAP
1 aempty_threshold[1] 0.000158093
2 *3013:A 0.000158093
3 *3013:A *2360:A1 4.89407e-05
4 *3013:A *3017:A 6.70017e-05
5 *3002:A *3013:A 7.60209e-05
*RES
1 aempty_threshold[1] *3013:A 18.9615 
*END

*D_NET *6 0.000399597
*CONN
*P aempty_threshold[2] I
*I *3017:A I *D sky130_fd_sc_hd__clkbuf_1
*CAP
1 aempty_threshold[2] 0.000129574
2 *3017:A 0.000129574
3 *3017:A *3018:A 7.3448e-05
4 *3017:A *678:10 0
5 *3013:A *3017:A 6.70017e-05
*RES
1 aempty_threshold[2] *3017:A 18.0508 
*END

*D_NET *7 0.00040658
*CONN
*P aempty_threshold[3] I
*I *3018:A I *D sky130_fd_sc_hd__clkbuf_1
*CAP
1 aempty_threshold[3] 0.000129842
2 *3018:A 0.000129842
3 *3018:A rd_data[4] 7.3448e-05
4 *3018:A *678:10 0
5 *3017:A *3018:A 7.3448e-05
*RES
1 aempty_threshold[3] *3018:A 18.0508 
*END

*D_NET *8 0.000971964
*CONN
*P aempty_threshold[4] I
*I *3019:A I *D sky130_fd_sc_hd__clkbuf_1
*CAP
1 aempty_threshold[4] 0.000330104
2 *3019:A 0.000330104
3 *3019:A rd_data[4] 6.37342e-05
4 *3019:A *2298:A 0
5 *3019:A *3024:A 0.000117421
6 *3019:A *649:14 7.1721e-05
7 *3019:A *678:10 0
8 aempty *3019:A 5.888e-05
*RES
1 aempty_threshold[4] *3019:A 22.4609 
*END

*D_NET *9 0.000516629
*CONN
*P afull O
*I *3025:X O *D sky130_fd_sc_hd__buf_2
*CAP
1 afull 0.00020337
2 *3025:X 0.00020337
3 afull *3003:A 7.60209e-05
4 afull *3025:A 3.38674e-05
*RES
1 *3025:X afull 18.73 
*END

*D_NET *10 0.00103558
*CONN
*P afull_threshold[0] I
*I *3020:A I *D sky130_fd_sc_hd__clkbuf_1
*CAP
1 afull_threshold[0] 0.000501935
2 *3020:A 0.000501935
3 *3020:A *2296:A 3.17067e-05
4 *3020:A *3021:A 0
5 *3020:A *3022:A 0
*RES
1 afull_threshold[0] *3020:A 23.9607 
*END

*D_NET *11 0.00102004
*CONN
*P afull_threshold[1] I
*I *3021:A I *D sky130_fd_sc_hd__clkbuf_1
*CAP
1 afull_threshold[1] 0.000510022
2 *3021:A 0.000510022
3 *3020:A *3021:A 0
*RES
1 afull_threshold[1] *3021:A 23.9607 
*END

*D_NET *12 0.00102647
*CONN
*P afull_threshold[2] I
*I *3022:A I *D sky130_fd_sc_hd__clkbuf_1
*CAP
1 afull_threshold[2] 0.000513234
2 *3022:A 0.000513234
3 *3022:A *2296:A 0
4 *3020:A *3022:A 0
*RES
1 afull_threshold[2] *3022:A 23.9607 
*END

*D_NET *13 0.00110043
*CONN
*P afull_threshold[3] I
*I *3023:A I *D sky130_fd_sc_hd__clkbuf_1
*CAP
1 afull_threshold[3] 0.000550213
2 *3023:A 0.000550213
*RES
1 afull_threshold[3] *3023:A 24.7821 
*END

*D_NET *14 0.000455358
*CONN
*P afull_threshold[4] I
*I *3003:A I *D sky130_fd_sc_hd__clkbuf_1
*CAP
1 afull_threshold[4] 0.000189668
2 *3003:A 0.000189668
3 afull *3003:A 7.60209e-05
*RES
1 afull_threshold[4] *3003:A 18.6579 
*END

*D_NET *15 0.000622883
*CONN
*P arst_n I
*I *3004:A I *D sky130_fd_sc_hd__clkbuf_1
*CAP
1 arst_n 0.000235421
2 *3004:A 0.000235421
3 *3004:A *2860:A 0
4 *3004:A *2868:A 0
5 *3004:A *3005:A 7.60209e-05
6 aempty *3004:A 7.60209e-05
*RES
1 arst_n *3004:A 20.1758 
*END

*D_NET *16 0.0016821
*CONN
*P empty O
*I *3026:X O *D sky130_fd_sc_hd__buf_2
*CAP
1 empty 0.000596441
2 *3026:X 0.000596441
3 empty rd_data[1] 8.00458e-05
4 empty *2330:A 0
5 empty *2431:A1 0.000110078
6 empty *2862:A 0
7 empty *264:18 0.000299094
*RES
1 *3026:X empty 19.9551 
*END

*D_NET *17 0.00101131
*CONN
*P full O
*I *3027:X O *D sky130_fd_sc_hd__buf_2
*CAP
1 full 0.000505653
2 *3027:X 0.000505653
*RES
1 *3027:X full 23.8714 
*END

*D_NET *18 0.000570535
*CONN
*P rd_clk I
*I *3005:A I *D sky130_fd_sc_hd__clkbuf_1
*CAP
1 rd_clk 0.000180081
2 *3005:A 0.000180081
3 *3005:A *2860:A 0
4 *3005:A *3008:A 7.60209e-05
5 *3005:A *518:25 5.83304e-05
6 *3005:A *678:54 0
7 *3004:A *3005:A 7.60209e-05
*RES
1 rd_clk *3005:A 19.2651 
*END

*D_NET *19 0.000971115
*CONN
*P rd_data[0] O
*I *3028:X O *D sky130_fd_sc_hd__buf_2
*CAP
1 rd_data[0] 0.000485557
2 *3028:X 0.000485557
3 rd_data[0] *3007:A 0
*RES
1 *3028:X rd_data[0] 23.4607 
*END

*D_NET *20 0.00107813
*CONN
*P rd_data[1] O
*I *3029:X O *D sky130_fd_sc_hd__buf_2
*CAP
1 rd_data[1] 0.000247164
2 *3029:X 0.000247164
3 rd_data[1] *3006:A 6.54711e-05
4 rd_data[1] *3029:A 0.000150263
5 rd_data[1] *518:25 8.67605e-05
6 rd_data[1] *622:12 8.84829e-05
7 rd_data[1] *625:10 0.000112777
8 empty rd_data[1] 8.00458e-05
*RES
1 *3029:X rd_data[1] 21.1586 
*END

*D_NET *21 0.000679828
*CONN
*P rd_data[2] O
*I *3030:X O *D sky130_fd_sc_hd__buf_2
*CAP
1 rd_data[2] 0.000307349
2 *3030:X 0.000307349
3 rd_data[2] *3009:A 6.51308e-05
*RES
1 *3030:X rd_data[2] 19.6044 
*END

*D_NET *22 0.000950737
*CONN
*P rd_data[3] O
*I *3031:X O *D sky130_fd_sc_hd__buf_2
*CAP
1 rd_data[3] 0.000475368
2 *3031:X 0.000475368
3 rd_data[3] *3011:A 0
*RES
1 *3031:X rd_data[3] 22.05 
*END

*D_NET *23 0.000767733
*CONN
*P rd_data[4] O
*I *3032:X O *D sky130_fd_sc_hd__buf_2
*CAP
1 rd_data[4] 0.000281459
2 *3032:X 0.000281459
3 rd_data[4] *649:14 0
4 rd_data[4] *678:10 6.76337e-05
5 aempty rd_data[4] 0
6 *3018:A rd_data[4] 7.3448e-05
7 *3019:A rd_data[4] 6.37342e-05
*RES
1 *3032:X rd_data[4] 19.0183 
*END

*D_NET *24 0.00096179
*CONN
*P rd_data[5] O
*I *3033:X O *D sky130_fd_sc_hd__buf_2
*CAP
1 rd_data[5] 0.000466439
2 *3033:X 0.000466439
3 rd_data[5] *3033:A 2.89114e-05
*RES
1 *3033:X rd_data[5] 22.05 
*END

*D_NET *25 0.00101131
*CONN
*P rd_data[6] O
*I *3034:X O *D sky130_fd_sc_hd__buf_2
*CAP
1 rd_data[6] 0.000505653
2 *3034:X 0.000505653
*RES
1 *3034:X rd_data[6] 23.8714 
*END

*D_NET *26 0.000667825
*CONN
*P rd_data[7] O
*I *3035:X O *D sky130_fd_sc_hd__buf_2
*CAP
1 rd_data[7] 0.000313753
2 *3035:X 0.000313753
3 rd_data[7] *3015:A 2.25951e-05
4 rd_data[7] *353:39 1.77247e-05
*RES
1 *3035:X rd_data[7] 19.6044 
*END

*D_NET *27 0.00122449
*CONN
*P rd_en I
*I *3006:A I *D sky130_fd_sc_hd__clkbuf_1
*CAP
1 rd_en 0.000296647
2 *3006:A 0.000296647
3 *3006:A *2390:B 0.000131592
4 *3006:A *518:25 0.000434138
5 *3006:A *678:54 0
6 rd_data[1] *3006:A 6.54711e-05
*RES
1 rd_en *3006:A 23.2115 
*END

*D_NET *28 0.0176129
*CONN
*P wr_clk I
*I *2795:A I *D sky130_fd_sc_hd__clkbuf_16
*CAP
1 wr_clk 0.000314454
2 *2795:A 2.23854e-05
3 *28:17 0.00544255
4 *28:15 0.00542016
5 *28:13 0.00236982
6 *28:11 0.00268427
7 *28:11 *3014:A 5.77714e-05
8 *28:13 *3009:A 0
9 *28:13 *3014:A 0
10 *28:17 *2433:A0 1.18881e-05
11 *28:17 *2464:A1 2.89016e-05
12 *28:17 *2464:A2 1.05613e-05
13 *28:17 *2464:S0 1.07719e-05
14 *28:17 *2466:A3 6.38088e-05
15 *28:17 *2497:A0 9.31011e-05
16 *28:17 *2530:A1 0.000494494
17 *28:17 *2675:D 0.00039896
18 *28:17 *2707:D 7.22062e-05
19 *28:17 *2903:A 0.000116757
*RES
1 wr_clk *28:11 4.71347 
2 *28:11 *28:13 48.2411 
3 *28:13 *28:15 4.5 
4 *28:15 *28:17 65.4286 
5 *28:17 *2795:A 9.72857 
*END

*D_NET *29 0.00102004
*CONN
*P wr_data[0] I
*I *3007:A I *D sky130_fd_sc_hd__buf_1
*CAP
1 wr_data[0] 0.000510022
2 *3007:A 0.000510022
3 *3007:A *3028:A 0
4 rd_data[0] *3007:A 0
*RES
1 wr_data[0] *3007:A 23.9607 
*END

*D_NET *30 0.000543431
*CONN
*P wr_data[1] I
*I *3008:A I *D sky130_fd_sc_hd__buf_1
*CAP
1 wr_data[1] 0.000186304
2 *3008:A 0.000186304
3 *3008:A *518:25 9.48025e-05
4 *3008:A *678:54 0
5 *3005:A *3008:A 7.60209e-05
*RES
1 wr_data[1] *3008:A 18.9615 
*END

*D_NET *31 0.00085935
*CONN
*P wr_data[2] I
*I *3009:A I *D sky130_fd_sc_hd__buf_1
*CAP
1 wr_data[2] 0.000380527
2 *3009:A 0.000380527
3 *3009:A *3030:A 3.31648e-05
4 rd_data[2] *3009:A 6.51308e-05
5 *28:13 *3009:A 0
*RES
1 wr_data[2] *3009:A 22.9232 
*END

*D_NET *32 0.00084331
*CONN
*P wr_data[3] I
*I *3010:A I *D sky130_fd_sc_hd__buf_1
*CAP
1 wr_data[3] 0.000421655
2 *3010:A 0.000421655
*RES
1 wr_data[3] *3010:A 21.8357 
*END

*D_NET *33 0.000845225
*CONN
*P wr_data[4] I
*I *3011:A I *D sky130_fd_sc_hd__buf_1
*CAP
1 wr_data[4] 0.000422612
2 *3011:A 0.000422612
3 *3011:A *3031:A 0
4 rd_data[3] *3011:A 0
*RES
1 wr_data[4] *3011:A 21.8357 
*END

*D_NET *34 0.00084331
*CONN
*P wr_data[5] I
*I *3012:A I *D sky130_fd_sc_hd__buf_1
*CAP
1 wr_data[5] 0.000421655
2 *3012:A 0.000421655
*RES
1 wr_data[5] *3012:A 21.8357 
*END

*D_NET *35 0.000689533
*CONN
*P wr_data[6] I
*I *3014:A I *D sky130_fd_sc_hd__buf_1
*CAP
1 wr_data[6] 0.000315881
2 *3014:A 0.000315881
3 *28:11 *3014:A 5.77714e-05
4 *28:13 *3014:A 0
*RES
1 wr_data[6] *3014:A 21.391 
*END

*D_NET *36 0.000612169
*CONN
*P wr_data[7] I
*I *3015:A I *D sky130_fd_sc_hd__buf_1
*CAP
1 wr_data[7] 0.000294787
2 *3015:A 0.000294787
3 rd_data[7] *3015:A 2.25951e-05
*RES
1 wr_data[7] *3015:A 20.7838 
*END

*D_NET *37 0.00126233
*CONN
*P wr_en I
*I *3016:A I *D sky130_fd_sc_hd__clkbuf_1
*CAP
1 wr_en 0.000604495
2 *3016:A 0.000604495
3 *3016:A *2364:B 5.33433e-05
*RES
1 wr_en *3016:A 25.7286 
*END

*D_NET *38 0.000788057
*CONN
*I *2617:D I *D sky130_fd_sc_hd__dfrtp_1
*I *2423:X O *D sky130_fd_sc_hd__mux2_1
*CAP
1 *2617:D 0.000282696
2 *2423:X 0.000282696
3 *2617:D *2423:A0 0
4 *2617:D *2461:S 0.000199924
5 *2617:D *2857:A 2.27416e-05
*RES
1 *2423:X *2617:D 33.4929 
*END

*D_NET *39 0.000387355
*CONN
*I *2618:D I *D sky130_fd_sc_hd__dfrtp_1
*I *2431:X O *D sky130_fd_sc_hd__mux2_1
*CAP
1 *2618:D 0.000165104
2 *2431:X 0.000165104
3 *2618:D *2330:A 0
4 *2618:D *2862:A 0
5 *2618:D *3026:A 5.71472e-05
*RES
1 *2431:X *2618:D 29.8857 
*END

*D_NET *40 0.000686395
*CONN
*I *2619:D I *D sky130_fd_sc_hd__dfrtp_1
*I *2437:X O *D sky130_fd_sc_hd__mux2_1
*CAP
1 *2619:D 0.000228901
2 *2437:X 0.000228901
3 *2619:D *2437:A0 0.000185643
4 *2619:D *2619:RESET_B 1.76039e-05
5 *2619:D *345:72 2.15363e-05
6 *2619:D *643:31 3.80953e-06
7 *2619:D *643:116 0
*RES
1 *2437:X *2619:D 31.1179 
*END

*D_NET *41 0.000891224
*CONN
*I *2620:D I *D sky130_fd_sc_hd__dfrtp_1
*I *2443:X O *D sky130_fd_sc_hd__mux2_1
*CAP
1 *2620:D 0.000259282
2 *2443:X 0.000259282
3 *2620:D *2560:S 5.33433e-05
4 *2620:D *329:107 0
5 *2620:D *342:75 0.000319316
*RES
1 *2443:X *2620:D 32.6179 
*END

*D_NET *42 0.000388237
*CONN
*I *2621:D I *D sky130_fd_sc_hd__dfrtp_1
*I *2449:X O *D sky130_fd_sc_hd__mux2_1
*CAP
1 *2621:D 9.73002e-05
2 *2449:X 9.73002e-05
3 *2621:D *2449:A0 0.000193637
*RES
1 *2449:X *2621:D 21.3321 
*END

*D_NET *43 0.000156798
*CONN
*I *2622:D I *D sky130_fd_sc_hd__dfrtp_1
*I *2455:X O *D sky130_fd_sc_hd__mux2_1
*CAP
1 *2622:D 7.83991e-05
2 *2455:X 7.83991e-05
3 *2622:D *2455:A1 0
4 *2622:D *354:32 0
*RES
1 *2455:X *2622:D 28.9393 
*END

*D_NET *44 0.000735759
*CONN
*I *2623:D I *D sky130_fd_sc_hd__dfrtp_1
*I *2461:X O *D sky130_fd_sc_hd__mux2_1
*CAP
1 *2623:D 0.000331261
2 *2461:X 0.000331261
3 *2623:D *2623:CLK 7.3237e-05
*RES
1 *2461:X *2623:D 31.9393 
*END

*D_NET *45 0.000387386
*CONN
*I *2624:D I *D sky130_fd_sc_hd__dfrtp_1
*I *2467:X O *D sky130_fd_sc_hd__mux2_1
*CAP
1 *2624:D 8.64908e-05
2 *2467:X 8.64908e-05
3 *2624:D *2624:CLK 0.000127439
4 *2624:D *632:26 2.27416e-05
5 *2624:D *637:125 6.42242e-05
*RES
1 *2467:X *2624:D 29.7786 
*END

*D_NET *46 0.000997366
*CONN
*I *2625:D I *D sky130_fd_sc_hd__dfxtp_1
*I *2470:X O *D sky130_fd_sc_hd__mux2_1
*CAP
1 *2625:D 0.000213201
2 *2470:X 0.000213201
3 *2625:D *2496:S 4.87669e-06
4 *2625:D *2633:CLK 0.000292708
5 *2625:D *2779:CLK 0
6 *2625:D *2779:D 1.08359e-05
7 *2625:D *327:34 7.15962e-05
8 *2625:D *359:84 0.000190948
*RES
1 *2470:X *2625:D 33.4795 
*END

*D_NET *47 0.000880007
*CONN
*I *2626:D I *D sky130_fd_sc_hd__dfxtp_1
*I *2471:X O *D sky130_fd_sc_hd__mux2_1
*CAP
1 *2626:D 0.000298965
2 *2471:X 0.000298965
3 *2626:D *2626:CLK 0.000149059
4 *2626:D *408:6 2.27416e-05
5 *2626:D *634:176 0.000110277
*RES
1 *2471:X *2626:D 24.533 
*END

*D_NET *48 0.000912619
*CONN
*I *2627:D I *D sky130_fd_sc_hd__dfxtp_1
*I *2472:X O *D sky130_fd_sc_hd__mux2_1
*CAP
1 *2627:D 0.000177049
2 *2472:X 0.000177049
3 *2627:D *3030:A 9.71197e-05
4 *2627:D *292:16 3.32132e-06
5 *2627:D *356:14 8.06427e-05
6 *2627:D *356:20 8.15939e-05
7 *2627:D *662:76 0.000295844
*RES
1 *2472:X *2627:D 32.4795 
*END

*D_NET *49 0.00095589
*CONN
*I *2628:D I *D sky130_fd_sc_hd__dfxtp_1
*I *2473:X O *D sky130_fd_sc_hd__mux2_1
*CAP
1 *2628:D 0.00023637
2 *2473:X 0.00023637
3 *2628:D *2467:S 0.000290279
4 *2628:D *339:40 0
5 *2628:D *355:90 0.000192872
*RES
1 *2473:X *2628:D 33.1759 
*END

*D_NET *50 0.000566803
*CONN
*I *2629:D I *D sky130_fd_sc_hd__dfxtp_1
*I *2474:X O *D sky130_fd_sc_hd__mux2_1
*CAP
1 *2629:D 0.000145455
2 *2474:X 0.000145455
3 *2629:D *2444:S1 0
4 *2629:D *341:105 0.000175519
5 *2629:D *348:38 0.000100374
*RES
1 *2474:X *2629:D 30.8366 
*END

*D_NET *51 0.000991685
*CONN
*I *2630:D I *D sky130_fd_sc_hd__dfxtp_1
*I *2475:X O *D sky130_fd_sc_hd__mux2_1
*CAP
1 *2630:D 0.000260018
2 *2475:X 0.000260018
3 *2630:D *2475:A0 0
4 *2630:D *2597:S 6.75007e-05
5 *2630:D *346:29 0.000230656
6 *2630:D *655:83 0.000173492
7 *2630:D *655:112 0
*RES
1 *2475:X *2630:D 33.9259 
*END

*D_NET *52 0.00123577
*CONN
*I *2631:D I *D sky130_fd_sc_hd__dfxtp_1
*I *2476:X O *D sky130_fd_sc_hd__mux2_1
*CAP
1 *2631:D 0.000371664
2 *2476:X 0.000371664
3 *2631:D *2460:A1 0
4 *2631:D *2606:A0 7.72906e-05
5 *2631:D *2606:S 0.000119285
6 *2631:D *2785:D 3.79467e-05
7 *2631:D *323:114 0
8 *2631:D *329:38 0.000189929
9 *2631:D *334:41 6.79924e-05
10 *2631:D *342:36 0
*RES
1 *2476:X *2631:D 36.2116 
*END

*D_NET *53 0.000994667
*CONN
*I *2632:D I *D sky130_fd_sc_hd__dfxtp_1
*I *2477:X O *D sky130_fd_sc_hd__mux2_1
*CAP
1 *2632:D 0.000235719
2 *2477:X 0.000235719
3 *2632:D *2607:A0 9.25014e-06
4 *2632:D *2632:CLK 0.000147136
5 *2632:D *2648:CLK 4.08637e-05
6 *2632:D *2786:D 2.30218e-05
7 *2632:D *323:120 0
8 *2632:D *353:106 0.000127446
9 *2632:D *353:128 0.000175512
*RES
1 *2477:X *2632:D 33.1759 
*END

*D_NET *54 0.000724384
*CONN
*I *2633:D I *D sky130_fd_sc_hd__dfxtp_1
*I *2480:X O *D sky130_fd_sc_hd__mux2_1
*CAP
1 *2633:D 0.000170471
2 *2480:X 0.000170471
3 *2633:D *2420:A1 0.000181796
4 *2633:D *2619:RESET_B 0.000100823
5 *2633:D *316:14 0.000100823
*RES
1 *2480:X *2633:D 31.5688 
*END

*D_NET *55 0.00133137
*CONN
*I *2634:D I *D sky130_fd_sc_hd__dfxtp_1
*I *2481:X O *D sky130_fd_sc_hd__mux2_1
*CAP
1 *2634:D 0.000203764
2 *2481:X 0.000203764
3 *2634:D *2427:A2 0.000220441
4 *2634:D *2427:A3 4.56594e-05
5 *2634:D *2634:CLK 1.76135e-05
6 *2634:D *333:46 7.03586e-05
7 *2634:D *345:152 0.000548828
8 *2634:D *400:10 3.32132e-06
9 *2634:D *644:35 1.76204e-05
*RES
1 *2481:X *2634:D 34.8723 
*END

*D_NET *56 0.00110922
*CONN
*I *2635:D I *D sky130_fd_sc_hd__dfxtp_1
*I *2482:X O *D sky130_fd_sc_hd__mux2_1
*CAP
1 *2635:D 0.000192497
2 *2482:X 0.000192497
3 *2635:D *2434:A0 7.73758e-05
4 *2635:D *2602:A1 0.000340066
5 *2635:D *325:93 6.53874e-05
6 *2635:D *562:29 0.000184031
7 *2635:D *626:20 5.7362e-05
*RES
1 *2482:X *2635:D 33.783 
*END

*D_NET *57 0.000545247
*CONN
*I *2636:D I *D sky130_fd_sc_hd__dfxtp_1
*I *2483:X O *D sky130_fd_sc_hd__mux2_1
*CAP
1 *2636:D 0.000170913
2 *2483:X 0.000170913
3 *2636:D *2440:A2 7.3237e-05
4 *2636:D *2493:A1 7.01199e-06
5 *2636:D *2636:CLK 1.64343e-05
6 *2636:D *345:22 4.48206e-05
7 *2636:D *659:116 6.19181e-05
*RES
1 *2483:X *2636:D 30.7652 
*END

*D_NET *58 0.000425928
*CONN
*I *2637:D I *D sky130_fd_sc_hd__dfxtp_1
*I *2484:X O *D sky130_fd_sc_hd__mux2_1
*CAP
1 *2637:D 5.0833e-05
2 *2484:X 5.0833e-05
3 *2637:D *2637:CLK 1.64343e-05
4 *2637:D *338:32 0.000150618
5 *2637:D *345:128 0.000152333
6 *2637:D *633:34 4.87669e-06
*RES
1 *2484:X *2637:D 29.7116 
*END

*D_NET *59 0.000610164
*CONN
*I *2638:D I *D sky130_fd_sc_hd__dfxtp_1
*I *2485:X O *D sky130_fd_sc_hd__mux2_1
*CAP
1 *2638:D 0.000228555
2 *2485:X 0.000228555
3 *2638:D *2452:A1 0
4 *2638:D *2937:A 0
5 *2638:D *339:44 0.000153054
*RES
1 *2485:X *2638:D 31.7652 
*END

*D_NET *60 0.000451309
*CONN
*I *2639:D I *D sky130_fd_sc_hd__dfxtp_1
*I *2486:X O *D sky130_fd_sc_hd__mux2_1
*CAP
1 *2639:D 0.000225654
2 *2486:X 0.000225654
3 *2639:D *2486:A0 0
4 *2639:D *2639:CLK 0
*RES
1 *2486:X *2639:D 31.3545 
*END

*D_NET *61 0.000644354
*CONN
*I *2640:D I *D sky130_fd_sc_hd__dfxtp_1
*I *2487:X O *D sky130_fd_sc_hd__mux2_1
*CAP
1 *2640:D 0.000113783
2 *2487:X 0.000113783
3 *2640:D *2464:S1 0.000150625
4 *2640:D *2607:S 7.32903e-05
5 *2640:D *323:120 0
6 *2640:D *650:84 0.000192872
*RES
1 *2487:X *2640:D 31.3545 
*END

*D_NET *62 0.00177824
*CONN
*I *2641:D I *D sky130_fd_sc_hd__dfxtp_1
*I *2490:X O *D sky130_fd_sc_hd__mux2_1
*CAP
1 *2641:D 0.000613153
2 *2490:X 0.000613153
3 *2641:D *2665:D 0
4 *2641:D *323:86 9.21935e-05
5 *2641:D *327:26 5.97496e-05
6 *2641:D *332:18 3.25247e-05
7 *2641:D *359:66 2.8266e-06
8 *2641:D *359:82 1.64343e-05
9 *2641:D *643:126 0
10 *2641:D *643:157 0.000348207
*RES
1 *2490:X *2641:D 36.8902 
*END

*D_NET *63 0.000811803
*CONN
*I *2642:D I *D sky130_fd_sc_hd__dfxtp_1
*I *2491:X O *D sky130_fd_sc_hd__mux2_1
*CAP
1 *2642:D 0.000208252
2 *2491:X 0.000208252
3 *2642:D *2491:A0 1.40415e-05
4 *2642:D *2980:A 0.000148923
5 *2642:D *633:22 7.92879e-05
6 *2642:D *639:26 0.000153047
*RES
1 *2491:X *2642:D 32.7116 
*END

*D_NET *64 0.000950042
*CONN
*I *2643:D I *D sky130_fd_sc_hd__dfxtp_1
*I *2492:X O *D sky130_fd_sc_hd__mux2_1
*CAP
1 *2643:D 0.000142826
2 *2492:X 0.000142826
3 *2643:D *2436:A2 0.000125731
4 *2643:D *2643:CLK 0.000231825
5 *2643:D *339:32 0.000127439
6 *2643:D *393:10 4.87953e-05
7 *2643:D *643:31 0.0001306
*RES
1 *2492:X *2643:D 32.6937 
*END

*D_NET *65 0.00128506
*CONN
*I *2644:D I *D sky130_fd_sc_hd__dfxtp_1
*I *2493:X O *D sky130_fd_sc_hd__mux2_1
*CAP
1 *2644:D 0.000176864
2 *2493:X 0.000176864
3 *2644:D *2440:S0 1.08359e-05
4 *2644:D *333:74 0.000495664
5 *2644:D *337:30 0.000153172
6 *2644:D *633:34 0.000271663
*RES
1 *2493:X *2644:D 33.9973 
*END

*D_NET *66 0.000365973
*CONN
*I *2645:D I *D sky130_fd_sc_hd__dfxtp_1
*I *2494:X O *D sky130_fd_sc_hd__mux2_1
*CAP
1 *2645:D 9.65368e-05
2 *2494:X 9.65368e-05
3 *2645:D *2494:A1 0.000172899
*RES
1 *2494:X *2645:D 20.658 
*END

*D_NET *67 0.000982798
*CONN
*I *2646:D I *D sky130_fd_sc_hd__dfxtp_1
*I *2495:X O *D sky130_fd_sc_hd__mux2_1
*CAP
1 *2646:D 0.000116647
2 *2495:X 0.000116647
3 *2646:D *2454:A3 8.359e-05
4 *2646:D *3001:A 0.00021377
5 *2646:D *354:26 2.14658e-05
6 *2646:D *633:50 0.000257582
7 *2646:D *639:111 0.000173097
*RES
1 *2495:X *2646:D 32.3009 
*END

*D_NET *68 0.00094215
*CONN
*I *2647:D I *D sky130_fd_sc_hd__dfxtp_1
*I *2496:X O *D sky130_fd_sc_hd__mux2_1
*CAP
1 *2647:D 0.000271216
2 *2496:X 0.000271216
3 *2647:D *2458:A0 0
4 *2647:D *2458:A1 0
5 *2647:D *2458:A3 6.65302e-05
6 *2647:D *2458:S0 0.000177428
7 *2647:D *2459:S1 0
8 *2647:D *2476:A0 0.000147136
9 *2647:D *2606:A0 0
10 *2647:D *323:102 8.6229e-06
11 *2647:D *323:114 0
12 *2647:D *654:16 0
*RES
1 *2496:X *2647:D 33.3723 
*END

*D_NET *69 0.00149833
*CONN
*I *2648:D I *D sky130_fd_sc_hd__dfxtp_1
*I *2497:X O *D sky130_fd_sc_hd__mux2_1
*CAP
1 *2648:D 0.000311136
2 *2497:X 0.000311136
3 *2648:D *2464:A0 2.79092e-05
4 *2648:D *2464:S0 0.000125279
5 *2648:D *2466:A3 0
6 *2648:D *2497:A1 0
7 *2648:D *2607:A0 0.00035441
8 *2648:D *2945:A 0.00014285
9 *2648:D *652:12 0.000225616
*RES
1 *2497:X *2648:D 35.8723 
*END

*D_NET *70 0.000571495
*CONN
*I *2649:D I *D sky130_fd_sc_hd__dfxtp_1
*I *2500:X O *D sky130_fd_sc_hd__mux2_1
*CAP
1 *2649:D 0.00013754
2 *2500:X 0.00013754
3 *2649:D *2787:CLK 9.71259e-06
4 *2649:D *2873:A 0.000168769
5 *2649:D *327:26 1.64343e-05
6 *2649:D *332:12 5.52238e-05
7 *2649:D *359:123 4.62739e-05
*RES
1 *2500:X *2649:D 30.5509 
*END

*D_NET *71 0.0013706
*CONN
*I *2650:D I *D sky130_fd_sc_hd__dfxtp_1
*I *2501:X O *D sky130_fd_sc_hd__mux2_1
*CAP
1 *2650:D 0.000293338
2 *2501:X 0.000293338
3 *2650:D *2520:A0 2.56694e-05
4 *2650:D *2788:CLK 0.000342495
5 *2650:D *332:155 0
6 *2650:D *342:67 0.000180999
7 *2650:D *361:12 4.18895e-05
8 *2650:D *361:16 0.000192872
*RES
1 *2501:X *2650:D 36.3187 
*END

*D_NET *72 0.000739656
*CONN
*I *2651:D I *D sky130_fd_sc_hd__dfxtp_1
*I *2502:X O *D sky130_fd_sc_hd__mux2_1
*CAP
1 *2651:D 0.000256807
2 *2502:X 0.000256807
3 *2651:D *2651:CLK 0
4 *2651:D *2667:D 0.000148911
5 *2651:D *336:81 7.71321e-05
*RES
1 *2502:X *2651:D 32.7652 
*END

*D_NET *73 0.000991802
*CONN
*I *2652:D I *D sky130_fd_sc_hd__dfxtp_1
*I *2503:X O *D sky130_fd_sc_hd__mux2_1
*CAP
1 *2652:D 0.000283294
2 *2503:X 0.000283294
3 *2652:D *2441:A2 0.000104982
4 *2652:D *2684:CLK 0.000147136
5 *2652:D *2790:CLK 0
6 *2652:D *2852:A 0.000103267
7 *2652:D *2928:A 6.98302e-05
8 *2652:D *573:12 0
*RES
1 *2503:X *2652:D 33.6759 
*END

*D_NET *74 0.000815509
*CONN
*I *2653:D I *D sky130_fd_sc_hd__dfxtp_1
*I *2504:X O *D sky130_fd_sc_hd__mux2_1
*CAP
1 *2653:D 0.000295534
2 *2504:X 0.000295534
3 *2653:D *2504:S 0.000124342
4 *2653:D *2791:D 8.36642e-05
5 *2653:D *3031:A 0
6 *2653:D *347:65 1.64343e-05
*RES
1 *2504:X *2653:D 33.4973 
*END

*D_NET *75 0.00108508
*CONN
*I *2654:D I *D sky130_fd_sc_hd__dfxtp_1
*I *2505:X O *D sky130_fd_sc_hd__mux2_1
*CAP
1 *2654:D 0.000457551
2 *2505:X 0.000457551
3 *2654:D *2524:A1 9.83442e-05
4 *2654:D *2654:CLK 5.95099e-05
5 *2654:D *310:22 1.21258e-05
*RES
1 *2505:X *2654:D 24.9616 
*END

*D_NET *76 0.000839276
*CONN
*I *2655:D I *D sky130_fd_sc_hd__dfxtp_1
*I *2506:X O *D sky130_fd_sc_hd__mux2_1
*CAP
1 *2655:D 0.000343891
2 *2506:X 0.000343891
3 *2655:D *389:8 5.71472e-05
4 *2655:D *653:25 4.20414e-05
5 *2655:D *653:43 5.23057e-05
*RES
1 *2506:X *2655:D 24.9616 
*END

*D_NET *77 0.00103002
*CONN
*I *2656:D I *D sky130_fd_sc_hd__dfxtp_1
*I *2507:X O *D sky130_fd_sc_hd__mux2_1
*CAP
1 *2656:D 0.000436652
2 *2507:X 0.000436652
3 *2656:D *2672:D 5.33978e-05
4 *2656:D *2906:A 0
5 *2656:D *332:80 0
6 *2656:D *353:26 0.000103323
7 *2656:D *353:30 0
8 *2656:D *353:39 0
9 *2656:D *390:10 0
10 *2656:D *651:71 0
*RES
1 *2507:X *2656:D 35.6937 
*END

*D_NET *78 0.00136493
*CONN
*I *2657:D I *D sky130_fd_sc_hd__dfxtp_1
*I *2510:X O *D sky130_fd_sc_hd__mux2_1
*CAP
1 *2657:D 0.000344515
2 *2510:X 0.000344515
3 *2657:D *2528:A0 7.83659e-05
4 *2657:D *2534:S 0.000141513
5 *2657:D *2657:CLK 2.99572e-05
6 *2657:D *331:31 7.31369e-05
7 *2657:D *333:12 1.70184e-05
8 *2657:D *340:10 0.000137983
9 *2657:D *648:117 0.000197929
*RES
1 *2510:X *2657:D 34.7786 
*END

*D_NET *79 0.000625491
*CONN
*I *2658:D I *D sky130_fd_sc_hd__dfxtp_1
*I *2511:X O *D sky130_fd_sc_hd__mux2_1
*CAP
1 *2658:D 6.75029e-05
2 *2511:X 6.75029e-05
3 *2658:D *285:24 0.000145377
4 *2658:D *338:22 0.000100831
5 *2658:D *642:37 0.000143447
6 *2658:D *665:46 0.000100831
*RES
1 *2511:X *2658:D 30.3366 
*END

*D_NET *80 0.0014318
*CONN
*I *2659:D I *D sky130_fd_sc_hd__dfxtp_1
*I *2512:X O *D sky130_fd_sc_hd__mux2_1
*CAP
1 *2659:D 0.000374382
2 *2512:X 0.000374382
3 *2659:D *2433:A0 0
4 *2659:D *3000:A 0
5 *2659:D *331:56 5.62995e-05
6 *2659:D *345:72 0.000528793
7 *2659:D *361:26 1.64343e-05
8 *2659:D *425:10 0
9 *2659:D *650:84 8.15095e-05
*RES
1 *2512:X *2659:D 35.5152 
*END

*D_NET *81 0.00150138
*CONN
*I *2660:D I *D sky130_fd_sc_hd__dfxtp_1
*I *2513:X O *D sky130_fd_sc_hd__mux2_1
*CAP
1 *2660:D 0.000613055
2 *2513:X 0.000613055
3 *2660:D *2531:A1 5.52238e-05
4 *2660:D *2533:S 0.000103301
5 *2660:D *2613:S 0.000116749
6 *2660:D *329:107 0
*RES
1 *2513:X *2660:D 37.3723 
*END

*D_NET *82 0.00120836
*CONN
*I *2661:D I *D sky130_fd_sc_hd__dfxtp_1
*I *2514:X O *D sky130_fd_sc_hd__mux2_1
*CAP
1 *2661:D 0.000432737
2 *2514:X 0.000432737
3 *2661:D *2445:S1 0
4 *2661:D *2447:S1 0
5 *2661:D *2448:A0 0.000198698
6 *2661:D *2448:A1 0
7 *2661:D *2532:A1 0.000144186
8 *2661:D *331:102 0
*RES
1 *2514:X *2661:D 35.8009 
*END

*D_NET *83 0.00114188
*CONN
*I *2662:D I *D sky130_fd_sc_hd__dfxtp_1
*I *2515:X O *D sky130_fd_sc_hd__mux2_1
*CAP
1 *2662:D 0.000166023
2 *2515:X 0.000166023
3 *2662:D *2451:A1 0.000175519
4 *2662:D *2453:S0 0
5 *2662:D *2505:S 3.52992e-05
6 *2662:D *2662:CLK 0.000144773
7 *2662:D *354:38 5.90354e-05
8 *2662:D *354:40 7.60306e-05
9 *2662:D *428:10 0.00031918
*RES
1 *2515:X *2662:D 33.8187 
*END

*D_NET *84 0.00062077
*CONN
*I *2663:D I *D sky130_fd_sc_hd__dfxtp_1
*I *2516:X O *D sky130_fd_sc_hd__mux2_1
*CAP
1 *2663:D 0.000139988
2 *2516:X 0.000139988
3 *2663:D *2434:S0 0
4 *2663:D *336:65 5.05456e-05
5 *2663:D *359:14 0.000144186
6 *2663:D *644:55 0.000146063
*RES
1 *2516:X *2663:D 30.9438 
*END

*D_NET *85 0.000370628
*CONN
*I *2664:D I *D sky130_fd_sc_hd__dfxtp_1
*I *2517:X O *D sky130_fd_sc_hd__mux2_1
*CAP
1 *2664:D 0.000119361
2 *2517:X 0.000119361
3 *2664:D *2473:S 0.000103323
4 *2664:D *2485:S 0
5 *2664:D *2517:A0 0
6 *2664:D *632:26 2.85826e-05
*RES
1 *2517:X *2664:D 29.9259 
*END

*D_NET *86 0.000923122
*CONN
*I *2665:D I *D sky130_fd_sc_hd__dfxtp_1
*I *2519:X O *D sky130_fd_sc_hd__mux2_1
*CAP
1 *2665:D 0.00027377
2 *2519:X 0.00027377
3 *2665:D *2500:S 0.000195555
4 *2665:D *323:64 0.000131874
5 *2665:D *327:26 1.98839e-05
6 *2665:D *359:123 2.82701e-05
7 *2641:D *2665:D 0
*RES
1 *2519:X *2665:D 32.783 
*END

*D_NET *87 0.000573795
*CONN
*I *2666:D I *D sky130_fd_sc_hd__dfxtp_1
*I *2520:X O *D sky130_fd_sc_hd__mux2_1
*CAP
1 *2666:D 0.00014966
2 *2520:X 0.00014966
3 *2666:D *337:28 8.16036e-05
4 *2666:D *643:23 0
5 *2666:D *644:49 0.000192872
*RES
1 *2520:X *2666:D 31.3545 
*END

*D_NET *88 0.00105726
*CONN
*I *2667:D I *D sky130_fd_sc_hd__dfxtp_1
*I *2521:X O *D sky130_fd_sc_hd__mux2_1
*CAP
1 *2667:D 0.00020016
2 *2521:X 0.00020016
3 *2667:D *2651:CLK 0
4 *2667:D *336:81 0.000320031
5 *2667:D *356:41 0.000187999
6 *2651:D *2667:D 0.000148911
*RES
1 *2521:X *2667:D 33.4795 
*END

*D_NET *89 0.000357995
*CONN
*I *2668:D I *D sky130_fd_sc_hd__dfxtp_1
*I *2522:X O *D sky130_fd_sc_hd__mux2_1
*CAP
1 *2668:D 0.000126374
2 *2522:X 0.000126374
3 *2668:D *2614:S 0.000105246
4 *2668:D *2852:A 0
5 *2668:D *354:42 0
*RES
1 *2522:X *2668:D 29.9259 
*END

*D_NET *90 0.000842503
*CONN
*I *2669:D I *D sky130_fd_sc_hd__dfxtp_1
*I *2523:X O *D sky130_fd_sc_hd__mux2_1
*CAP
1 *2669:D 0.000351084
2 *2523:X 0.000351084
3 *2669:D *2523:S 0.000123902
4 *2669:D *2669:CLK 1.64343e-05
5 *2669:D *3031:A 0
*RES
1 *2523:X *2669:D 32.408 
*END

*D_NET *91 0.000899038
*CONN
*I *2670:D I *D sky130_fd_sc_hd__dfxtp_1
*I *2524:X O *D sky130_fd_sc_hd__mux2_1
*CAP
1 *2670:D 0.000242011
2 *2524:X 0.000242011
3 *2670:D *2524:A1 0
4 *2670:D *2718:CLK 8.41467e-05
5 *2670:D *310:22 0
6 *2670:D *332:80 2.89114e-05
7 *2670:D *346:69 0.000128161
8 *2670:D *346:71 0.000173797
*RES
1 *2524:X *2670:D 32.7116 
*END

*D_NET *92 0.00044949
*CONN
*I *2671:D I *D sky130_fd_sc_hd__dfxtp_1
*I *2525:X O *D sky130_fd_sc_hd__mux2_1
*CAP
1 *2671:D 0.00019685
2 *2525:X 0.00019685
3 *2671:D *2671:CLK 0
4 *2671:D *332:52 5.57914e-05
*RES
1 *2525:X *2671:D 31.3545 
*END

*D_NET *93 0.00043888
*CONN
*I *2672:D I *D sky130_fd_sc_hd__dfxtp_1
*I *2526:X O *D sky130_fd_sc_hd__mux2_1
*CAP
1 *2672:D 0.000174883
2 *2526:X 0.000174883
3 *2672:D *2906:A 2.37761e-05
4 *2672:D *390:10 1.19402e-05
5 *2656:D *2672:D 5.33978e-05
*RES
1 *2526:X *2672:D 30.7473 
*END

*D_NET *94 0.00108778
*CONN
*I *2673:D I *D sky130_fd_sc_hd__dfxtp_1
*I *2528:X O *D sky130_fd_sc_hd__mux2_1
*CAP
1 *2673:D 0.000171896
2 *2528:X 0.000171896
3 *2673:D *2657:CLK 5.33005e-05
4 *2673:D *340:10 1.90936e-05
5 *2673:D *340:16 0.000322606
6 *2673:D *648:117 0.000331369
7 *2673:D *666:106 1.76204e-05
*RES
1 *2528:X *2673:D 32.6759 
*END

*D_NET *95 0.000951008
*CONN
*I *2674:D I *D sky130_fd_sc_hd__dfxtp_1
*I *2529:X O *D sky130_fd_sc_hd__mux2_1
*CAP
1 *2674:D 0.000285183
2 *2529:X 0.000285183
3 *2674:D *2425:A0 6.77822e-05
4 *2674:D *2425:A1 1.04232e-05
5 *2674:D *331:102 0.000222878
6 *2674:D *633:22 7.95581e-05
*RES
1 *2529:X *2674:D 33.408 
*END

*D_NET *96 0.00112351
*CONN
*I *2675:D I *D sky130_fd_sc_hd__dfxtp_1
*I *2530:X O *D sky130_fd_sc_hd__mux2_1
*CAP
1 *2675:D 0.000137465
2 *2530:X 0.000137465
3 *2675:D *2433:A0 2.22999e-05
4 *2675:D *2530:A1 0.000276369
5 *2675:D *3000:A 0.000100831
6 *2675:D *650:66 5.01213e-05
7 *28:17 *2675:D 0.00039896
*RES
1 *2530:X *2675:D 32.8009 
*END

*D_NET *97 0.000690424
*CONN
*I *2676:D I *D sky130_fd_sc_hd__dfxtp_1
*I *2531:X O *D sky130_fd_sc_hd__mux2_1
*CAP
1 *2676:D 0.000112444
2 *2531:X 0.000112444
3 *2676:D *2531:A1 7.83366e-05
4 *2676:D *329:107 0.000150625
5 *2676:D *331:110 0.000187724
6 *2676:D *370:12 4.88515e-05
*RES
1 *2531:X *2676:D 31.3545 
*END

*D_NET *98 0.00136053
*CONN
*I *2677:D I *D sky130_fd_sc_hd__dfxtp_1
*I *2532:X O *D sky130_fd_sc_hd__mux2_1
*CAP
1 *2677:D 0.000174305
2 *2532:X 0.000174305
3 *2677:D *331:102 0.000153163
4 *2677:D *333:122 0.000358543
5 *2677:D *443:10 0.000360308
6 *2677:D *642:113 0.000139907
*RES
1 *2532:X *2677:D 34.8187 
*END

*D_NET *99 0.000924686
*CONN
*I *2678:D I *D sky130_fd_sc_hd__dfxtp_1
*I *2533:X O *D sky130_fd_sc_hd__mux2_1
*CAP
1 *2678:D 0.000278238
2 *2533:X 0.000278238
3 *2678:D *2451:A1 7.67408e-05
4 *2678:D *2453:S0 7.63758e-05
5 *2678:D *2515:A1 6.74815e-05
6 *2678:D *2678:CLK 1.64343e-05
7 *2678:D *354:38 0
8 *2678:D *428:10 2.8266e-06
9 *2678:D *645:121 5.35423e-05
10 *2678:D *656:32 7.48091e-05
*RES
1 *2533:X *2678:D 33.8009 
*END

*D_NET *100 0.00105603
*CONN
*I *2679:D I *D sky130_fd_sc_hd__dfxtp_1
*I *2534:X O *D sky130_fd_sc_hd__mux2_1
*CAP
1 *2679:D 0.000196996
2 *2534:X 0.000196996
3 *2679:D *646:48 0.000450883
4 *2679:D *654:32 0.000129274
5 *2679:D *654:64 8.18783e-05
*RES
1 *2534:X *2679:D 24.9438 
*END

*D_NET *101 0.000349138
*CONN
*I *2680:D I *D sky130_fd_sc_hd__dfxtp_1
*I *2535:X O *D sky130_fd_sc_hd__mux2_1
*CAP
1 *2680:D 0.000122825
2 *2535:X 0.000122825
3 *2680:D *2463:A0 2.56694e-05
4 *2680:D *2535:A1 1.40415e-05
5 *2680:D *2908:A 1.64343e-05
6 *2680:D *339:40 7.01199e-06
7 *2680:D *637:104 0
8 *2680:D *639:111 4.03318e-05
*RES
1 *2535:X *2680:D 29.9438 
*END

*D_NET *102 0.000712086
*CONN
*I *2681:D I *D sky130_fd_sc_hd__dfxtp_1
*I *2537:X O *D sky130_fd_sc_hd__mux2_1
*CAP
1 *2681:D 0.000171982
2 *2537:X 0.000171982
3 *2681:D *2421:A3 0.000127439
4 *2681:D *2421:S0 9.1469e-05
5 *2681:D *2421:S1 3.42577e-05
6 *2681:D *2681:CLK 2.44472e-05
7 *2681:D *264:20 8.47011e-05
8 *2681:D *334:12 0
9 *2681:D *342:16 5.80706e-06
*RES
1 *2537:X *2681:D 32.3723 
*END

*D_NET *103 0.00108869
*CONN
*I *2682:D I *D sky130_fd_sc_hd__dfxtp_1
*I *2538:X O *D sky130_fd_sc_hd__mux2_1
*CAP
1 *2682:D 0.000230108
2 *2538:X 0.000230108
3 *2682:D *2987:A 0.000137983
4 *2682:D *340:16 0.000311021
5 *2682:D *361:12 1.64343e-05
6 *2682:D *664:54 0.000163038
*RES
1 *2538:X *2682:D 33.1937 
*END

*D_NET *104 0.00110647
*CONN
*I *2683:D I *D sky130_fd_sc_hd__dfxtp_1
*I *2539:X O *D sky130_fd_sc_hd__mux2_1
*CAP
1 *2683:D 0.000264348
2 *2539:X 0.000264348
3 *2683:D *334:74 0
4 *2683:D *356:39 0.000577776
*RES
1 *2539:X *2683:D 24.8366 
*END

*D_NET *105 0.000518899
*CONN
*I *2684:D I *D sky130_fd_sc_hd__dfxtp_1
*I *2540:X O *D sky130_fd_sc_hd__mux2_1
*CAP
1 *2684:D 0.000250156
2 *2540:X 0.000250156
3 *2684:D *2790:D 0
4 *2684:D *386:14 1.85861e-05
5 *2684:D *490:10 0
*RES
1 *2540:X *2684:D 31.5688 
*END

*D_NET *106 0.000531452
*CONN
*I *2685:D I *D sky130_fd_sc_hd__dfxtp_1
*I *2541:X O *D sky130_fd_sc_hd__mux2_1
*CAP
1 *2685:D 0.00015979
2 *2541:X 0.00015979
3 *2685:D *2541:A0 3.4879e-05
4 *2685:D *2850:A 0.000151333
5 *2685:D *2896:A 2.56601e-05
6 *2685:D *657:32 0
*RES
1 *2541:X *2685:D 30.658 
*END

*D_NET *107 0.000362072
*CONN
*I *2686:D I *D sky130_fd_sc_hd__dfxtp_1
*I *2542:X O *D sky130_fd_sc_hd__mux2_1
*CAP
1 *2686:D 0.000163182
2 *2542:X 0.000163182
3 *2686:D *334:80 3.5707e-05
*RES
1 *2542:X *2686:D 30.3366 
*END

*D_NET *108 0.0010172
*CONN
*I *2687:D I *D sky130_fd_sc_hd__dfxtp_1
*I *2543:X O *D sky130_fd_sc_hd__mux2_1
*CAP
1 *2687:D 0.000397621
2 *2543:X 0.000397621
3 *2687:D *2459:A1 2.56694e-05
4 *2687:D *2459:S0 7.14196e-06
5 *2687:D *2687:CLK 0.00010497
6 *2687:D *332:38 2.75856e-05
7 *2687:D *653:56 5.65955e-05
*RES
1 *2543:X *2687:D 35.2295 
*END

*D_NET *109 0.000944921
*CONN
*I *2688:D I *D sky130_fd_sc_hd__dfxtp_1
*I *2544:X O *D sky130_fd_sc_hd__mux2_1
*CAP
1 *2688:D 0.000331132
2 *2544:X 0.000331132
3 *2688:D *2465:A3 5.83233e-05
4 *2688:D *2465:S1 0.000102925
5 *2688:D *2552:S 0
6 *2688:D *2794:D 0
7 *2688:D *2916:A 2.84009e-05
8 *2688:D *320:22 4.87669e-06
9 *2688:D *353:22 9.51716e-06
10 *2688:D *651:65 7.8613e-05
*RES
1 *2544:X *2688:D 33.7473 
*END

*D_NET *110 0.000375294
*CONN
*I *2689:D I *D sky130_fd_sc_hd__dfxtp_1
*I *2547:X O *D sky130_fd_sc_hd__mux2_1
*CAP
1 *2689:D 0.000112028
2 *2547:X 0.000112028
3 *2689:D *327:53 5.01213e-05
4 *2689:D *336:61 0
5 *2689:D *646:82 0.000101117
*RES
1 *2547:X *2689:D 29.9259 
*END

*D_NET *111 0.000367841
*CONN
*I *2690:D I *D sky130_fd_sc_hd__dfxtp_1
*I *2548:X O *D sky130_fd_sc_hd__mux2_1
*CAP
1 *2690:D 0.000141917
2 *2548:X 0.000141917
3 *2690:D *2548:A1 5.35423e-05
4 *2690:D *2557:A0 1.40306e-05
5 *2690:D *2690:CLK 1.64343e-05
6 *2690:D *337:28 0
*RES
1 *2548:X *2690:D 30.2473 
*END

*D_NET *112 0.000582563
*CONN
*I *2691:D I *D sky130_fd_sc_hd__dfxtp_1
*I *2549:X O *D sky130_fd_sc_hd__mux2_1
*CAP
1 *2691:D 0.000173953
2 *2549:X 0.000173953
3 *2691:D *2549:A0 8.16036e-05
4 *2691:D *332:52 0.000153054
*RES
1 *2549:X *2691:D 31.3545 
*END

*D_NET *113 0.000783709
*CONN
*I *2692:D I *D sky130_fd_sc_hd__dfxtp_1
*I *2550:X O *D sky130_fd_sc_hd__mux2_1
*CAP
1 *2692:D 0.000364198
2 *2550:X 0.000364198
3 *2692:D *2467:S 0
4 *2692:D *2624:CLK 0
5 *2692:D *2692:CLK 1.64343e-05
6 *2692:D *2804:A 3.18676e-05
7 *2692:D *641:40 7.01199e-06
*RES
1 *2550:X *2692:D 32.408 
*END

*D_NET *114 0.000886889
*CONN
*I *2693:D I *D sky130_fd_sc_hd__dfxtp_1
*I *2551:X O *D sky130_fd_sc_hd__mux2_1
*CAP
1 *2693:D 0.00034797
2 *2551:X 0.00034797
3 *2693:D *2551:A0 0
4 *2693:D *2701:CLK 0
5 *2693:D *329:107 0
6 *2693:D *347:12 0.000190948
*RES
1 *2551:X *2693:D 34.0866 
*END

*D_NET *115 0.000887715
*CONN
*I *2694:D I *D sky130_fd_sc_hd__dfxtp_1
*I *2552:X O *D sky130_fd_sc_hd__mux2_1
*CAP
1 *2694:D 0.000160232
2 *2552:X 0.000160232
3 *2694:D *2561:A1 6.8646e-06
4 *2694:D *332:80 0.000175519
5 *2694:D *346:37 0.000153054
6 *2694:D *346:39 0.000231812
*RES
1 *2552:X *2694:D 32.0687 
*END

*D_NET *116 0.000620367
*CONN
*I *2695:D I *D sky130_fd_sc_hd__dfxtp_1
*I *2553:X O *D sky130_fd_sc_hd__mux2_1
*CAP
1 *2695:D 0.000166109
2 *2553:X 0.000166109
3 *2695:D *332:52 5.33882e-05
4 *2695:D *357:30 0.000234761
*RES
1 *2553:X *2695:D 31.158 
*END

*D_NET *117 0.000703328
*CONN
*I *2696:D I *D sky130_fd_sc_hd__dfxtp_1
*I *2554:X O *D sky130_fd_sc_hd__mux2_1
*CAP
1 *2696:D 0.00015776
2 *2554:X 0.00015776
3 *2696:D *2704:CLK 0
4 *2696:D *2729:CLK 0.000234761
5 *2696:D *336:81 0.000153047
6 *2696:D *353:39 0
*RES
1 *2554:X *2696:D 31.7652 
*END

*D_NET *118 0.000434546
*CONN
*I *2697:D I *D sky130_fd_sc_hd__dfxtp_1
*I *2556:X O *D sky130_fd_sc_hd__mux2_1
*CAP
1 *2697:D 9.76027e-05
2 *2556:X 9.76027e-05
3 *2697:D *327:53 0.00010326
4 *2697:D *358:61 0.000136081
*RES
1 *2556:X *2697:D 29.9259 
*END

*D_NET *119 0.000451327
*CONN
*I *2698:D I *D sky130_fd_sc_hd__dfxtp_1
*I *2557:X O *D sky130_fd_sc_hd__mux2_1
*CAP
1 *2698:D 6.86663e-05
2 *2557:X 6.86663e-05
3 *2698:D *2698:CLK 3.40781e-05
4 *2698:D *333:74 0.000127446
5 *2698:D *337:30 6.42338e-05
6 *2698:D *642:64 8.82363e-05
*RES
1 *2557:X *2698:D 30.1 
*END

*D_NET *120 0.00104627
*CONN
*I *2699:D I *D sky130_fd_sc_hd__dfxtp_1
*I *2558:X O *D sky130_fd_sc_hd__mux2_1
*CAP
1 *2699:D 0.000227779
2 *2558:X 0.000227779
3 *2699:D *2558:A1 8.90314e-05
4 *2699:D *2699:CLK 6.14332e-05
5 *2699:D *356:117 0.000440253
*RES
1 *2558:X *2699:D 24.8366 
*END

*D_NET *121 0.00146138
*CONN
*I *2700:D I *D sky130_fd_sc_hd__dfxtp_1
*I *2559:X O *D sky130_fd_sc_hd__mux2_1
*CAP
1 *2700:D 0.000250309
2 *2559:X 0.000250309
3 *2700:D *633:50 0.000494696
4 *2700:D *634:98 0.000316184
5 *2700:D *639:105 1.55885e-05
6 *2700:D *645:18 9.25014e-06
7 *2700:D *661:16 2.59355e-05
8 *2700:D *661:47 9.91086e-05
*RES
1 *2559:X *2700:D 34.5687 
*END

*D_NET *122 0.000518618
*CONN
*I *2701:D I *D sky130_fd_sc_hd__dfxtp_1
*I *2560:X O *D sky130_fd_sc_hd__mux2_1
*CAP
1 *2701:D 0.000198183
2 *2560:X 0.000198183
3 *2701:D *2443:A0 3.15832e-05
4 *2701:D *2551:A0 5.80706e-06
5 *2701:D *2701:CLK 0
6 *2701:D *639:73 8.48623e-05
*RES
1 *2560:X *2701:D 31.5688 
*END

*D_NET *123 0.000626741
*CONN
*I *2702:D I *D sky130_fd_sc_hd__dfxtp_1
*I *2561:X O *D sky130_fd_sc_hd__mux2_1
*CAP
1 *2702:D 0.000236847
2 *2561:X 0.000236847
3 *2702:D *2702:CLK 0
4 *2702:D *332:80 0.000153047
*RES
1 *2561:X *2702:D 32.1759 
*END

*D_NET *124 0.000403643
*CONN
*I *2703:D I *D sky130_fd_sc_hd__dfxtp_1
*I *2562:X O *D sky130_fd_sc_hd__mux2_1
*CAP
1 *2703:D 0.000183963
2 *2562:X 0.000183963
3 *2703:D *332:52 3.57163e-05
4 *2703:D *357:43 0
*RES
1 *2562:X *2703:D 30.7473 
*END

*D_NET *125 0.000531634
*CONN
*I *2704:D I *D sky130_fd_sc_hd__dfxtp_1
*I *2563:X O *D sky130_fd_sc_hd__mux2_1
*CAP
1 *2704:D 0.000189293
2 *2563:X 0.000189293
3 *2704:D *2704:CLK 0
4 *2704:D *618:14 0.000153047
*RES
1 *2563:X *2704:D 31.3545 
*END

*D_NET *126 0.000610637
*CONN
*I *2705:D I *D sky130_fd_sc_hd__dfxtp_1
*I *2565:X O *D sky130_fd_sc_hd__mux2_1
*CAP
1 *2705:D 0.000151149
2 *2565:X 0.000151149
3 *2705:D *2565:A0 7.83587e-05
4 *2705:D *332:155 7.80714e-06
5 *2705:D *337:28 0.000103253
6 *2705:D *337:83 9.90367e-05
7 *2705:D *666:86 1.98839e-05
*RES
1 *2565:X *2705:D 30.4616 
*END

*D_NET *127 0.00115462
*CONN
*I *2706:D I *D sky130_fd_sc_hd__dfxtp_1
*I *2566:X O *D sky130_fd_sc_hd__mux2_1
*CAP
1 *2706:D 0.000288129
2 *2566:X 0.000288129
3 *2706:D *2424:S0 0.000578359
*RES
1 *2566:X *2706:D 24.533 
*END

*D_NET *128 0.000470822
*CONN
*I *2707:D I *D sky130_fd_sc_hd__dfxtp_1
*I *2567:X O *D sky130_fd_sc_hd__mux2_1
*CAP
1 *2707:D 0.000158511
2 *2567:X 0.000158511
3 *2707:D *339:40 8.15939e-05
4 *2707:D *663:43 0
5 *28:17 *2707:D 7.22062e-05
*RES
1 *2567:X *2707:D 30.9438 
*END

*D_NET *129 0.000392926
*CONN
*I *2708:D I *D sky130_fd_sc_hd__dfxtp_1
*I *2568:X O *D sky130_fd_sc_hd__mux2_1
*CAP
1 *2708:D 0.000101357
2 *2568:X 0.000101357
3 *2708:D *2533:S 0.000101117
4 *2708:D *2852:A 5.33882e-05
5 *2708:D *3033:A 3.5707e-05
*RES
1 *2568:X *2708:D 29.9259 
*END

*D_NET *130 0.000538921
*CONN
*I *2709:D I *D sky130_fd_sc_hd__dfxtp_1
*I *2569:X O *D sky130_fd_sc_hd__mux2_1
*CAP
1 *2709:D 0.000195893
2 *2569:X 0.000195893
3 *2709:D *2447:S0 0
4 *2709:D *3031:A 0
5 *2709:D *347:129 0.000147136
*RES
1 *2569:X *2709:D 31.2473 
*END

*D_NET *131 0.000795983
*CONN
*I *2710:D I *D sky130_fd_sc_hd__dfxtp_1
*I *2570:X O *D sky130_fd_sc_hd__mux2_1
*CAP
1 *2710:D 0.000386621
2 *2570:X 0.000386621
3 *2710:D *436:8 2.27416e-05
*RES
1 *2570:X *2710:D 24.533 
*END

*D_NET *132 0.000695734
*CONN
*I *2711:D I *D sky130_fd_sc_hd__dfxtp_1
*I *2571:X O *D sky130_fd_sc_hd__mux2_1
*CAP
1 *2711:D 0.000119277
2 *2571:X 0.000119277
3 *2711:D *2571:A1 3.25247e-05
4 *2711:D *357:12 0.000195042
5 *2711:D *646:48 0.000229613
*RES
1 *2571:X *2711:D 31.158 
*END

*D_NET *133 0.000472413
*CONN
*I *2712:D I *D sky130_fd_sc_hd__dfxtp_1
*I *2572:X O *D sky130_fd_sc_hd__mux2_1
*CAP
1 *2712:D 0.000137416
2 *2572:X 0.000137416
3 *2712:D *2475:S 0
4 *2712:D *2597:S 5.33882e-05
5 *2712:D *353:102 0.000144193
*RES
1 *2572:X *2712:D 30.3366 
*END

*D_NET *134 0.000985307
*CONN
*I *2713:D I *D sky130_fd_sc_hd__dfxtp_1
*I *2574:X O *D sky130_fd_sc_hd__mux2_1
*CAP
1 *2713:D 0.000303884
2 *2574:X 0.000303884
3 *2713:D *329:96 7.66377e-05
4 *2713:D *331:31 0.000174145
5 *2713:D *342:67 2.42103e-05
6 *2713:D *439:16 0.000102545
*RES
1 *2574:X *2713:D 34.2295 
*END

*D_NET *135 0.00213112
*CONN
*I *2714:D I *D sky130_fd_sc_hd__dfxtp_1
*I *2575:X O *D sky130_fd_sc_hd__mux2_1
*CAP
1 *2714:D 0.000460844
2 *2575:X 0.000460844
3 *2714:D *2658:CLK 0.000529674
4 *2714:D *2897:A 7.90803e-05
5 *2714:D *2958:A 0.000221634
6 *2714:D *285:24 0.00015952
7 *2714:D *325:34 4.71964e-05
8 *2714:D *432:6 9.90367e-05
9 *2714:D *642:54 7.32903e-05
*RES
1 *2575:X *2714:D 37.6402 
*END

*D_NET *136 0.000699153
*CONN
*I *2715:D I *D sky130_fd_sc_hd__dfxtp_1
*I *2576:X O *D sky130_fd_sc_hd__mux2_1
*CAP
1 *2715:D 0.000192312
2 *2576:X 0.000192312
3 *2715:D *2576:S 0.000140933
4 *2715:D *2707:CLK 1.64343e-05
5 *2715:D *339:40 8.91726e-05
6 *2715:D *358:26 5.03694e-05
7 *2715:D *650:84 1.76204e-05
*RES
1 *2576:X *2715:D 31.3723 
*END

*D_NET *137 0.000742792
*CONN
*I *2716:D I *D sky130_fd_sc_hd__dfxtp_1
*I *2577:X O *D sky130_fd_sc_hd__mux2_1
*CAP
1 *2716:D 0.000161107
2 *2577:X 0.000161107
3 *2716:D *2676:CLK 0.000188006
4 *2716:D *3033:A 5.9483e-05
5 *2716:D *659:84 0.00017309
*RES
1 *2577:X *2716:D 31.658 
*END

*D_NET *138 0.000811321
*CONN
*I *2717:D I *D sky130_fd_sc_hd__dfxtp_1
*I *2578:X O *D sky130_fd_sc_hd__mux2_1
*CAP
1 *2717:D 0.000184557
2 *2578:X 0.000184557
3 *2717:D *2447:S0 0.000149904
4 *2717:D *2717:CLK 1.64343e-05
5 *2717:D *333:122 7.01199e-06
6 *2717:D *338:44 0.000101545
7 *2717:D *347:51 4.038e-06
8 *2717:D *347:55 9.69119e-06
9 *2717:D *347:129 0.000137983
10 *2717:D *435:6 1.56e-05
*RES
1 *2578:X *2717:D 31.908 
*END

*D_NET *139 0.000339864
*CONN
*I *2718:D I *D sky130_fd_sc_hd__dfxtp_1
*I *2579:X O *D sky130_fd_sc_hd__mux2_1
*CAP
1 *2718:D 8.45947e-05
2 *2579:X 8.45947e-05
3 *2718:D *2848:A 0.000153054
4 *2718:D *641:50 1.76204e-05
5 *2718:D *655:62 0
*RES
1 *2579:X *2718:D 29.7116 
*END

*D_NET *140 0.000297042
*CONN
*I *2719:D I *D sky130_fd_sc_hd__dfxtp_1
*I *2580:X O *D sky130_fd_sc_hd__mux2_1
*CAP
1 *2719:D 0.000122655
2 *2580:X 0.000122655
3 *2719:D *2460:A2 3.32132e-06
4 *2719:D *2571:A0 2.56694e-05
5 *2719:D *2580:A1 0
6 *2719:D *334:66 0
7 *2719:D *341:42 2.27416e-05
*RES
1 *2580:X *2719:D 29.6402 
*END

*D_NET *141 0.00106844
*CONN
*I *2720:D I *D sky130_fd_sc_hd__dfxtp_1
*I *2581:X O *D sky130_fd_sc_hd__mux2_1
*CAP
1 *2720:D 0.000464042
2 *2581:X 0.000464042
3 *2720:D *2475:S 0.000101545
4 *2720:D *2597:S 0
5 *2720:D *645:72 3.88139e-05
*RES
1 *2581:X *2720:D 34.5687 
*END

*D_NET *142 0.000777036
*CONN
*I *2722:D I *D sky130_fd_sc_hd__dfxtp_1
*I *2583:X O *D sky130_fd_sc_hd__mux2_1
*CAP
1 *2722:D 0.000208102
2 *2583:X 0.000208102
3 *2722:D *2592:A0 0.000105246
4 *2722:D *2747:D 0.000102545
5 *2722:D *2870:A 5.17614e-05
6 *2722:D *471:8 4.88515e-05
7 *2722:D *670:80 5.24274e-05
*RES
1 *2583:X *2722:D 32.408 
*END

*D_NET *143 0.00204759
*CONN
*I *2723:D I *D sky130_fd_sc_hd__dfxtp_1
*I *2584:X O *D sky130_fd_sc_hd__mux2_1
*CAP
1 *2723:D 0.000348879
2 *2584:X 0.000348879
3 *2723:D *2424:A2 0.000406788
4 *2723:D *2593:A1 7.43578e-06
5 *2723:D *2855:A 7.12756e-05
6 *2723:D *340:24 8.85786e-05
7 *2723:D *361:10 0.000104974
8 *2723:D *456:10 5.52238e-05
9 *2723:D *642:64 0.000363994
10 *2723:D *664:10 0.000111242
11 *2723:D *664:28 0.000140321
*RES
1 *2584:X *2723:D 39.3009 
*END

*D_NET *144 0.00199507
*CONN
*I *2724:D I *D sky130_fd_sc_hd__dfxtp_1
*I *2585:X O *D sky130_fd_sc_hd__mux2_1
*CAP
1 *2724:D 0.000642489
2 *2585:X 0.000642489
3 *2724:D *2432:A2 6.98553e-06
4 *2724:D *2432:A3 3.07863e-05
5 *2724:D *2432:S1 5.996e-05
6 *2724:D *2558:A0 0.000142038
7 *2724:D *2724:CLK 8.89117e-05
8 *2724:D *2950:A 0
9 *2724:D *3030:A 0.000100262
10 *2724:D *292:16 1.7494e-05
11 *2724:D *337:97 0
12 *2724:D *337:107 0
13 *2724:D *342:36 0.000263656
*RES
1 *2585:X *2724:D 48.3321 
*END

*D_NET *145 0.0014663
*CONN
*I *2725:D I *D sky130_fd_sc_hd__dfxtp_1
*I *2586:X O *D sky130_fd_sc_hd__mux2_1
*CAP
1 *2725:D 0.000535235
2 *2586:X 0.000535235
3 *2725:D *2438:A1 5.33433e-05
4 *2725:D *2550:S 0.00012715
5 *2725:D *2954:A 0.000161947
6 *2725:D *329:107 0
7 *2725:D *342:75 5.33882e-05
*RES
1 *2586:X *2725:D 37.3187 
*END

*D_NET *146 0.00191901
*CONN
*I *2726:D I *D sky130_fd_sc_hd__dfxtp_1
*I *2587:X O *D sky130_fd_sc_hd__mux2_1
*CAP
1 *2726:D 0.000612589
2 *2587:X 0.000612589
3 *2726:D *2444:S1 4.57445e-05
4 *2726:D *2587:S 9.60875e-05
5 *2726:D *2726:CLK 5.71472e-05
6 *2726:D *2797:A 0.000126439
7 *2726:D *2826:A 0.000313241
8 *2726:D *459:10 5.51689e-05
*RES
1 *2587:X *2726:D 39.4036 
*END

*D_NET *147 0.000383355
*CONN
*I *2727:D I *D sky130_fd_sc_hd__dfxtp_1
*I *2588:X O *D sky130_fd_sc_hd__mux2_1
*CAP
1 *2727:D 0.00013533
2 *2588:X 0.00013533
3 *2727:D *2465:S1 8.39e-05
4 *2727:D *476:8 9.51716e-06
5 *2727:D *655:92 1.92789e-05
*RES
1 *2588:X *2727:D 30.2473 
*END

*D_NET *148 0.000338366
*CONN
*I *2728:D I *D sky130_fd_sc_hd__dfxtp_1
*I *2589:X O *D sky130_fd_sc_hd__mux2_1
*CAP
1 *2728:D 8.9775e-05
2 *2589:X 8.9775e-05
3 *2728:D *2562:S 5.24274e-05
4 *2728:D *2905:A 0
5 *2728:D *357:26 2.22418e-05
6 *2728:D *477:8 8.41467e-05
*RES
1 *2589:X *2728:D 29.7473 
*END

*D_NET *149 0.00139073
*CONN
*I *2729:D I *D sky130_fd_sc_hd__dfxtp_1
*I *2590:X O *D sky130_fd_sc_hd__mux2_1
*CAP
1 *2729:D 0.000382492
2 *2590:X 0.000382492
3 *2729:D *2462:A1 0.000145644
4 *2729:D *2616:S 0.000151333
5 *2729:D *632:26 0.000230432
6 *2729:D *645:101 9.83388e-05
*RES
1 *2590:X *2729:D 35.1759 
*END

*D_NET *150 0.0019686
*CONN
*I *2747:D I *D sky130_fd_sc_hd__dfxtp_1
*I *2592:X O *D sky130_fd_sc_hd__mux2_1
*CAP
1 *2747:D 0.000508248
2 *2592:X 0.000508248
3 *2747:D *2418:A2 1.62544e-05
4 *2747:D *2418:A3 7.17836e-05
5 *2747:D *2418:S0 4.02345e-05
6 *2747:D *2619:RESET_B 0.000114993
7 *2747:D *2870:A 7.83659e-05
8 *2747:D *2875:A 5.95378e-05
9 *2747:D *337:83 0.000107849
10 *2747:D *358:10 0.000170546
11 *2747:D *358:14 0.00014493
12 *2747:D *643:116 3.72596e-05
13 *2747:D *670:80 7.80714e-06
14 *2722:D *2747:D 0.000102545
*RES
1 *2592:X *2747:D 40.3545 
*END

*D_NET *151 0.00180852
*CONN
*I *2748:D I *D sky130_fd_sc_hd__dfxtp_1
*I *2593:X O *D sky130_fd_sc_hd__mux2_1
*CAP
1 *2748:D 0.000170006
2 *2593:X 0.000170006
3 *2748:D *2424:A0 7.83659e-05
4 *2748:D *2483:S 0.00067187
5 *2748:D *2706:CLK 6.75007e-05
6 *2748:D *2931:A 0.000134304
7 *2748:D *340:24 0
8 *2748:D *341:105 1.37292e-05
9 *2748:D *360:33 0.00050274
*RES
1 *2593:X *2748:D 36.1759 
*END

*D_NET *152 0.00172957
*CONN
*I *2749:D I *D sky130_fd_sc_hd__dfxtp_1
*I *2594:X O *D sky130_fd_sc_hd__mux2_1
*CAP
1 *2749:D 0.000319744
2 *2594:X 0.000319744
3 *2749:D *340:100 0.000163584
4 *2749:D *356:107 0.000482995
5 *2749:D *449:10 0.000127439
6 *2749:D *646:27 0.00021693
7 *2749:D *646:42 9.9129e-05
*RES
1 *2594:X *2749:D 36.3545 
*END

*D_NET *153 0.00138857
*CONN
*I *2750:D I *D sky130_fd_sc_hd__dfxtp_1
*I *2595:X O *D sky130_fd_sc_hd__mux2_1
*CAP
1 *2750:D 0.000216384
2 *2595:X 0.000216384
3 *2750:D *297:24 0.000526449
4 *2750:D *299:16 3.25078e-05
5 *2750:D *337:30 3.06406e-05
6 *2750:D *450:12 7.83659e-05
7 *2750:D *634:98 0.00023366
8 *2750:D *637:90 5.41794e-05
*RES
1 *2595:X *2750:D 34.6402 
*END

*D_NET *154 0.000443529
*CONN
*I *2751:D I *D sky130_fd_sc_hd__dfxtp_1
*I *2596:X O *D sky130_fd_sc_hd__mux2_1
*CAP
1 *2751:D 0.000118044
2 *2596:X 0.000118044
3 *2751:D *2443:A0 0
4 *2751:D *2596:S 7.8327e-05
5 *2751:D *347:34 1.02504e-05
6 *2751:D *347:47 8.82363e-05
7 *2751:D *639:73 3.0627e-05
*RES
1 *2596:X *2751:D 30.4036 
*END

*D_NET *155 0.00121536
*CONN
*I *2752:D I *D sky130_fd_sc_hd__dfxtp_1
*I *2597:X O *D sky130_fd_sc_hd__mux2_1
*CAP
1 *2752:D 0.000436457
2 *2597:X 0.000436457
3 *2752:D *2948:A 0.000139202
4 *2752:D *334:80 5.26184e-05
5 *2752:D *641:77 0.000150625
*RES
1 *2597:X *2752:D 35.8723 
*END

*D_NET *156 0.00029601
*CONN
*I *2753:D I *D sky130_fd_sc_hd__dfxtp_1
*I *2598:X O *D sky130_fd_sc_hd__mux2_1
*CAP
1 *2753:D 0.000137611
2 *2598:X 0.000137611
3 *2753:D *2753:CLK 2.07878e-05
*RES
1 *2598:X *2753:D 20.658 
*END

*D_NET *157 0.000377904
*CONN
*I *2754:D I *D sky130_fd_sc_hd__dfxtp_1
*I *2599:X O *D sky130_fd_sc_hd__mux2_1
*CAP
1 *2754:D 0.000104073
2 *2599:X 0.000104073
3 *2754:D *2844:A 0.000169758
*RES
1 *2599:X *2754:D 20.658 
*END

*D_NET *158 0.00115746
*CONN
*I *2779:D I *D sky130_fd_sc_hd__dfxtp_1
*I *2600:X O *D sky130_fd_sc_hd__mux2_1
*CAP
1 *2779:D 0.000449436
2 *2600:X 0.000449436
3 *2779:D *2633:CLK 0.00012401
4 *2779:D *327:53 0
5 *2779:D *666:28 0.000123743
6 *2625:D *2779:D 1.08359e-05
*RES
1 *2600:X *2779:D 35.6402 
*END

*D_NET *159 0.000346877
*CONN
*I *2780:D I *D sky130_fd_sc_hd__dfxtp_1
*I *2601:X O *D sky130_fd_sc_hd__mux2_1
*CAP
1 *2780:D 0.000173439
2 *2601:X 0.000173439
3 *2780:D *325:26 0
4 *2780:D *341:103 0
*RES
1 *2601:X *2780:D 30.3366 
*END

*D_NET *160 0.00104196
*CONN
*I *2781:D I *D sky130_fd_sc_hd__dfxtp_1
*I *2602:X O *D sky130_fd_sc_hd__mux2_1
*CAP
1 *2781:D 0.00045879
2 *2602:X 0.00045879
3 *2781:D *323:114 7.26935e-05
4 *2781:D *323:120 5.16852e-05
5 *2781:D *644:55 0
*RES
1 *2602:X *2781:D 35.1402 
*END

*D_NET *161 0.00130792
*CONN
*I *2782:D I *D sky130_fd_sc_hd__dfxtp_1
*I *2603:X O *D sky130_fd_sc_hd__mux2_1
*CAP
1 *2782:D 0.0001401
2 *2603:X 0.0001401
3 *2782:D *2535:S 0.00043983
4 *2782:D *2624:RESET_B 0.000100823
5 *2782:D *2782:CLK 0.000229607
6 *2782:D *333:74 7.83587e-05
7 *2782:D *345:22 1.08359e-05
8 *2782:D *355:75 0.000168264
*RES
1 *2603:X *2782:D 33.2116 
*END

*D_NET *162 0.000505987
*CONN
*I *2783:D I *D sky130_fd_sc_hd__dfxtp_1
*I *2604:X O *D sky130_fd_sc_hd__mux2_1
*CAP
1 *2783:D 5.61795e-05
2 *2604:X 5.61795e-05
3 *2783:D *2446:A2 0.000105689
4 *2783:D *2446:A3 1.76204e-05
5 *2783:D *2446:S1 0.000175519
6 *2783:D *2961:A 7.83659e-05
7 *2783:D *348:36 1.64343e-05
*RES
1 *2604:X *2783:D 30.0152 
*END

*D_NET *163 0.000594496
*CONN
*I *2784:D I *D sky130_fd_sc_hd__dfxtp_1
*I *2605:X O *D sky130_fd_sc_hd__mux2_1
*CAP
1 *2784:D 0.000280515
2 *2605:X 0.000280515
3 *2784:D *339:44 0
4 *2784:D *633:50 0
5 *2784:D *655:75 3.34672e-05
*RES
1 *2605:X *2784:D 31.9795 
*END

*D_NET *164 0.000350601
*CONN
*I *2785:D I *D sky130_fd_sc_hd__dfxtp_1
*I *2606:X O *D sky130_fd_sc_hd__mux2_1
*CAP
1 *2785:D 0.000104694
2 *2606:X 0.000104694
3 *2785:D *2460:A1 0.000103267
4 *2631:D *2785:D 3.79467e-05
*RES
1 *2606:X *2785:D 29.9259 
*END

*D_NET *165 0.00115826
*CONN
*I *2786:D I *D sky130_fd_sc_hd__dfxtp_1
*I *2607:X O *D sky130_fd_sc_hd__mux2_1
*CAP
1 *2786:D 0.000314224
2 *2607:X 0.000314224
3 *2786:D *2464:S0 0.000174534
4 *2786:D *2607:A0 3.47468e-05
5 *2786:D *2844:A 1.64343e-05
6 *2786:D *323:120 0.000107018
7 *2786:D *646:16 4.66203e-05
8 *2786:D *650:84 0.000127439
9 *2632:D *2786:D 2.30218e-05
*RES
1 *2607:X *2786:D 35.033 
*END

*D_NET *166 0.000657404
*CONN
*I *2787:D I *D sky130_fd_sc_hd__dfxtp_1
*I *2609:X O *D sky130_fd_sc_hd__mux2_1
*CAP
1 *2787:D 0.000128572
2 *2609:X 0.000128572
3 *2787:D *2423:A1 0.000154762
4 *2787:D *2877:A 0.000151333
5 *2787:D *325:67 9.41642e-05
*RES
1 *2609:X *2787:D 30.658 
*END

*D_NET *167 0.00175499
*CONN
*I *2788:D I *D sky130_fd_sc_hd__dfxtp_1
*I *2610:X O *D sky130_fd_sc_hd__mux2_1
*CAP
1 *2788:D 0.000315761
2 *2610:X 0.000315761
3 *2788:D *2520:A1 0.000185057
4 *2788:D *2957:A 0.000146545
5 *2788:D *336:10 0.000651554
6 *2788:D *342:67 0.000108305
7 *2788:D *342:75 3.2006e-05
*RES
1 *2610:X *2788:D 37.7295 
*END

*D_NET *168 0.000853567
*CONN
*I *2789:D I *D sky130_fd_sc_hd__dfxtp_1
*I *2611:X O *D sky130_fd_sc_hd__mux2_1
*CAP
1 *2789:D 0.000388855
2 *2611:X 0.000388855
3 *2789:D *2789:CLK 7.58571e-05
4 *2789:D *2884:A 0
5 *2789:D *2904:A 0
6 *2789:D *337:107 0
*RES
1 *2611:X *2789:D 34.5687 
*END

*D_NET *169 0.0011587
*CONN
*I *2790:D I *D sky130_fd_sc_hd__dfxtp_1
*I *2612:X O *D sky130_fd_sc_hd__mux2_1
*CAP
1 *2790:D 0.000397726
2 *2612:X 0.000397726
3 *2790:D *2441:S1 4.48113e-05
4 *2790:D *2540:A1 0.000147136
5 *2790:D *3033:A 0
6 *2790:D *300:14 0
7 *2790:D *334:93 0.000149059
8 *2790:D *659:29 2.22371e-05
9 *2684:D *2790:D 0
*RES
1 *2612:X *2790:D 35.1937 
*END

*D_NET *170 0.00112153
*CONN
*I *2791:D I *D sky130_fd_sc_hd__dfxtp_1
*I *2613:X O *D sky130_fd_sc_hd__mux2_1
*CAP
1 *2791:D 0.000305817
2 *2613:X 0.000305817
3 *2791:D *2504:S 5.33005e-05
4 *2791:D *2523:A0 7.83366e-05
5 *2791:D *2523:A1 0.00020112
6 *2791:D *2541:S 1.76204e-05
7 *2791:D *2791:CLK 7.58571e-05
8 *2791:D *3031:A 0
9 *2653:D *2791:D 8.36642e-05
*RES
1 *2613:X *2791:D 35.1045 
*END

*D_NET *171 0.00112955
*CONN
*I *2792:D I *D sky130_fd_sc_hd__dfxtp_1
*I *2614:X O *D sky130_fd_sc_hd__mux2_1
*CAP
1 *2792:D 0.00046044
2 *2614:X 0.00046044
3 *2792:D *2614:A1 0.000139913
4 *2792:D *492:12 6.87574e-05
*RES
1 *2614:X *2792:D 26.8902 
*END

*D_NET *172 0.000624303
*CONN
*I *2793:D I *D sky130_fd_sc_hd__dfxtp_1
*I *2615:X O *D sky130_fd_sc_hd__mux2_1
*CAP
1 *2793:D 0.000210864
2 *2615:X 0.000210864
3 *2793:D *2687:CLK 5.9199e-05
4 *2793:D *332:38 0.000143375
*RES
1 *2615:X *2793:D 30.8723 
*END

*D_NET *173 0.00201848
*CONN
*I *2794:D I *D sky130_fd_sc_hd__dfxtp_1
*I *2616:X O *D sky130_fd_sc_hd__mux2_1
*CAP
1 *2794:D 0.000712923
2 *2616:X 0.000712923
3 *2794:D *2465:S1 0
4 *2794:D *2544:A0 0.000458977
5 *2794:D *2544:S 3.6337e-05
6 *2794:D *494:14 9.73237e-05
7 *2688:D *2794:D 0
*RES
1 *2616:X *2794:D 40.9437 
*END

*D_NET *174 0.00142252
*CONN
*I *2381:A I *D sky130_fd_sc_hd__nand2_1
*I *2380:A I *D sky130_fd_sc_hd__nor2_1
*I *2290:Y O *D sky130_fd_sc_hd__inv_2
*CAP
1 *2381:A 1.24159e-05
2 *2380:A 7.28106e-05
3 *2290:Y 0.000328905
4 *174:8 0.000414131
5 *2380:A *2381:B 4.50908e-05
6 *2380:A *2388:D_N 4.87953e-05
7 *2381:A *2381:B 5.7661e-06
8 *2381:A *2386:A 0
9 *174:8 *2383:A 4.14591e-05
10 *174:8 *2386:A 0.000399841
11 *174:8 *2386:B 5.33005e-05
*RES
1 *2290:Y *174:8 15.6036 
2 *174:8 *2380:A 11.0857 
3 *174:8 *2381:A 9.72857 
*END

*D_NET *175 0.00512551
*CONN
*I *2305:A I *D sky130_fd_sc_hd__or2_1
*I *2307:A I *D sky130_fd_sc_hd__xnor2_1
*I *2478:A I *D sky130_fd_sc_hd__nand2_4
*I *2468:A I *D sky130_fd_sc_hd__or3b_4
*I *2291:Y O *D sky130_fd_sc_hd__inv_2
*CAP
1 *2305:A 0.000212462
2 *2307:A 0.000142511
3 *2478:A 0
4 *2468:A 0.000231201
5 *2291:Y 4.72366e-05
6 *175:40 0.000797545
7 *175:16 0.000627467
8 *175:6 0.000886075
9 *2305:A *2305:B 0.000130419
10 *2305:A *188:16 0.000227532
11 *2307:A *2306:A 6.8646e-06
12 *2307:A *2307:B 0.000169405
13 *2307:A *2740:D 0.00021189
14 *2307:A *188:16 0.000175526
15 *2307:A *190:21 0
16 *2468:A *2368:B 0
17 *2468:A *2370:A 1.92789e-05
18 *2468:A *2370:B 9.90431e-05
19 *2468:A *2468:B 0.000186662
20 *2468:A *2743:D 0
21 *2468:A *249:16 1.39841e-05
22 *2468:A *322:10 6.09476e-05
23 *2468:A *324:12 2.8266e-06
24 *2468:A *326:12 0
25 *175:6 *2291:A 5.52238e-05
26 *175:16 *2291:A 7.77652e-05
27 *175:16 *2368:B 0.00022459
28 *175:16 *2368:C 2.27416e-05
29 *175:16 *2370:A 1.3701e-05
30 *175:16 *2370:B 2.754e-05
31 *175:16 *249:16 0.000365463
32 *175:16 *324:12 6.71327e-05
33 *175:16 *730:29 2.24763e-05
*RES
1 *2291:Y *175:6 10.2464 
2 *175:6 *175:16 9.53571 
3 *175:16 *2468:A 23.5679 
4 *175:16 *2478:A 9.3 
5 *175:6 *175:40 6.71429 
6 *175:40 *2307:A 23.2821 
7 *175:40 *2305:A 13.9429 
*END

*D_NET *176 0.00241792
*CONN
*I *2308:A1 I *D sky130_fd_sc_hd__a21o_1
*I *2325:A1 I *D sky130_fd_sc_hd__a211o_1
*I *2322:A I *D sky130_fd_sc_hd__nand3_1
*I *2324:A1_N I *D sky130_fd_sc_hd__a2bb2o_1
*I *2292:Y O *D sky130_fd_sc_hd__inv_2
*CAP
1 *2308:A1 0
2 *2325:A1 0.000110083
3 *2322:A 5.21693e-05
4 *2324:A1_N 0
5 *2292:Y 0.000449789
6 *176:12 5.21693e-05
7 *176:10 0.000213716
8 *176:6 0.000553423
9 *2322:A *2324:B1 0
10 *2322:A *190:30 0.000151356
11 *2322:A *191:12 7.48091e-05
12 *2325:A1 *2324:B2 9.10431e-06
13 *2325:A1 *2325:A2 9.01334e-05
14 *2325:A1 *2325:B1 0.000128154
15 *2325:A1 *2325:C1 5.52302e-05
16 *2325:A1 *2740:RESET_B 1.9643e-05
17 *176:6 *2306:A 9.90431e-05
18 *176:6 *2306:B 4.43256e-05
19 *176:6 *2308:A2 0.00014183
20 *176:10 *2308:B1 9.24203e-05
21 *176:10 *2323:A2 0
22 *176:10 *2324:B2 4.1331e-06
23 *176:10 *2740:RESET_B 7.63851e-05
24 *176:10 *194:12 0
*RES
1 *2292:Y *176:6 16.4071 
2 *176:6 *176:10 7.35714 
3 *176:10 *176:12 4.5 
4 *176:12 *2324:A1_N 9.3 
5 *176:12 *2322:A 11.0857 
6 *176:10 *2325:A1 16.8893 
7 *176:6 *2308:A1 9.3 
*END

*D_NET *177 0.00198982
*CONN
*I *2317:B1 I *D sky130_fd_sc_hd__a21o_1
*I *2328:A1 I *D sky130_fd_sc_hd__a32o_1
*I *2293:Y O *D sky130_fd_sc_hd__inv_2
*CAP
1 *2317:B1 0
2 *2328:A1 0.000231756
3 *2293:Y 0.000382818
4 *177:10 0.000614574
5 *2328:A1 *2317:A1 0.000106376
6 *2328:A1 *2328:A2 0.000175643
7 *2328:A1 *2328:B1 1.74352e-05
8 *2328:A1 *2329:B 2.95641e-05
9 *177:10 *2329:A 5.71472e-05
10 *177:10 *2329:B 0.000223441
11 *177:10 *2741:D 0.000151061
*RES
1 *2293:Y *177:10 18.1929 
2 *177:10 *2328:A1 14.175 
3 *177:10 *2317:B1 9.3 
*END

*D_NET *178 0.00146074
*CONN
*I *2327:A1 I *D sky130_fd_sc_hd__a32o_1
*I *2319:B1 I *D sky130_fd_sc_hd__a21o_1
*I *2294:Y O *D sky130_fd_sc_hd__inv_2
*CAP
1 *2327:A1 0.000208832
2 *2319:B1 0
3 *2294:Y 0.000426467
4 *178:12 0.000635299
5 *2327:A1 *2319:A1 2.44318e-05
6 *2327:A1 *2319:A2 0.000142856
7 *2327:A1 *2327:A2 2.28499e-05
*RES
1 *2294:Y *178:12 24.4429 
2 *178:12 *2319:B1 9.3 
3 *178:12 *2327:A1 13.5679 
*END

*D_NET *179 0.000957176
*CONN
*I *2326:A1 I *D sky130_fd_sc_hd__a32o_1
*I *2321:B1 I *D sky130_fd_sc_hd__a21o_1
*I *2295:Y O *D sky130_fd_sc_hd__inv_2
*CAP
1 *2326:A1 0.000210522
2 *2321:B1 0
3 *2295:Y 0.000168694
4 *179:12 0.000379216
5 *2326:A1 *2321:A2 0.000142856
6 *2326:A1 *2326:A2 5.00818e-05
7 *179:12 *2326:B1 0
8 *179:12 *195:12 5.80706e-06
*RES
1 *2295:Y *179:12 20.4786 
2 *179:12 *2321:B1 9.3 
3 *179:12 *2326:A1 13.1393 
*END

*D_NET *180 0.00123644
*CONN
*I *2323:B1 I *D sky130_fd_sc_hd__a21o_1
*I *2324:B2 I *D sky130_fd_sc_hd__a2bb2o_1
*I *2296:Y O *D sky130_fd_sc_hd__inv_2
*CAP
1 *2323:B1 2.23854e-05
2 *2324:B2 0.000193367
3 *2296:Y 5.25342e-05
4 *180:6 0.000268287
5 *2324:B2 *2323:A2 3.77061e-05
6 *2324:B2 *2324:B1 5.71472e-05
7 *2324:B2 *2325:A2 0.000153054
8 *2324:B2 *2325:C1 0.000122101
9 *2324:B2 *2326:B1 1.24368e-05
10 *2324:B2 *2326:B2 0.00011241
11 *180:6 *2325:C1 0.000105163
12 *180:6 *2326:B1 8.66063e-05
13 *2325:A1 *2324:B2 9.10431e-06
14 *176:10 *2324:B2 4.1331e-06
*RES
1 *2296:Y *180:6 11.0679 
2 *180:6 *2324:B2 23.2643 
3 *180:6 *2323:B1 9.72857 
*END

*D_NET *181 0.00106557
*CONN
*I *2325:C1 I *D sky130_fd_sc_hd__a211o_1
*I *2297:Y O *D sky130_fd_sc_hd__inv_2
*CAP
1 *2325:C1 0.000391537
2 *2297:Y 0.000391537
3 *2324:B2 *2325:C1 0.000122101
4 *2325:A1 *2325:C1 5.52302e-05
5 *180:6 *2325:C1 0.000105163
*RES
1 *2297:Y *2325:C1 26.1357 
*END

*D_NET *182 0.00134985
*CONN
*I *2362:A1 I *D sky130_fd_sc_hd__a32o_1
*I *2352:B1 I *D sky130_fd_sc_hd__a21o_1
*I *2298:Y O *D sky130_fd_sc_hd__inv_2
*CAP
1 *2362:A1 0.000346823
2 *2352:B1 5.81018e-05
3 *2298:Y 3.21518e-05
4 *182:6 0.000437077
5 *2352:B1 *2362:B1 9.90367e-05
6 *2362:A1 *2352:A1 0
7 *2362:A1 *2352:A2 3.66478e-05
8 *2362:A1 *2362:B1 0.000340007
*RES
1 *2298:Y *182:6 9.83571 
2 *182:6 *2352:B1 10.6571 
3 *182:6 *2362:A1 14.6929 
*END

*D_NET *183 0.00260008
*CONN
*I *2301:B I *D sky130_fd_sc_hd__nand2_1
*I *2312:B I *D sky130_fd_sc_hd__nor2_1
*I *2300:B I *D sky130_fd_sc_hd__and2_1
*I *2302:B I *D sky130_fd_sc_hd__xor2_2
*I *2299:Y O *D sky130_fd_sc_hd__xnor2_2
*CAP
1 *2301:B 0.000147103
2 *2312:B 0
3 *2300:B 0
4 *2302:B 0
5 *2299:Y 0.000330927
6 *183:28 0.000194646
7 *183:21 0.000418763
8 *183:10 0.000702148
9 *2301:B *2301:A 5.71472e-05
10 *2301:B *732:34 5.11901e-05
11 *183:10 *254:14 0
12 *183:10 *676:54 0.000247216
13 *183:10 *732:25 0
14 *183:21 *2309:A 0
15 *183:21 *184:10 3.18676e-05
16 *183:21 *254:14 0
17 *183:21 *732:25 0.000274294
18 *183:28 *732:25 8.76257e-05
19 *183:28 *732:34 5.71472e-05
*RES
1 *2299:Y *183:10 20.5857 
2 *183:10 *2302:B 4.5 
3 *183:10 *183:21 12.0714 
4 *183:21 *2300:B 9.3 
5 *183:21 *183:28 1.35714 
6 *183:28 *2312:B 9.3 
7 *183:28 *2301:B 12.3357 
*END

*D_NET *184 0.0010926
*CONN
*I *2318:A1 I *D sky130_fd_sc_hd__o211ai_1
*I *2313:C1 I *D sky130_fd_sc_hd__a211o_1
*I *2300:X O *D sky130_fd_sc_hd__and2_1
*CAP
1 *2318:A1 0.000112263
2 *2313:C1 4.36418e-05
3 *2300:X 0.000171487
4 *184:10 0.000327392
5 *2313:C1 *2313:A1 0.000108742
6 *2313:C1 *2313:B1 3.93247e-05
7 *2318:A1 *2313:A2 0.000142097
8 *2318:A1 *2318:C1 5.16583e-05
9 *2318:A1 *195:36 1.76135e-05
10 *2318:A1 *202:12 2.89114e-05
11 *184:10 *2313:A2 1.76039e-05
12 *184:10 *196:8 0
13 *183:21 *184:10 3.18676e-05
*RES
1 *2300:X *184:10 16.2821 
2 *184:10 *2313:C1 15.175 
3 *184:10 *2318:A1 16.8893 
*END

*D_NET *185 0.000622475
*CONN
*I *2315:A I *D sky130_fd_sc_hd__nand3_1
*I *2316:A1 I *D sky130_fd_sc_hd__a21o_1
*I *2301:Y O *D sky130_fd_sc_hd__nand2_1
*CAP
1 *2315:A 0.000106124
2 *2316:A1 3.2467e-05
3 *2301:Y 4.41892e-05
4 *185:10 0.000182781
5 *2315:A *2313:B1 0
6 *2315:A *2315:B 1.39841e-05
7 *2315:A *2315:C 8.66063e-05
8 *2315:A *2316:B1 4.57099e-05
9 *2316:A1 *2315:B 1.92789e-05
10 *185:10 *196:8 3.79467e-05
11 *185:10 *198:27 5.33882e-05
*RES
1 *2301:Y *185:10 19.6393 
2 *185:10 *2316:A1 9.83571 
3 *185:10 *2315:A 11.6214 
*END

*D_NET *186 0.00145316
*CONN
*I *2303:B I *D sky130_fd_sc_hd__nand2_1
*I *2309:B I *D sky130_fd_sc_hd__or2_1
*I *2304:B I *D sky130_fd_sc_hd__xnor2_2
*I *2302:X O *D sky130_fd_sc_hd__xor2_2
*CAP
1 *2303:B 0.000100226
2 *2309:B 0
3 *2304:B 2.85507e-05
4 *2302:X 0.000206691
5 *186:16 0.000120676
6 *186:12 0.000399042
7 *2303:B *2303:A 5.91094e-05
8 *2304:B *2303:A 0.00010096
9 *186:12 *2309:A 0.000343217
10 *186:12 *2386:A 2.89114e-05
11 *186:12 *732:25 0
12 *186:16 *2303:A 6.57815e-05
*RES
1 *2302:X *186:12 23.2107 
2 *186:12 *186:16 1.78571 
3 *186:16 *2304:B 10.2464 
4 *186:16 *2309:B 9.3 
5 *186:12 *2303:B 11.4964 
*END

*D_NET *187 0.00147886
*CONN
*I *2313:A1 I *D sky130_fd_sc_hd__a211o_1
*I *2318:C1 I *D sky130_fd_sc_hd__o211ai_1
*I *2310:A I *D sky130_fd_sc_hd__nand2_1
*I *2303:Y O *D sky130_fd_sc_hd__nand2_1
*CAP
1 *2313:A1 0.000119242
2 *2318:C1 8.72168e-05
3 *2310:A 3.38401e-05
4 *2303:Y 8.27234e-05
5 *187:21 0.000494252
6 *187:10 0.000404356
7 *2313:A1 *2313:B1 2.71322e-05
8 *2313:A1 *2316:A2 1.3701e-05
9 *2318:C1 *195:36 1.02504e-05
10 *187:10 *2310:B 4.57445e-05
11 *2313:C1 *2313:A1 0.000108742
12 *2318:A1 *2318:C1 5.16583e-05
*RES
1 *2303:Y *187:10 19.9429 
2 *187:10 *2310:A 9.83571 
3 *187:10 *187:21 4.55357 
4 *187:21 *2318:C1 20.2464 
5 *187:21 *2313:A1 11.8 
*END

*D_NET *188 0.00219724
*CONN
*I *2305:B I *D sky130_fd_sc_hd__or2_1
*I *2307:B I *D sky130_fd_sc_hd__xnor2_1
*I *2306:B I *D sky130_fd_sc_hd__xor2_1
*I *2304:Y O *D sky130_fd_sc_hd__xnor2_2
*CAP
1 *2305:B 6.27075e-05
2 *2307:B 8.26226e-05
3 *2306:B 6.37252e-05
4 *2304:Y 0.000204715
5 *188:16 0.000322502
6 *188:10 0.000443577
7 *2306:B *2306:A 5.52302e-05
8 *2307:B *2308:A2 0
9 *2307:B *190:21 0
10 *188:10 *2306:A 0.00013661
11 *188:10 *2740:RESET_B 0
12 *188:16 *2306:A 7.83462e-05
13 *188:16 *2308:A2 0
14 *2305:A *2305:B 0.000130419
15 *2305:A *188:16 0.000227532
16 *2307:A *2307:B 0.000169405
17 *2307:A *188:16 0.000175526
18 *176:6 *2306:B 4.43256e-05
*RES
1 *2304:Y *188:10 22.9786 
2 *188:10 *188:16 8.92857 
3 *188:16 *2306:B 15.1571 
4 *188:16 *2307:B 16.05 
5 *188:10 *2305:B 10.6571 
*END

*D_NET *189 0.00104848
*CONN
*I *2320:A I *D sky130_fd_sc_hd__nand3_1
*I *2311:A1 I *D sky130_fd_sc_hd__a21o_1
*I *2305:X O *D sky130_fd_sc_hd__or2_1
*CAP
1 *2320:A 0.000141244
2 *2311:A1 0
3 *2305:X 0.000276599
4 *189:12 0.000417843
5 *2320:A *2320:B 2.07382e-05
6 *2320:A *2320:C 9.15901e-05
7 *2320:A *192:15 4.0342e-06
8 *2320:A *195:6 5.71472e-05
9 *189:12 *2740:RESET_B 0
10 *189:12 *194:12 3.92854e-05
*RES
1 *2305:X *189:12 21.925 
2 *189:12 *2311:A1 9.3 
3 *189:12 *2320:A 12.3357 
*END

*D_NET *190 0.00173285
*CONN
*I *2325:A2 I *D sky130_fd_sc_hd__a211o_1
*I *2324:A2_N I *D sky130_fd_sc_hd__a2bb2o_1
*I *2322:B I *D sky130_fd_sc_hd__nand3_1
*I *2308:A2 I *D sky130_fd_sc_hd__a21o_1
*I *2306:X O *D sky130_fd_sc_hd__xor2_1
*CAP
1 *2325:A2 8.65638e-05
2 *2324:A2_N 0
3 *2322:B 0
4 *2308:A2 9.9966e-05
5 *2306:X 0
6 *190:30 0.000214031
7 *190:21 0.00022006
8 *190:6 0.000192559
9 *2308:A2 *2740:RESET_B 8.32242e-05
10 *2325:A2 *2323:A2 1.00375e-05
11 *2325:A2 *2324:B1 6.05161e-06
12 *2325:A2 *191:12 2.89016e-05
13 *190:21 *2740:RESET_B 0.000175519
14 *190:30 *2325:B1 5.71472e-05
15 *190:30 *2326:B2 0
16 *190:30 *191:8 0
17 *190:30 *191:12 2.24195e-05
18 *2307:A *190:21 0
19 *2307:B *2308:A2 0
20 *2307:B *190:21 0
21 *2322:A *190:30 0.000151356
22 *2324:B2 *2325:A2 0.000153054
23 *2325:A1 *2325:A2 9.01334e-05
24 *176:6 *2308:A2 0.00014183
25 *188:16 *2308:A2 0
*RES
1 *2306:X *190:6 13.8 
2 *190:6 *2308:A2 16.1929 
3 *190:6 *190:21 6.75 
4 *190:21 *2322:B 9.3 
5 *190:21 *190:30 2.60714 
6 *190:30 *2324:A2_N 9.3 
7 *190:30 *2325:A2 21.0857 
*END

*D_NET *191 0.00163056
*CONN
*I *2322:C I *D sky130_fd_sc_hd__nand3_1
*I *2324:B1 I *D sky130_fd_sc_hd__a2bb2o_1
*I *2308:B1 I *D sky130_fd_sc_hd__a21o_1
*I *2307:Y O *D sky130_fd_sc_hd__xnor2_1
*CAP
1 *2322:C 0
2 *2324:B1 5.73684e-05
3 *2308:B1 0.000100503
4 *2307:Y 0.000134924
5 *191:12 0.000350593
6 *191:8 0.000327646
7 *2308:B1 *2320:B 0
8 *2308:B1 *2323:A1 0
9 *2308:B1 *2323:A2 9.69119e-06
10 *2308:B1 *194:12 0
11 *2324:B1 *2323:A2 0.000128496
12 *2324:B1 *2326:A2 0
13 *2324:B1 *2326:B2 1.39726e-05
14 *191:12 *2323:A2 0.000225616
15 *2322:A *2324:B1 0
16 *2322:A *191:12 7.48091e-05
17 *2324:B2 *2324:B1 5.71472e-05
18 *2325:A2 *2324:B1 6.05161e-06
19 *2325:A2 *191:12 2.89016e-05
20 *176:10 *2308:B1 9.24203e-05
21 *190:30 *191:8 0
22 *190:30 *191:12 2.24195e-05
*RES
1 *2307:Y *191:8 11.0857 
2 *191:8 *191:12 4.44643 
3 *191:12 *2308:B1 20.55 
4 *191:12 *2324:B1 11.0857 
5 *191:8 *2322:C 9.3 
*END

*D_NET *192 0.00154609
*CONN
*I *2320:B I *D sky130_fd_sc_hd__nand3_1
*I *2323:A1 I *D sky130_fd_sc_hd__a21o_1
*I *2311:A2 I *D sky130_fd_sc_hd__a21o_1
*I *2308:X O *D sky130_fd_sc_hd__a21o_1
*CAP
1 *2320:B 0.000285711
2 *2323:A1 0.000154517
3 *2311:A2 4.8015e-05
4 *2308:X 4.57119e-05
5 *192:15 0.000484292
6 *192:6 0.000137791
7 *2311:A2 *2320:C 1.3701e-05
8 *2320:B *2320:C 5.33334e-05
9 *2320:B *2327:B2 1.69115e-05
10 *2320:B *194:12 1.21955e-05
11 *2320:B *195:12 8.49861e-06
12 *2320:B *204:10 9.25014e-06
13 *2323:A1 *2323:A2 0.000197991
14 *2323:A1 *2326:B1 5.33978e-05
15 *2323:A1 *204:10 0
16 *2308:B1 *2320:B 0
17 *2308:B1 *2323:A1 0
18 *2320:A *2320:B 2.07382e-05
19 *2320:A *192:15 4.0342e-06
*RES
1 *2308:X *192:6 9.83571 
2 *192:6 *2311:A2 10.3357 
3 *192:6 *192:15 0.535714 
4 *192:15 *2323:A1 21.7643 
5 *192:15 *2320:B 22.4786 
*END

*D_NET *193 0.000427891
*CONN
*I *2310:B I *D sky130_fd_sc_hd__nand2_1
*I *2309:X O *D sky130_fd_sc_hd__or2_1
*CAP
1 *2310:B 0.000140593
2 *2309:X 0.000140593
3 *2310:B *2303:A 0.00010096
4 *187:10 *2310:B 4.57445e-05
*RES
1 *2309:X *2310:B 30.1893 
*END

*D_NET *194 0.00111768
*CONN
*I *2320:C I *D sky130_fd_sc_hd__nand3_1
*I *2311:B1 I *D sky130_fd_sc_hd__a21o_1
*I *2310:Y O *D sky130_fd_sc_hd__nand2_1
*CAP
1 *2320:C 0.000107937
2 *2311:B1 0
3 *2310:Y 0.000283062
4 *194:12 0.000390999
5 *2320:C *2327:B2 5.71472e-05
6 *2320:C *195:6 6.84283e-05
7 *194:12 *195:12 0
8 *2308:B1 *194:12 0
9 *2311:A2 *2320:C 1.3701e-05
10 *2320:A *2320:C 9.15901e-05
11 *2320:B *2320:C 5.33334e-05
12 *2320:B *194:12 1.21955e-05
13 *176:10 *194:12 0
14 *189:12 *194:12 3.92854e-05
*RES
1 *2310:Y *194:12 22.9071 
2 *194:12 *2311:B1 9.3 
3 *194:12 *2320:C 12.8714 
*END

*D_NET *195 0.00279776
*CONN
*I *2313:A2 I *D sky130_fd_sc_hd__a211o_1
*I *2318:B1 I *D sky130_fd_sc_hd__o211ai_1
*I *2321:A1 I *D sky130_fd_sc_hd__a21o_1
*I *2326:A2 I *D sky130_fd_sc_hd__a32o_1
*I *2311:X O *D sky130_fd_sc_hd__a21o_1
*CAP
1 *2313:A2 0.000169162
2 *2318:B1 0
3 *2321:A1 0
4 *2326:A2 0.000133729
5 *2311:X 0.000151564
6 *195:36 0.000457606
7 *195:12 0.000311991
8 *195:6 0.000618269
9 *2313:A2 *2318:A2 7.63567e-05
10 *2313:A2 *196:8 4.1331e-06
11 *2313:A2 *197:34 6.42242e-05
12 *2313:A2 *202:12 4.35452e-05
13 *2326:A2 *2321:A2 0.000142856
14 *2326:A2 *2326:B2 0
15 *195:6 *2327:B2 1.39726e-05
16 *195:12 *2327:B1 0
17 *195:12 *2327:B2 6.75007e-05
18 *195:12 *204:10 0
19 *195:36 *2327:B1 9.90367e-05
20 *195:36 *2327:B2 6.62898e-05
21 *195:36 *197:34 0
22 *2318:A1 *2313:A2 0.000142097
23 *2318:A1 *195:36 1.76135e-05
24 *2318:C1 *195:36 1.02504e-05
25 *2320:A *195:6 5.71472e-05
26 *2320:B *195:12 8.49861e-06
27 *2320:C *195:6 6.84283e-05
28 *2324:B1 *2326:A2 0
29 *2326:A1 *2326:A2 5.00818e-05
30 *179:12 *195:12 5.80706e-06
31 *184:10 *2313:A2 1.76039e-05
32 *194:12 *195:12 0
*RES
1 *2311:X *195:6 11.4786 
2 *195:6 *195:12 12.4643 
3 *195:12 *2326:A2 12.3357 
4 *195:12 *2321:A1 9.3 
5 *195:6 *195:36 13.5357 
6 *195:36 *2318:B1 9.3 
7 *195:36 *2313:A2 22.6214 
*END

*D_NET *196 0.00146529
*CONN
*I *2318:A2 I *D sky130_fd_sc_hd__o211ai_1
*I *2313:B1 I *D sky130_fd_sc_hd__a211o_1
*I *2312:Y O *D sky130_fd_sc_hd__nor2_1
*CAP
1 *2318:A2 0.000301651
2 *2313:B1 0.000179235
3 *2312:Y 8.82894e-05
4 *196:8 0.000569175
5 *2313:B1 *2316:A2 5.922e-05
6 *2318:A2 *197:34 7.83587e-05
7 *2318:A2 *200:12 0
8 *2318:A2 *202:12 4.46231e-06
9 *196:8 *198:27 0
10 *2313:A1 *2313:B1 2.71322e-05
11 *2313:A2 *2318:A2 7.63567e-05
12 *2313:A2 *196:8 4.1331e-06
13 *2313:C1 *2313:B1 3.93247e-05
14 *2315:A *2313:B1 0
15 *184:10 *196:8 0
16 *185:10 *196:8 3.79467e-05
*RES
1 *2312:Y *196:8 15.4429 
2 *196:8 *2313:B1 17.3714 
3 *196:8 *2318:A2 17.925 
*END

*D_NET *197 0.00245739
*CONN
*I *2319:A1 I *D sky130_fd_sc_hd__a21o_1
*I *2327:A2 I *D sky130_fd_sc_hd__a32o_1
*I *2315:B I *D sky130_fd_sc_hd__nand3_1
*I *2316:A2 I *D sky130_fd_sc_hd__a21o_1
*I *2313:X O *D sky130_fd_sc_hd__a211o_1
*CAP
1 *2319:A1 6.33544e-05
2 *2327:A2 5.57408e-05
3 *2315:B 0.000339364
4 *2316:A2 5.0755e-05
5 *2313:X 0
6 *197:34 0.000255258
7 *197:6 0.00040924
8 *197:4 0.000155284
9 *2315:B *2315:C 0.000322518
10 *2315:B *2316:B1 5.52238e-05
11 *2315:B *200:12 5.71472e-05
12 *2316:A2 *2316:B1 1.3701e-05
13 *2319:A1 *2319:A2 9.90431e-05
14 *2327:A2 *2319:A2 5.33005e-05
15 *197:34 *2328:B2 0.000129868
16 *197:34 *200:12 0
17 *197:34 *202:12 0.000101545
18 *2313:A1 *2316:A2 1.3701e-05
19 *2313:A2 *197:34 6.42242e-05
20 *2313:B1 *2316:A2 5.922e-05
21 *2315:A *2315:B 1.39841e-05
22 *2316:A1 *2315:B 1.92789e-05
23 *2318:A2 *197:34 7.83587e-05
24 *2327:A1 *2319:A1 2.44318e-05
25 *2327:A1 *2327:A2 2.28499e-05
26 *195:36 *197:34 0
*RES
1 *2313:X *197:4 9.3 
2 *197:4 *197:6 0.428571 
3 *197:6 *2316:A2 11.1036 
4 *197:6 *2315:B 16.7464 
5 *197:4 *197:34 12.7679 
6 *197:34 *2327:A2 10.2464 
7 *197:34 *2319:A1 10.6571 
*END

*D_NET *198 0.00538839
*CONN
*I *2315:C I *D sky130_fd_sc_hd__nand3_1
*I *2316:B1 I *D sky130_fd_sc_hd__a21o_1
*I *2386:A I *D sky130_fd_sc_hd__xnor2_1
*I *2314:X O *D sky130_fd_sc_hd__xor2_2
*CAP
1 *2315:C 4.39116e-05
2 *2316:B1 2.71452e-05
3 *2386:A 0.00113904
4 *2314:X 0.00021666
5 *198:27 0.000530198
6 *198:8 0.00181484
7 *2386:A *2290:A 0.0001399
8 *2386:A *2302:A 0.00018372
9 *2386:A *2383:A 0.000119125
10 *2386:A *2387:B 1.56e-05
11 *198:8 *2376:A 0.00015234
12 *198:8 *2741:CLK 0
13 *198:8 *2758:RESET_B 0
14 *198:8 *254:14 0
15 *198:27 *2741:CLK 0
16 *198:27 *254:14 0
17 *2315:A *2315:C 8.66063e-05
18 *2315:A *2316:B1 4.57099e-05
19 *2315:B *2315:C 0.000322518
20 *2315:B *2316:B1 5.52238e-05
21 *2316:A2 *2316:B1 1.3701e-05
22 *2381:A *2386:A 0
23 *174:8 *2386:A 0.000399841
24 *185:10 *198:27 5.33882e-05
25 *186:12 *2386:A 2.89114e-05
26 *196:8 *198:27 0
*RES
1 *2314:X *198:8 17.8714 
2 *198:8 *2386:A 34.6214 
3 *198:8 *198:27 12.5179 
4 *198:27 *2316:B1 10.2643 
5 *198:27 *2315:C 11.9071 
*END

*D_NET *199 0.000840377
*CONN
*I *2317:A1 I *D sky130_fd_sc_hd__a21o_1
*I *2328:A2 I *D sky130_fd_sc_hd__a32o_1
*I *2315:Y O *D sky130_fd_sc_hd__nand3_1
*CAP
1 *2317:A1 1.97033e-05
2 *2328:A2 4.52062e-05
3 *2315:Y 8.34947e-05
4 *199:10 0.000148404
5 *2317:A1 *2317:A2 5.52302e-05
6 *2317:A1 *2329:B 2.44318e-05
7 *2328:A2 *2317:A2 9.71197e-05
8 *2328:A2 *2328:B1 2.28499e-05
9 *199:10 *200:12 6.19181e-05
10 *2328:A1 *2317:A1 0.000106376
11 *2328:A1 *2328:A2 0.000175643
*RES
1 *2315:Y *199:10 19.9429 
2 *199:10 *2328:A2 11.0857 
3 *199:10 *2317:A1 10.675 
*END

*D_NET *200 0.000739929
*CONN
*I *2317:A2 I *D sky130_fd_sc_hd__a21o_1
*I *2328:A3 I *D sky130_fd_sc_hd__a32o_1
*I *2316:X O *D sky130_fd_sc_hd__a21o_1
*CAP
1 *2317:A2 3.46396e-05
2 *2328:A3 0
3 *2316:X 0.000143429
4 *200:12 0.000178068
5 *2317:A2 *2328:B1 5.52302e-05
6 *2317:A2 *2329:B 5.71472e-05
7 *200:12 *2328:B2 0
8 *2315:B *200:12 5.71472e-05
9 *2317:A1 *2317:A2 5.52302e-05
10 *2318:A2 *200:12 0
11 *2328:A2 *2317:A2 9.71197e-05
12 *197:34 *200:12 0
13 *199:10 *200:12 6.19181e-05
*RES
1 *2316:X *200:12 20.7821 
2 *200:12 *2328:A3 9.3 
3 *200:12 *2317:A2 10.6571 
*END

*D_NET *201 9.72117e-05
*CONN
*I *2329:A I *D sky130_fd_sc_hd__and2_1
*I *2317:X O *D sky130_fd_sc_hd__a21o_1
*CAP
1 *2329:A 2.00323e-05
2 *2317:X 2.00323e-05
3 *177:10 *2329:A 5.71472e-05
*RES
1 *2317:X *2329:A 19.1357 
*END

*D_NET *202 0.00112245
*CONN
*I *2319:A2 I *D sky130_fd_sc_hd__a21o_1
*I *2327:A3 I *D sky130_fd_sc_hd__a32o_1
*I *2318:Y O *D sky130_fd_sc_hd__o211ai_1
*CAP
1 *2319:A2 2.73219e-05
2 *2327:A3 0
3 *2318:Y 0.000297073
4 *202:12 0.000324395
5 *202:12 *2327:B1 0
6 *2313:A2 *202:12 4.35452e-05
7 *2318:A1 *202:12 2.89114e-05
8 *2318:A2 *202:12 4.46231e-06
9 *2319:A1 *2319:A2 9.90431e-05
10 *2327:A1 *2319:A2 0.000142856
11 *2327:A2 *2319:A2 5.33005e-05
12 *197:34 *202:12 0.000101545
*RES
1 *2318:Y *202:12 22.5321 
2 *202:12 *2327:A3 9.3 
3 *202:12 *2319:A2 10.6571 
*END

*D_NET *203 0.000464201
*CONN
*I *2328:B1 I *D sky130_fd_sc_hd__a32o_1
*I *2319:X O *D sky130_fd_sc_hd__a21o_1
*CAP
1 *2328:B1 0.000184343
2 *2319:X 0.000184343
3 *2328:B1 *2328:B2 0
4 *2317:A2 *2328:B1 5.52302e-05
5 *2328:A1 *2328:B1 1.74352e-05
6 *2328:A2 *2328:B1 2.28499e-05
*RES
1 *2319:X *2328:B1 30.8232 
*END

*D_NET *204 0.000575755
*CONN
*I *2321:A2 I *D sky130_fd_sc_hd__a21o_1
*I *2326:A3 I *D sky130_fd_sc_hd__a32o_1
*I *2320:Y O *D sky130_fd_sc_hd__nand3_1
*CAP
1 *2321:A2 2.12584e-05
2 *2326:A3 0
3 *2320:Y 9.83424e-05
4 *204:10 0.000119601
5 *204:10 *2327:B2 4.15914e-05
6 *2320:B *204:10 9.25014e-06
7 *2323:A1 *204:10 0
8 *2326:A1 *2321:A2 0.000142856
9 *2326:A2 *2321:A2 0.000142856
10 *195:12 *204:10 0
*RES
1 *2320:Y *204:10 20.2464 
2 *204:10 *2326:A3 9.3 
3 *204:10 *2321:A2 10.6571 
*END

*D_NET *205 0.000537736
*CONN
*I *2327:B1 I *D sky130_fd_sc_hd__a32o_1
*I *2321:X O *D sky130_fd_sc_hd__a21o_1
*CAP
1 *2327:B1 0.000192678
2 *2321:X 0.000192678
3 *2327:B1 *2327:B2 5.33433e-05
4 *195:12 *2327:B1 0
5 *195:36 *2327:B1 9.90367e-05
6 *202:12 *2327:B1 0
*RES
1 *2321:X *2327:B1 31.4125 
*END

*D_NET *206 0.00142173
*CONN
*I *2323:A2 I *D sky130_fd_sc_hd__a21o_1
*I *2322:Y O *D sky130_fd_sc_hd__nand3_1
*CAP
1 *2323:A2 0.000354462
2 *2322:Y 0.000354462
3 *2323:A2 *2296:A 0
4 *2323:A2 *2326:B2 0.000103267
5 *2308:B1 *2323:A2 9.69119e-06
6 *2323:A1 *2323:A2 0.000197991
7 *2324:B1 *2323:A2 0.000128496
8 *2324:B2 *2323:A2 3.77061e-05
9 *2325:A2 *2323:A2 1.00375e-05
10 *176:10 *2323:A2 0
11 *191:12 *2323:A2 0.000225616
*RES
1 *2322:Y *2323:A2 34.1714 
*END

*D_NET *207 0.000451027
*CONN
*I *2326:B1 I *D sky130_fd_sc_hd__a32o_1
*I *2323:X O *D sky130_fd_sc_hd__a21o_1
*CAP
1 *2326:B1 0.000149293
2 *2323:X 0.000149293
3 *2323:A1 *2326:B1 5.33978e-05
4 *2324:B2 *2326:B1 1.24368e-05
5 *179:12 *2326:B1 0
6 *180:6 *2326:B1 8.66063e-05
*RES
1 *2323:X *2326:B1 30.1268 
*END

*D_NET *208 0.000406908
*CONN
*I *2325:B1 I *D sky130_fd_sc_hd__a211o_1
*I *2324:X O *D sky130_fd_sc_hd__a2bb2o_1
*CAP
1 *2325:B1 8.41094e-05
2 *2324:X 8.41094e-05
3 *2325:B1 *2740:RESET_B 5.33882e-05
4 *2325:A1 *2325:B1 0.000128154
5 *190:30 *2325:B1 5.71472e-05
*RES
1 *2324:X *2325:B1 29.7786 
*END

*D_NET *209 0.000470585
*CONN
*I *2326:B2 I *D sky130_fd_sc_hd__a32o_1
*I *2325:X O *D sky130_fd_sc_hd__a211o_1
*CAP
1 *2326:B2 0.000120468
2 *2325:X 0.000120468
3 *2323:A2 *2326:B2 0.000103267
4 *2324:B1 *2326:B2 1.39726e-05
5 *2324:B2 *2326:B2 0.00011241
6 *2326:A2 *2326:B2 0
7 *190:30 *2326:B2 0
*RES
1 *2325:X *2326:B2 30.3143 
*END

*D_NET *210 0.000744331
*CONN
*I *2327:B2 I *D sky130_fd_sc_hd__a32o_1
*I *2326:X O *D sky130_fd_sc_hd__a32o_1
*CAP
1 *2327:B2 0.000213787
2 *2326:X 0.000213787
3 *2320:B *2327:B2 1.69115e-05
4 *2320:C *2327:B2 5.71472e-05
5 *2327:B1 *2327:B2 5.33433e-05
6 *195:6 *2327:B2 1.39726e-05
7 *195:12 *2327:B2 6.75007e-05
8 *195:36 *2327:B2 6.62898e-05
9 *204:10 *2327:B2 4.15914e-05
*RES
1 *2326:X *2327:B2 32.6536 
*END

*D_NET *211 0.000255084
*CONN
*I *2328:B2 I *D sky130_fd_sc_hd__a32o_1
*I *2327:X O *D sky130_fd_sc_hd__a32o_1
*CAP
1 *2328:B2 6.26081e-05
2 *2327:X 6.26081e-05
3 *2328:B1 *2328:B2 0
4 *197:34 *2328:B2 0.000129868
5 *200:12 *2328:B2 0
*RES
1 *2327:X *2328:B2 29.2429 
*END

*D_NET *212 0.000721691
*CONN
*I *2329:B I *D sky130_fd_sc_hd__and2_1
*I *2328:X O *D sky130_fd_sc_hd__a32o_1
*CAP
1 *2329:B 0.000193554
2 *2328:X 0.000193554
3 *2317:A1 *2329:B 2.44318e-05
4 *2317:A2 *2329:B 5.71472e-05
5 *2328:A1 *2329:B 2.95641e-05
6 *177:10 *2329:B 0.000223441
*RES
1 *2328:X *2329:B 22.85 
*END

*D_NET *213 0.00304838
*CONN
*I *2334:B I *D sky130_fd_sc_hd__xor2_2
*I *2331:B I *D sky130_fd_sc_hd__or2_1
*I *2332:B I *D sky130_fd_sc_hd__nand2_1
*I *2330:Y O *D sky130_fd_sc_hd__xnor2_2
*CAP
1 *2334:B 0
2 *2331:B 7.54786e-05
3 *2332:B 2.23854e-05
4 *2330:Y 0.000504666
5 *213:16 0.000396063
6 *213:10 0.000802865
7 *2331:B *2331:A 5.71472e-05
8 *213:10 *2330:A 9.90431e-05
9 *213:10 *2336:A 0
10 *213:10 *2346:A 7.32955e-05
11 *213:10 *2735:D 1.87955e-05
12 *213:10 *217:8 3.51442e-05
13 *213:10 *229:6 0.000268403
14 *213:10 *668:55 0
15 *213:10 *708:25 1.21289e-05
16 *213:10 *708:34 0.000396898
17 *213:10 *708:42 3.34366e-05
18 *213:16 *2336:A 0
19 *213:16 *217:8 0.00025263
*RES
1 *2330:Y *213:10 25.3714 
2 *213:10 *213:16 10.25 
3 *213:16 *2332:B 9.72857 
4 *213:16 *2331:B 10.6571 
5 *213:10 *2334:B 4.5 
*END

*D_NET *214 0.00115756
*CONN
*I *2348:A1 I *D sky130_fd_sc_hd__a21o_1
*I *2347:A I *D sky130_fd_sc_hd__nand3_1
*I *2333:A I *D sky130_fd_sc_hd__and2_1
*I *2331:X O *D sky130_fd_sc_hd__or2_1
*CAP
1 *2348:A1 0.000226339
2 *2347:A 0
3 *2333:A 0.000139697
4 *2331:X 3.52165e-05
5 *214:8 0.000191753
6 *214:6 0.000313613
7 *2333:A *2333:B 0
8 *2333:A *2347:C 0
9 *2333:A *227:42 7.86004e-05
10 *2333:A *668:55 0
11 *2348:A1 *2348:A2 2.55958e-05
12 *2348:A1 *2348:B1 1.98839e-05
13 *2348:A1 *2730:SET_B 0
14 *2348:A1 *228:10 1.17968e-05
15 *2348:A1 *669:14 0.00010748
16 *2348:A1 *673:16 1.8171e-06
17 *214:8 *2348:A2 5.7661e-06
18 *214:8 *2348:B1 0
*RES
1 *2331:X *214:6 9.83571 
2 *214:6 *214:8 1.03571 
3 *214:8 *2333:A 21.0857 
4 *214:8 *2347:A 9.3 
5 *214:6 *2348:A1 21.5143 
*END

*D_NET *215 0.000472755
*CONN
*I *2333:B I *D sky130_fd_sc_hd__and2_1
*I *2332:Y O *D sky130_fd_sc_hd__nand2_1
*CAP
1 *2333:B 0.000125104
2 *2332:Y 0.000125104
3 *2333:B *2736:RESET_B 7.77751e-05
4 *2333:B *668:16 0.000144773
5 *2333:B *668:55 0
6 *2333:A *2333:B 0
*RES
1 *2332:Y *2333:B 30.6 
*END

*D_NET *216 0.00162485
*CONN
*I *2344:B1 I *D sky130_fd_sc_hd__o21ai_2
*I *2351:A I *D sky130_fd_sc_hd__or3_1
*I *2333:X O *D sky130_fd_sc_hd__and2_1
*CAP
1 *2344:B1 0.000145476
2 *2351:A 0.000160248
3 *2333:X 0.000233509
4 *216:8 0.000539234
5 *2344:B1 *2344:A1 3.97677e-05
6 *2344:B1 *2344:A2 0.000142856
7 *2344:B1 *218:6 2.59355e-05
8 *2351:A *2342:A 2.89114e-05
9 *2351:A *2342:B 0
10 *2351:A *2344:A2 1.69115e-05
11 *2351:A *2351:C 5.71472e-05
12 *2351:A *2363:A2 3.23842e-05
13 *2351:A *217:14 0
14 *2351:A *218:12 0.000126439
15 *216:8 *2363:A2 7.60306e-05
16 *216:8 *217:14 0
17 *216:8 *227:42 0
18 *216:8 *668:10 0
*RES
1 *2333:X *216:8 17.5679 
2 *216:8 *2351:A 17.6036 
3 *216:8 *2344:B1 16.3893 
*END

*D_NET *217 0.00220012
*CONN
*I *2336:B I *D sky130_fd_sc_hd__xnor2_2
*I *2341:B I *D sky130_fd_sc_hd__and2_1
*I *2335:B I *D sky130_fd_sc_hd__nor2_1
*I *2334:X O *D sky130_fd_sc_hd__xor2_2
*CAP
1 *2336:B 4.42344e-05
2 *2341:B 0.000132493
3 *2335:B 0
4 *2334:X 0.000163347
5 *217:14 0.000441797
6 *217:8 0.000516886
7 *2336:B *2736:RESET_B 0.000126629
8 *2336:B *668:20 0.000126629
9 *2341:B *2335:A 9.62596e-05
10 *2341:B *2342:B 9.22103e-06
11 *2341:B *218:6 2.44318e-05
12 *217:8 *2336:A 0
13 *217:8 *668:55 0.000153531
14 *217:14 *2336:A 0
15 *217:14 *218:6 5.71472e-05
16 *217:14 *668:55 1.97381e-05
17 *2351:A *217:14 0
18 *213:10 *217:8 3.51442e-05
19 *213:16 *217:8 0.00025263
20 *216:8 *217:14 0
*RES
1 *2334:X *217:8 19.0857 
2 *217:8 *217:14 10.0179 
3 *217:14 *2335:B 9.3 
4 *217:14 *2341:B 12.3357 
5 *217:8 *2336:B 15.9786 
*END

*D_NET *218 0.00217822
*CONN
*I *2344:A1 I *D sky130_fd_sc_hd__o21ai_2
*I *2351:B I *D sky130_fd_sc_hd__or3_1
*I *2342:A I *D sky130_fd_sc_hd__or2_1
*I *2335:Y O *D sky130_fd_sc_hd__nor2_1
*CAP
1 *2344:A1 0.000141445
2 *2351:B 0
3 *2342:A 0.000275608
4 *2335:Y 0.000254015
5 *218:12 0.000316215
6 *218:6 0.000436067
7 *2342:A *225:12 6.93577e-05
8 *2342:A *234:8 0
9 *2344:A1 *2344:A2 0.000227539
10 *218:6 *2342:B 2.89016e-05
11 *218:12 *2363:A2 0.000126439
12 *2341:B *218:6 2.44318e-05
13 *2344:B1 *2344:A1 3.97677e-05
14 *2344:B1 *218:6 2.59355e-05
15 *2351:A *2342:A 2.89114e-05
16 *2351:A *218:12 0.000126439
17 *217:14 *218:6 5.71472e-05
*RES
1 *2335:Y *218:6 13.9429 
2 *218:6 *218:12 10.6429 
3 *218:12 *2342:A 13.8714 
4 *218:12 *2351:B 9.3 
5 *218:6 *2344:A1 12.3 
*END

*D_NET *219 0.0023351
*CONN
*I *2338:B I *D sky130_fd_sc_hd__xnor2_1
*I *2337:B I *D sky130_fd_sc_hd__and2b_1
*I *2339:B I *D sky130_fd_sc_hd__xor2_1
*I *2336:Y O *D sky130_fd_sc_hd__xnor2_2
*CAP
1 *2338:B 0
2 *2337:B 0.000231829
3 *2339:B 0
4 *2336:Y 0.000359369
5 *219:14 0.000411369
6 *219:8 0.000538909
7 *2337:B *2337:A_N 9.31893e-05
8 *2337:B *222:12 9.90367e-05
9 *2337:B *642:137 2.44318e-05
10 *219:8 *2338:A 0.00027822
11 *219:8 *640:55 0.000197787
12 *219:14 *221:14 0
13 *219:14 *642:137 0.00010096
*RES
1 *2336:Y *219:8 23.6393 
2 *219:8 *219:14 7.69643 
3 *219:14 *2339:B 9.3 
4 *219:14 *2337:B 13.55 
5 *219:8 *2338:B 13.8 
*END

*D_NET *220 0.00101354
*CONN
*I *2343:A1 I *D sky130_fd_sc_hd__o21ba_1
*I *2353:A I *D sky130_fd_sc_hd__nor3b_1
*I *2337:X O *D sky130_fd_sc_hd__and2b_1
*CAP
1 *2343:A1 0
2 *2353:A 0.000253804
3 *2337:X 9.743e-05
4 *220:8 0.000351234
5 *2353:A *2353:B 1.74352e-05
6 *2353:A *2353:C_N 0.000185643
7 *2353:A *2355:B1 0
8 *2353:A *223:14 5.52302e-05
9 *2353:A *223:23 5.27654e-05
10 *220:8 *223:23 0
*RES
1 *2337:X *220:8 11.0857 
2 *220:8 *2353:A 14.3893 
3 *220:8 *2343:A1 9.3 
*END

*D_NET *221 0.00250873
*CONN
*I *2340:A2 I *D sky130_fd_sc_hd__a21oi_1
*I *2359:B I *D sky130_fd_sc_hd__xor2_1
*I *2356:B I *D sky130_fd_sc_hd__and3_1
*I *2338:Y O *D sky130_fd_sc_hd__xnor2_1
*CAP
1 *2340:A2 0
2 *2359:B 2.44304e-05
3 *2356:B 0.000339281
4 *2338:Y 0.000387071
5 *221:18 0.000432469
6 *221:14 0.000455828
7 *2356:B *2360:A3 2.44318e-05
8 *2356:B *223:14 0.00040765
9 *2359:B *2340:B1 5.71472e-05
10 *2359:B *2356:C 1.74352e-05
11 *2359:B *223:14 0.00010096
12 *221:14 *3032:A 0.000186662
13 *221:14 *222:12 5.26184e-05
14 *221:14 *648:20 0
15 *221:18 *2340:A1 2.27416e-05
16 *219:14 *221:14 0
*RES
1 *2338:Y *221:14 24.675 
2 *221:14 *221:18 1.375 
3 *221:18 *2356:B 14.675 
4 *221:18 *2359:B 10.6571 
5 *221:14 *2340:A2 9.3 
*END

*D_NET *222 0.00140432
*CONN
*I *2356:C I *D sky130_fd_sc_hd__and3_1
*I *2340:B1 I *D sky130_fd_sc_hd__a21oi_1
*I *2339:X O *D sky130_fd_sc_hd__xor2_1
*CAP
1 *2356:C 0.000282836
2 *2340:B1 5.68744e-05
3 *2339:X 9.68819e-05
4 *222:12 0.000436593
5 *2340:B1 *2356:A 0
6 *2356:C *2356:A 0.000126639
7 *2356:C *2360:A3 3.26048e-05
8 *2356:C *223:14 9.22103e-06
9 *222:12 *2337:A_N 5.71472e-05
10 *222:12 *648:20 7.92879e-05
11 *2337:B *222:12 9.90367e-05
12 *2359:B *2340:B1 5.71472e-05
13 *2359:B *2356:C 1.74352e-05
14 *221:14 *222:12 5.26184e-05
*RES
1 *2339:X *222:12 21.1929 
2 *222:12 *2340:B1 10.5679 
3 *222:12 *2356:C 13.1929 
*END

*D_NET *223 0.00290168
*CONN
*I *2353:B I *D sky130_fd_sc_hd__nor3b_1
*I *2358:A1 I *D sky130_fd_sc_hd__o21a_1
*I *2357:B I *D sky130_fd_sc_hd__or3_1
*I *2343:A2 I *D sky130_fd_sc_hd__o21ba_1
*I *2340:Y O *D sky130_fd_sc_hd__a21oi_1
*CAP
1 *2353:B 7.61766e-05
2 *2358:A1 0
3 *2357:B 0.000215743
4 *2343:A2 0
5 *2340:Y 0.000243356
6 *223:27 0.000340066
7 *223:23 0.000333241
8 *223:14 0.000376097
9 *2353:B *2353:C_N 7.17235e-05
10 *2353:B *226:6 0.000144773
11 *2353:B *226:36 4.95789e-05
12 *2357:B *2357:A 0
13 *2357:B *2357:C 0.000115092
14 *2357:B *2360:B1 0
15 *2357:B *678:12 1.32552e-05
16 *223:14 *2356:A 9.77274e-05
17 *223:14 *2360:A3 9.90367e-05
18 *223:14 *648:20 0
19 *223:23 *2353:C_N 2.59355e-05
20 *223:27 *2360:B1 0
21 *223:27 *225:12 5.66157e-05
22 *2353:A *2353:B 1.74352e-05
23 *2353:A *223:14 5.52302e-05
24 *2353:A *223:23 5.27654e-05
25 *2356:B *223:14 0.00040765
26 *2356:C *223:14 9.22103e-06
27 *2359:B *223:14 0.00010096
28 *220:8 *223:23 0
*RES
1 *2340:Y *223:14 25.5143 
2 *223:14 *2343:A2 9.3 
3 *223:14 *223:23 2.5 
4 *223:23 *223:27 7.35714 
5 *223:27 *2357:B 17.1036 
6 *223:27 *2358:A1 13.8 
7 *223:23 *2353:B 11.9071 
*END

*D_NET *224 0.000491772
*CONN
*I *2342:B I *D sky130_fd_sc_hd__or2_1
*I *2341:X O *D sky130_fd_sc_hd__and2_1
*CAP
1 *2342:B 0.000210891
2 *2341:X 0.000210891
3 *2342:B *2335:A 3.18676e-05
4 *2341:B *2342:B 9.22103e-06
5 *2351:A *2342:B 0
6 *218:6 *2342:B 2.89016e-05
*RES
1 *2341:X *2342:B 30.9036 
*END

*D_NET *225 0.00120181
*CONN
*I *2353:C_N I *D sky130_fd_sc_hd__nor3b_1
*I *2343:B1_N I *D sky130_fd_sc_hd__o21ba_1
*I *2342:X O *D sky130_fd_sc_hd__or2_1
*CAP
1 *2353:C_N 3.88059e-05
2 *2343:B1_N 0
3 *2342:X 0.000357464
4 *225:12 0.00039627
5 *225:12 *226:10 0
6 *225:12 *648:20 0
7 *2342:A *225:12 6.93577e-05
8 *2353:A *2353:C_N 0.000185643
9 *2353:B *2353:C_N 7.17235e-05
10 *223:23 *2353:C_N 2.59355e-05
11 *223:27 *225:12 5.66157e-05
*RES
1 *2342:X *225:12 24.0321 
2 *225:12 *2343:B1_N 9.3 
3 *225:12 *2353:C_N 11.0679 
*END

*D_NET *226 0.00327978
*CONN
*I *2354:B I *D sky130_fd_sc_hd__or3_1
*I *2355:A1 I *D sky130_fd_sc_hd__o21a_1
*I *2344:A2 I *D sky130_fd_sc_hd__o21ai_2
*I *2351:C I *D sky130_fd_sc_hd__or3_1
*I *2343:X O *D sky130_fd_sc_hd__o21ba_1
*CAP
1 *2354:B 7.97361e-05
2 *2355:A1 6.27848e-05
3 *2344:A2 0.000239308
4 *2351:C 4.39881e-05
5 *2343:X 9.00363e-05
6 *226:36 0.000344283
7 *226:10 0.000523778
8 *226:6 0.00053228
9 *2344:A2 *2362:A2 0
10 *2344:A2 *2363:A2 0.000150625
11 *2344:A2 *227:8 0
12 *2351:C *2363:A2 1.39726e-05
13 *2354:B *2354:C 9.80173e-05
14 *2354:B *236:6 4.27935e-05
15 *2354:B *627:8 1.04232e-05
16 *2355:A1 *2354:C 4.18895e-05
17 *2355:A1 *2355:B1 9.90367e-05
18 *2355:A1 *2361:A2 2.61337e-05
19 *2355:A1 *236:6 5.52302e-05
20 *226:10 *2361:A1 0
21 *226:10 *2362:A2 0
22 *226:10 *2362:B2 0
23 *226:36 *236:6 0.000186662
24 *2344:A1 *2344:A2 0.000227539
25 *2344:B1 *2344:A2 0.000142856
26 *2351:A *2344:A2 1.69115e-05
27 *2351:A *2351:C 5.71472e-05
28 *2353:B *226:6 0.000144773
29 *2353:B *226:36 4.95789e-05
30 *225:12 *226:10 0
*RES
1 *2343:X *226:6 10.6571 
2 *226:6 *226:10 8.57143 
3 *226:10 *2351:C 14.7464 
4 *226:10 *2344:A2 19.6571 
5 *226:6 *226:36 3.55357 
6 *226:36 *2355:A1 19.9786 
7 *226:36 *2354:B 11.0857 
*END

*D_NET *227 0.00266162
*CONN
*I *2348:A2 I *D sky130_fd_sc_hd__a21o_1
*I *2347:B I *D sky130_fd_sc_hd__nand3_1
*I *2352:A1 I *D sky130_fd_sc_hd__a21o_1
*I *2362:A2 I *D sky130_fd_sc_hd__a32o_1
*I *2344:Y O *D sky130_fd_sc_hd__o21ai_2
*CAP
1 *2348:A2 7.47253e-05
2 *2347:B 0
3 *2352:A1 0.000202921
4 *2362:A2 0.000114149
5 *2344:Y 0
6 *227:42 0.000373179
7 *227:8 0.000471517
8 *227:6 0.000452901
9 *2348:A2 *2348:B1 5.33005e-05
10 *2348:A2 *230:14 5.9232e-05
11 *2352:A1 *2352:A2 5.31803e-05
12 *2352:A1 *2362:B1 2.44318e-05
13 *2352:A1 *2362:B2 0.000186669
14 *2352:A1 *234:8 2.89114e-05
15 *2362:A2 *2352:A2 4.18895e-05
16 *2362:A2 *2362:B2 2.84494e-05
17 *2362:A2 *234:8 5.52302e-05
18 *227:8 *2363:A2 0
19 *227:42 *2347:C 4.46186e-06
20 *227:42 *2363:A2 0
21 *227:42 *668:10 0.000150618
22 *227:42 *669:14 0.000175896
23 *2333:A *227:42 7.86004e-05
24 *2344:A2 *2362:A2 0
25 *2344:A2 *227:8 0
26 *2348:A1 *2348:A2 2.55958e-05
27 *2362:A1 *2352:A1 0
28 *214:8 *2348:A2 5.7661e-06
29 *216:8 *227:42 0
30 *226:10 *2362:A2 0
*RES
1 *2344:Y *227:6 13.8 
2 *227:6 *227:8 2.55357 
3 *227:8 *2362:A2 15.7821 
4 *227:8 *2352:A1 18.1929 
5 *227:6 *227:42 11.6607 
6 *227:42 *2347:B 9.3 
7 *227:42 *2348:A2 11.2107 
*END

*D_NET *228 0.00124258
*CONN
*I *2348:B1 I *D sky130_fd_sc_hd__a21o_1
*I *2347:C I *D sky130_fd_sc_hd__nand3_1
*I *2345:X O *D sky130_fd_sc_hd__xor2_1
*CAP
1 *2348:B1 6.8699e-05
2 *2347:C 3.57418e-05
3 *2345:X 0.000316516
4 *228:10 0.000420957
5 *2347:C *637:174 0
6 *2347:C *669:14 5.58941e-05
7 *2348:B1 *230:14 5.95965e-05
8 *2348:B1 *669:14 0.000139907
9 *228:10 *2345:A 1.3142e-05
10 *228:10 *2345:B 9.25014e-06
11 *228:10 *637:174 0
12 *228:10 *669:14 3.34366e-05
13 *228:10 *673:16 0
14 *2333:A *2347:C 0
15 *2348:A1 *2348:B1 1.98839e-05
16 *2348:A1 *228:10 1.17968e-05
17 *2348:A2 *2348:B1 5.33005e-05
18 *214:8 *2348:B1 0
19 *227:42 *2347:C 4.46186e-06
*RES
1 *2345:X *228:10 19.7286 
2 *228:10 *2347:C 14.5321 
3 *228:10 *2348:B1 15.9964 
*END

*D_NET *229 0.00164827
*CONN
*I *2407:B2 I *D sky130_fd_sc_hd__o221a_1
*I *2406:A1 I *D sky130_fd_sc_hd__a21oi_1
*I *2346:Y O *D sky130_fd_sc_hd__xnor2_1
*CAP
1 *2407:B2 5.18993e-05
2 *2406:A1 0.000107788
3 *2346:Y 0.000312883
4 *229:6 0.000472571
5 *2406:A1 *668:79 0.000136958
6 *2407:B2 *273:10 1.02504e-05
7 *2407:B2 *273:14 0.000125731
8 *2407:B2 *668:79 3.92854e-05
9 *2407:B2 *708:42 1.69115e-05
10 *229:6 *668:79 8.57023e-05
11 *229:6 *708:34 1.98839e-05
12 *213:10 *229:6 0.000268403
*RES
1 *2346:Y *229:6 13.5321 
2 *229:6 *2406:A1 10.6571 
3 *229:6 *2407:B2 19.9429 
*END

*D_NET *230 0.00200717
*CONN
*I *2349:B I *D sky130_fd_sc_hd__and3b_1
*I *2350:A1 I *D sky130_fd_sc_hd__a21bo_1
*I *2347:Y O *D sky130_fd_sc_hd__nand3_1
*CAP
1 *2349:B 0.000215855
2 *2350:A1 4.00988e-05
3 *2347:Y 0.000343525
4 *230:14 0.000599479
5 *2349:B *2350:B1_N 3.14078e-05
6 *2349:B *2363:B1 0.000126639
7 *2350:A1 *231:12 8.25098e-05
8 *2350:A1 *678:10 0
9 *230:14 *2730:SET_B 0.000121573
10 *230:14 *231:12 0.000313279
11 *230:14 *669:14 1.39726e-05
12 *230:14 *678:10 0
13 *2348:A2 *230:14 5.9232e-05
14 *2348:B1 *230:14 5.95965e-05
*RES
1 *2347:Y *230:14 20.7107 
2 *230:14 *2350:A1 14.8357 
3 *230:14 *2349:B 16.8 
*END

*D_NET *231 0.00160662
*CONN
*I *2350:A2 I *D sky130_fd_sc_hd__a21bo_1
*I *2349:C I *D sky130_fd_sc_hd__and3b_1
*I *2348:X O *D sky130_fd_sc_hd__a21o_1
*CAP
1 *2350:A2 0
2 *2349:C 0.000182848
3 *2348:X 0.00021607
4 *231:12 0.000398917
5 *2349:C *2350:B1_N 0.00014285
6 *2349:C *2363:B1 0.000122159
7 *2349:C *669:28 0
8 *231:12 *2730:D 6.74911e-05
9 *231:12 *669:14 8.05011e-05
10 *2350:A1 *231:12 8.25098e-05
11 *230:14 *231:12 0.000313279
*RES
1 *2348:X *231:12 23.6214 
2 *231:12 *2349:C 13.1393 
3 *231:12 *2350:A2 9.3 
*END

*D_NET *232 0.00165213
*CONN
*I *2363:B1 I *D sky130_fd_sc_hd__a21oi_1
*I *2349:X O *D sky130_fd_sc_hd__and3b_1
*CAP
1 *2363:B1 0.000294596
2 *2349:X 0.000294596
3 *2363:B1 *2350:B1_N 5.71472e-05
4 *2363:B1 *2363:A1 0.000415099
5 *2363:B1 *2730:D 0.000120519
6 *2363:B1 *669:28 0.00022138
7 *2349:B *2363:B1 0.000126639
8 *2349:C *2363:B1 0.000122159
*RES
1 *2349:X *2363:B1 28.6357 
*END

*D_NET *233 0.000709629
*CONN
*I *2363:A1 I *D sky130_fd_sc_hd__a21oi_1
*I *2350:X O *D sky130_fd_sc_hd__a21bo_1
*CAP
1 *2363:A1 6.21465e-05
2 *2350:X 6.21465e-05
3 *2363:A1 *669:14 5.52238e-05
4 *2363:A1 *669:28 0.000115013
5 *2363:B1 *2363:A1 0.000415099
*RES
1 *2350:X *2363:A1 21.6 
*END

*D_NET *234 0.000832634
*CONN
*I *2352:A2 I *D sky130_fd_sc_hd__a21o_1
*I *2362:A3 I *D sky130_fd_sc_hd__a32o_1
*I *2351:X O *D sky130_fd_sc_hd__or3_1
*CAP
1 *2352:A2 4.90327e-05
2 *2362:A3 0
3 *2351:X 9.3216e-05
4 *234:8 0.000142249
5 *2352:A2 *2362:B1 0.000122866
6 *2352:A2 *2362:B2 0.000186669
7 *234:8 *2363:A2 2.27416e-05
8 *2342:A *234:8 0
9 *2352:A1 *2352:A2 5.31803e-05
10 *2352:A1 *234:8 2.89114e-05
11 *2362:A1 *2352:A2 3.66478e-05
12 *2362:A2 *2352:A2 4.18895e-05
13 *2362:A2 *234:8 5.52302e-05
*RES
1 *2351:X *234:8 11.3893 
2 *234:8 *2362:A3 9.3 
3 *234:8 *2352:A2 11.8893 
*END

*D_NET *235 0.000703314
*CONN
*I *2362:B1 I *D sky130_fd_sc_hd__a32o_1
*I *2352:X O *D sky130_fd_sc_hd__a21o_1
*CAP
1 *2362:B1 5.84858e-05
2 *2352:X 5.84858e-05
3 *2352:A1 *2362:B1 2.44318e-05
4 *2352:A2 *2362:B1 0.000122866
5 *2352:B1 *2362:B1 9.90367e-05
6 *2362:A1 *2362:B1 0.000340007
*RES
1 *2352:X *2362:B1 21.8054 
*END

*D_NET *236 0.000697513
*CONN
*I *2354:C I *D sky130_fd_sc_hd__or3_1
*I *2355:A2 I *D sky130_fd_sc_hd__o21a_1
*I *2353:Y O *D sky130_fd_sc_hd__nor3b_1
*CAP
1 *2354:C 3.43131e-05
2 *2355:A2 0
3 *2353:Y 6.06328e-05
4 *236:6 9.49459e-05
5 *2354:C *2355:B1 5.85965e-05
6 *236:6 *2355:B1 2.44318e-05
7 *2354:B *2354:C 9.80173e-05
8 *2354:B *236:6 4.27935e-05
9 *2355:A1 *2354:C 4.18895e-05
10 *2355:A1 *236:6 5.52302e-05
11 *226:36 *236:6 0.000186662
*RES
1 *2353:Y *236:6 11.4786 
2 *236:6 *2355:A2 9.3 
3 *236:6 *2354:C 10.675 
*END

*D_NET *237 0.000821421
*CONN
*I *2361:B1 I *D sky130_fd_sc_hd__o21ai_1
*I *2354:X O *D sky130_fd_sc_hd__or3_1
*CAP
1 *2361:B1 0.000205664
2 *2354:X 0.000205664
3 *2361:B1 *2361:A1 0
4 *2361:B1 *2361:A2 0
5 *2361:B1 *3032:A 0.000377212
6 *2361:B1 *678:10 3.28804e-05
*RES
1 *2354:X *2361:B1 32.6536 
*END

*D_NET *238 0.000337664
*CONN
*I *2361:A1 I *D sky130_fd_sc_hd__o21ai_1
*I *2355:X O *D sky130_fd_sc_hd__o21a_1
*CAP
1 *2361:A1 0.000154381
2 *2355:X 0.000154381
3 *2361:A1 *2361:A2 0
4 *2361:A1 *3032:A 2.89016e-05
5 *2361:B1 *2361:A1 0
6 *226:10 *2361:A1 0
*RES
1 *2355:X *2361:A1 30.0821 
*END

*D_NET *239 0.000735959
*CONN
*I *2358:A2 I *D sky130_fd_sc_hd__o21a_1
*I *2357:C I *D sky130_fd_sc_hd__or3_1
*I *2356:X O *D sky130_fd_sc_hd__and3_1
*CAP
1 *2358:A2 0
2 *2357:C 0.000101655
3 *2356:X 9.71299e-05
4 *239:8 0.000198785
5 *2357:C *2357:A 4.48113e-05
6 *2357:C *678:12 0.00010096
7 *239:8 *2358:B1 3.99614e-06
8 *239:8 *2360:A3 7.3531e-05
9 *2357:B *2357:C 0.000115092
*RES
1 *2356:X *239:8 11.0857 
2 *239:8 *2357:C 21.1929 
3 *239:8 *2358:A2 9.3 
*END

*D_NET *240 0.000347421
*CONN
*I *2360:B1 I *D sky130_fd_sc_hd__o31a_1
*I *2357:X O *D sky130_fd_sc_hd__or3_1
*CAP
1 *2360:B1 0.000165066
2 *2357:X 0.000165066
3 *2360:B1 *2357:A 0
4 *2360:B1 *678:12 1.72894e-05
5 *2357:B *2360:B1 0
6 *223:27 *2360:B1 0
*RES
1 *2357:X *2360:B1 30.0821 
*END

*D_NET *241 0.000428066
*CONN
*I *2360:A2 I *D sky130_fd_sc_hd__o31a_1
*I *2358:X O *D sky130_fd_sc_hd__o21a_1
*CAP
1 *2360:A2 4.89928e-05
2 *2358:X 4.89928e-05
3 *2360:A2 *2360:A3 0.000100625
4 *2360:A2 *606:6 0.000229456
*RES
1 *2358:X *2360:A2 20.7786 
*END

*D_NET *242 0.00121173
*CONN
*I *2360:A3 I *D sky130_fd_sc_hd__o31a_1
*I *2359:X O *D sky130_fd_sc_hd__xor2_1
*CAP
1 *2360:A3 0.000378457
2 *2359:X 0.000378457
3 *2360:A3 *2356:A 5.71472e-05
4 *2360:A3 *2358:B1 5.71472e-05
5 *2360:A3 *606:6 1.02936e-05
6 *2356:B *2360:A3 2.44318e-05
7 *2356:C *2360:A3 3.26048e-05
8 *2360:A2 *2360:A3 0.000100625
9 *223:14 *2360:A3 9.90367e-05
10 *239:8 *2360:A3 7.3531e-05
*RES
1 *2359:X *2360:A3 26.5821 
*END

*D_NET *243 0.0010678
*CONN
*I *2361:A2 I *D sky130_fd_sc_hd__o21ai_1
*I *2360:X O *D sky130_fd_sc_hd__o31a_1
*CAP
1 *2361:A2 0.000406552
2 *2360:X 0.000406552
3 *2361:A2 *3032:A 0.000228558
4 *2361:A2 *678:10 0
5 *2355:A1 *2361:A2 2.61337e-05
6 *2361:A1 *2361:A2 0
7 *2361:B1 *2361:A2 0
*RES
1 *2360:X *2361:A2 33.2429 
*END

*D_NET *244 0.0007376
*CONN
*I *2362:B2 I *D sky130_fd_sc_hd__a32o_1
*I *2361:Y O *D sky130_fd_sc_hd__o21ai_1
*CAP
1 *2362:B2 0.000167906
2 *2361:Y 0.000167906
3 *2362:B2 *3032:A 0
4 *2352:A1 *2362:B2 0.000186669
5 *2352:A2 *2362:B2 0.000186669
6 *2362:A2 *2362:B2 2.84494e-05
7 *226:10 *2362:B2 0
*RES
1 *2361:Y *2362:B2 31.6179 
*END

*D_NET *245 0.00103375
*CONN
*I *2363:A2 I *D sky130_fd_sc_hd__a21oi_1
*I *2362:X O *D sky130_fd_sc_hd__a32o_1
*CAP
1 *2363:A2 0.000305779
2 *2362:X 0.000305779
3 *2344:A2 *2363:A2 0.000150625
4 *2351:A *2363:A2 3.23842e-05
5 *2351:C *2363:A2 1.39726e-05
6 *216:8 *2363:A2 7.60306e-05
7 *218:12 *2363:A2 0.000126439
8 *227:8 *2363:A2 0
9 *227:42 *2363:A2 0
10 *234:8 *2363:A2 2.27416e-05
*RES
1 *2362:X *2363:A2 33.4393 
*END

*D_NET *246 0.00469774
*CONN
*I *2488:C_N I *D sky130_fd_sc_hd__or3b_4
*I *2468:C_N I *D sky130_fd_sc_hd__or3b_4
*I *2368:C I *D sky130_fd_sc_hd__and3_2
*I *2366:B I *D sky130_fd_sc_hd__and2_1
*I *2365:B I *D sky130_fd_sc_hd__nor2_1
*I *2364:X O *D sky130_fd_sc_hd__and2b_1
*CAP
1 *2488:C_N 0
2 *2468:C_N 1.7148e-05
3 *2368:C 0.000226756
4 *2366:B 0.00025083
5 *2365:B 0.000102595
6 *2364:X 0.000144383
7 *246:61 0.00049779
8 *246:40 0.000858295
9 *246:23 0.000682966
10 *246:8 0.000528218
11 *2365:B *247:12 0.000144773
12 *2365:B *677:31 7.77751e-05
13 *2366:B *2367:A 6.71755e-05
14 *2366:B *2367:B 1.97695e-05
15 *2366:B *2740:CLK 0.000104054
16 *2366:B *248:19 9.60875e-05
17 *2368:C *2379:B 6.91215e-06
18 *2368:C *2382:B 2.84398e-05
19 *2368:C *250:10 2.8266e-06
20 *2368:C *730:29 9.55557e-05
21 *2368:C *744:12 3.91486e-05
22 *2468:C_N *2468:B 5.71472e-05
23 *246:8 *2740:D 0
24 *246:23 *2740:D 0.00012389
25 *246:40 *2367:A 7.50505e-05
26 *246:40 *2382:B 5.97623e-05
27 *246:61 *2468:B 8.18698e-05
28 *246:61 *250:10 0.000181803
29 *246:61 *730:19 0.000103977
30 *175:16 *2368:C 2.27416e-05
*RES
1 *2364:X *246:8 16.3536 
2 *246:8 *2365:B 16.8 
3 *246:8 *246:23 8.32143 
4 *246:23 *2366:B 13.6929 
5 *246:23 *246:40 7.96429 
6 *246:40 *2368:C 18.1571 
7 *246:40 *246:61 11.1071 
8 *246:61 *2468:C_N 9.83571 
9 *246:61 *2488:C_N 9.3 
*END

*D_NET *247 0.00249989
*CONN
*I *2367:A I *D sky130_fd_sc_hd__nor2_1
*I *2382:B I *D sky130_fd_sc_hd__xnor2_1
*I *2365:Y O *D sky130_fd_sc_hd__nor2_1
*CAP
1 *2367:A 0.000371547
2 *2382:B 8.93474e-05
3 *2365:Y 0.000162261
4 *247:12 0.000623155
5 *2367:A *2367:B 6.11433e-05
6 *2367:A *2740:CLK 0.000184947
7 *2367:A *248:19 2.95641e-05
8 *2367:A *350:71 1.69115e-05
9 *2382:B *250:10 1.52978e-05
10 *2382:B *350:71 4.53031e-05
11 *247:12 *2365:A 1.97695e-05
12 *247:12 *2742:RESET_B 2.58757e-05
13 *247:12 *677:31 0.000151621
14 *247:12 *729:8 0.00029608
15 *247:12 *729:48 3.18676e-05
16 *2365:B *247:12 0.000144773
17 *2366:B *2367:A 6.71755e-05
18 *2368:C *2382:B 2.84398e-05
19 *246:40 *2367:A 7.50505e-05
20 *246:40 *2382:B 5.97623e-05
*RES
1 *2365:Y *247:12 20.2286 
2 *247:12 *2382:B 16.05 
3 *247:12 *2367:A 21.7286 
*END

*D_NET *248 0.00272957
*CONN
*I *2369:B I *D sky130_fd_sc_hd__nor2_1
*I *2478:B I *D sky130_fd_sc_hd__nand2_4
*I *2367:B I *D sky130_fd_sc_hd__nor2_1
*I *2366:X O *D sky130_fd_sc_hd__and2_1
*CAP
1 *2369:B 0.000260105
2 *2478:B 4.38759e-05
3 *2367:B 4.55611e-05
4 *2366:X 0
5 *248:19 0.000563691
6 *248:4 0.000305272
7 *2369:B *2369:A 0.000123387
8 *2369:B *730:19 5.96516e-05
9 *2369:B *730:45 9.90431e-05
10 *2478:B *2368:B 0.00015234
11 *2478:B *350:71 0.000150625
12 *248:19 *2366:A 0.00019384
13 *248:19 *2368:B 2.31791e-05
14 *248:19 *2740:CLK 8.98585e-05
15 *248:19 *350:71 0.000266106
16 *248:19 *729:10 0.000146474
17 *2366:B *2367:B 1.97695e-05
18 *2366:B *248:19 9.60875e-05
19 *2367:A *2367:B 6.11433e-05
20 *2367:A *248:19 2.95641e-05
*RES
1 *2366:X *248:4 9.3 
2 *248:4 *2367:B 10.5679 
3 *248:4 *248:19 10.9464 
4 *248:19 *2478:B 15.7464 
5 *248:19 *2369:B 18.4607 
*END

*D_NET *249 0.00458248
*CONN
*I *2499:B I *D sky130_fd_sc_hd__nand3b_4
*I *2372:B I *D sky130_fd_sc_hd__and2_1
*I *2371:B I *D sky130_fd_sc_hd__nor2_1
*I *2573:C_N I *D sky130_fd_sc_hd__or3b_4
*I *2370:A I *D sky130_fd_sc_hd__nor2_1
*I *2368:X O *D sky130_fd_sc_hd__and3_2
*CAP
1 *2499:B 0
2 *2372:B 0
3 *2371:B 0
4 *2573:C_N 0.000103385
5 *2370:A 0.000118356
6 *2368:X 0.000251987
7 *249:39 0.000131267
8 *249:37 0.000239618
9 *249:29 0.000500199
10 *249:16 0.000658806
11 *2370:A *2370:B 1.90213e-05
12 *2573:C_N *2573:B 1.28585e-05
13 *2573:C_N *252:10 3.0285e-05
14 *2573:C_N *252:12 1.19309e-05
15 *2573:C_N *323:20 5.67394e-05
16 *2573:C_N *636:46 5.80706e-06
17 *249:16 *2291:A 0
18 *249:16 *2370:B 0.000114655
19 *249:16 *324:12 5.52302e-05
20 *249:16 *326:12 5.41794e-05
21 *249:29 *2498:B 4.43698e-05
22 *249:29 *259:23 0
23 *249:29 *322:10 0.000106853
24 *249:29 *324:12 0.00027557
25 *249:29 *326:25 0.000196276
26 *249:29 *326:29 0.000204618
27 *249:37 *2479:A 0.000227532
28 *249:37 *259:23 0
29 *249:37 *326:29 0.000170654
30 *249:37 *633:123 0.000351156
31 *249:37 *636:46 3.2534e-05
32 *249:39 *2479:A 5.52302e-05
33 *249:39 *251:10 0.000140933
34 *2468:A *2370:A 1.92789e-05
35 *2468:A *249:16 1.39841e-05
36 *175:16 *2370:A 1.3701e-05
37 *175:16 *249:16 0.000365463
*RES
1 *2368:X *249:16 23.8179 
2 *249:16 *2370:A 11.2821 
3 *249:16 *249:29 13.4286 
4 *249:29 *249:37 10.8929 
5 *249:37 *249:39 1.35714 
6 *249:39 *2573:C_N 20.55 
7 *249:39 *2371:B 9.3 
8 *249:37 *2372:B 9.3 
9 *249:29 *2499:B 13.8 
*END

*D_NET *250 0.00340807
*CONN
*I *2370:B I *D sky130_fd_sc_hd__nor2_1
*I *2379:B I *D sky130_fd_sc_hd__xnor2_1
*I *2369:Y O *D sky130_fd_sc_hd__nor2_1
*CAP
1 *2370:B 0.0003626
2 *2379:B 0.000250914
3 *2369:Y 0.000194642
4 *250:10 0.000808156
5 *2370:B *2743:D 5.52238e-05
6 *2370:B *324:12 0.000139907
7 *2379:B *2303:A 5.33005e-05
8 *2379:B *350:71 0.000435497
9 *2379:B *744:12 0
10 *250:10 *2369:A 0.000229456
11 *250:10 *350:71 0.000188748
12 *250:10 *730:19 5.52302e-05
13 *250:10 *730:29 0.000127446
14 *250:10 *730:45 3.98559e-05
15 *2368:C *2379:B 6.91215e-06
16 *2368:C *250:10 2.8266e-06
17 *2370:A *2370:B 1.90213e-05
18 *2382:B *250:10 1.52978e-05
19 *2468:A *2370:B 9.90431e-05
20 *175:16 *2370:B 2.754e-05
21 *246:61 *250:10 0.000181803
22 *249:16 *2370:B 0.000114655
*RES
1 *2369:Y *250:10 19.7643 
2 *250:10 *2379:B 19.925 
3 *250:10 *2370:B 20.5143 
*END

*D_NET *251 0.00141461
*CONN
*I *2373:A I *D sky130_fd_sc_hd__nor2_1
*I *2377:B I *D sky130_fd_sc_hd__xnor2_1
*I *2371:Y O *D sky130_fd_sc_hd__nor2_1
*CAP
1 *2373:A 0
2 *2377:B 7.84141e-05
3 *2371:Y 0.0002679
4 *251:10 0.000346315
5 *2377:B *2744:D 6.65302e-05
6 *2377:B *2756:D 1.31516e-05
7 *2377:B *350:54 2.1527e-05
8 *2377:B *635:101 0.000173083
9 *251:10 *2372:A 2.59355e-05
10 *251:10 *2479:A 2.28499e-05
11 *251:10 *2756:D 7.50601e-05
12 *251:10 *252:10 9.80173e-05
13 *251:10 *350:54 4.43698e-05
14 *251:10 *633:123 4.05247e-05
15 *249:39 *251:10 0.000140933
*RES
1 *2371:Y *251:10 19.5679 
2 *251:10 *2377:B 16.3536 
3 *251:10 *2373:A 13.8 
*END

*D_NET *252 0.00494722
*CONN
*I *2385:B I *D sky130_fd_sc_hd__nand2_1
*I *2373:B I *D sky130_fd_sc_hd__nor2_1
*I *2374:B I *D sky130_fd_sc_hd__nor2_1
*I *2546:B I *D sky130_fd_sc_hd__nand2b_4
*I *2372:X O *D sky130_fd_sc_hd__and2_1
*CAP
1 *2385:B 0.000100789
2 *2373:B 1.45281e-05
3 *2374:B 0.000569551
4 *2546:B 4.38939e-05
5 *2372:X 0.000180852
6 *252:36 0.000221707
7 *252:12 0.000717747
8 *252:10 0.000391544
9 *2373:B *2508:A 3.99614e-06
10 *2374:B *2374:A 0.000214926
11 *2374:B *350:43 0.00022266
12 *2374:B *350:54 8.36572e-05
13 *2374:B *636:8 4.40008e-05
14 *2374:B *746:6 3.14078e-05
15 *2385:B *2385:A 0.000227532
16 *2385:B *2829:A 0.00010096
17 *2385:B *260:12 0.000223036
18 *2385:B *635:6 5.33005e-05
19 *2385:B *635:8 7.21667e-05
20 *2546:B *2527:A 0.000152333
21 *2546:B *350:30 1.02504e-05
22 *2546:B *350:43 0.000140368
23 *252:10 *2479:A 3.14193e-05
24 *252:10 *2573:B 9.22948e-05
25 *252:12 *2527:A 2.48938e-05
26 *252:12 *2573:B 3.34366e-05
27 *252:12 *323:20 0
28 *252:12 *326:29 7.2589e-05
29 *252:12 *339:12 9.97648e-05
30 *252:12 *350:43 3.34366e-05
31 *252:36 *2508:B 5.33005e-05
32 *252:36 *260:12 0.000393949
33 *252:36 *330:10 2.89016e-05
34 *252:36 *339:12 2.89016e-05
35 *252:36 *635:8 4.27437e-05
36 *252:36 *635:14 5.01483e-05
37 *2573:C_N *252:10 3.0285e-05
38 *2573:C_N *252:12 1.19309e-05
39 *251:10 *252:10 9.80173e-05
*RES
1 *2372:X *252:10 16.9071 
2 *252:10 *252:12 3.46429 
3 *252:12 *2546:B 15.7464 
4 *252:12 *2374:B 23.8 
5 *252:10 *252:36 8.32143 
6 *252:36 *2373:B 9.72857 
7 *252:36 *2385:B 13.675 
*END

*D_NET *253 0.00274534
*CONN
*I *2375:B I *D sky130_fd_sc_hd__xnor2_1
*I *2414:A_N I *D sky130_fd_sc_hd__and2b_1
*I *2374:Y O *D sky130_fd_sc_hd__nor2_1
*CAP
1 *2375:B 0.000671372
2 *2414:A_N 6.51242e-05
3 *2374:Y 0.000240788
4 *253:6 0.000977284
5 *2375:B *2378:B 8.57023e-05
6 *2375:B *2415:A 0.000195396
7 *2375:B *2827:A 1.92905e-05
8 *2414:A_N *2378:B 6.09572e-05
9 *2414:A_N *677:31 6.09572e-05
10 *253:6 *2378:B 0.000227539
11 *253:6 *746:6 0.000140933
*RES
1 *2374:Y *253:6 12.7107 
2 *253:6 *2414:A_N 19.9429 
3 *253:6 *2375:B 19.7286 
*END

*D_NET *254 0.00322664
*CONN
*I *2389:A I *D sky130_fd_sc_hd__nor2_1
*I *2376:Y O *D sky130_fd_sc_hd__xnor2_1
*CAP
1 *2389:A 0
2 *2376:Y 0.00158229
3 *254:14 0.00158229
4 *254:14 *2376:A 0
5 *254:14 *2387:A 6.20656e-05
6 *254:14 *2776:D 0
7 *254:14 *732:25 0
8 *183:10 *254:14 0
9 *183:21 *254:14 0
10 *198:8 *254:14 0
11 *198:27 *254:14 0
*RES
1 *2376:Y *254:14 42.675 
2 *254:14 *2389:A 9.3 
*END

*D_NET *255 0.00026316
*CONN
*I *2388:A I *D sky130_fd_sc_hd__or4b_1
*I *2378:X O *D sky130_fd_sc_hd__xor2_1
*CAP
1 *2388:A 9.57575e-05
2 *2378:X 9.57575e-05
3 *2388:A *2388:C 7.16452e-05
*RES
1 *2378:X *2388:A 20.3857 
*END

*D_NET *256 0.000488406
*CONN
*I *2388:B I *D sky130_fd_sc_hd__or4b_1
*I *2380:Y O *D sky130_fd_sc_hd__nor2_1
*CAP
1 *2388:B 0.00015461
2 *2380:Y 0.00015461
3 *2388:B *2388:D_N 3.92854e-05
4 *2388:B *327:99 0
5 *2388:B *633:123 0.0001399
*RES
1 *2380:Y *2388:B 29.9929 
*END

*D_NET *257 0.00052936
*CONN
*I *2388:D_N I *D sky130_fd_sc_hd__or4b_1
*I *2381:Y O *D sky130_fd_sc_hd__nand2_1
*CAP
1 *2388:D_N 0.000146549
2 *2381:Y 0.000146549
3 *2388:D_N *2755:D 0.000148182
4 *2388:D_N *327:99 0
5 *2380:A *2388:D_N 4.87953e-05
6 *2388:B *2388:D_N 3.92854e-05
*RES
1 *2381:Y *2388:D_N 30.4929 
*END

*D_NET *258 0.000382907
*CONN
*I *2387:A I *D sky130_fd_sc_hd__nand2_1
*I *2383:Y O *D sky130_fd_sc_hd__xnor2_1
*CAP
1 *2387:A 0.000160421
2 *2383:Y 0.000160421
3 *254:14 *2387:A 6.20656e-05
*RES
1 *2383:Y *2387:A 21.6357 
*END

*D_NET *259 0.00384559
*CONN
*I *2469:A I *D sky130_fd_sc_hd__nor2_4
*I *2489:A I *D sky130_fd_sc_hd__nor2_4
*I *2479:A I *D sky130_fd_sc_hd__nor2_4
*I *2384:Y O *D sky130_fd_sc_hd__nand2_2
*CAP
1 *2469:A 0.000102939
2 *2489:A 0.000102966
3 *2479:A 0.000179316
4 *2384:Y 0.000144881
5 *259:23 0.000307385
6 *259:8 0.000425677
7 *2469:A *323:10 4.90803e-05
8 *2469:A *323:20 0.000148911
9 *2469:A *324:12 0
10 *2479:A *323:20 0.000166503
11 *2479:A *636:46 3.71496e-05
12 *2489:A *2489:B 0.000265453
13 *2489:A *327:26 9.05499e-05
14 *259:8 *2384:B 9.90431e-05
15 *259:8 *2498:B 4.88637e-05
16 *259:8 *2681:CLK 0.000695767
17 *259:8 *635:63 0.000136908
18 *259:8 *636:82 0.000236566
19 *259:23 *2498:B 4.94362e-05
20 *259:23 *323:20 0.000221163
21 *249:29 *259:23 0
22 *249:37 *2479:A 0.000227532
23 *249:37 *259:23 0
24 *249:39 *2479:A 5.52302e-05
25 *251:10 *2479:A 2.28499e-05
26 *252:10 *2479:A 3.14193e-05
*RES
1 *2384:Y *259:8 20.4964 
2 *259:8 *2479:A 18.6571 
3 *259:8 *259:23 2.85714 
4 *259:23 *2489:A 16.8179 
5 *259:23 *2469:A 16.3536 
*END

*D_NET *260 0.0152551
*CONN
*I *2827:A I *D sky130_fd_sc_hd__buf_4
*I *2606:S I *D sky130_fd_sc_hd__mux2_1
*I *2385:Y O *D sky130_fd_sc_hd__nand2_1
*CAP
1 *2827:A 0.000758257
2 *2606:S 0.00138539
3 *2385:Y 0
4 *260:12 0.0045213
5 *260:4 0.00389417
6 *2606:S *2459:S1 8.6229e-06
7 *2606:S *2460:A1 0.000219828
8 *2606:S *2460:A2 0.000140777
9 *2606:S *2460:S0 7.4021e-06
10 *2606:S *2460:S1 8.18783e-05
11 *2606:S *2606:A0 4.27934e-05
12 *2606:S *334:66 0.000106542
13 *2606:S *342:36 0
14 *2827:A *2740:RESET_B 0
15 *2827:A *2745:D 1.92789e-05
16 *2827:A *2829:A 0.000351176
17 *2827:A *363:10 0.000142307
18 *2827:A *364:8 0
19 *2827:A *633:93 2.15245e-05
20 *2827:A *633:99 6.5349e-05
21 *260:12 *2422:S1 0.000113198
22 *260:12 *2460:S0 0.000752411
23 *260:12 *2460:S1 2.89016e-05
24 *260:12 *2573:B 5.03772e-05
25 *260:12 *2829:A 0.000144773
26 *260:12 *316:14 0.00096544
27 *260:12 *334:31 0.000646055
28 *260:12 *635:14 7.48301e-06
29 *260:12 *635:18 2.42516e-05
30 *2375:B *2827:A 1.92905e-05
31 *2385:B *260:12 0.000223036
32 *2631:D *2606:S 0.000119285
33 *252:36 *260:12 0.000393949
*RES
1 *2385:Y *260:4 9.3 
2 *260:4 *260:12 48.75 
3 *260:12 *2606:S 39.1929 
4 *260:4 *2827:A 29.8179 
*END

*D_NET *261 0.000495283
*CONN
*I *2387:B I *D sky130_fd_sc_hd__nand2_1
*I *2386:Y O *D sky130_fd_sc_hd__xnor2_1
*CAP
1 *2387:B 0.000150326
2 *2386:Y 0.000150326
3 *2387:B *2306:A 0.000125731
4 *2387:B *2383:A 5.33005e-05
5 *2387:B *2740:RESET_B 0
6 *2386:A *2387:B 1.56e-05
*RES
1 *2386:Y *2387:B 30.1893 
*END

*D_NET *262 0.001255
*CONN
*I *2388:C I *D sky130_fd_sc_hd__or4b_1
*I *2387:Y O *D sky130_fd_sc_hd__nand2_1
*CAP
1 *2388:C 0.000361688
2 *2387:Y 0.000361688
3 *2388:C *2306:A 9.15804e-05
4 *2388:C *2378:A 7.43578e-06
5 *2388:C *2389:B 5.52302e-05
6 *2388:C *363:10 0.000196276
7 *2388:C *633:123 0.00010946
8 *2388:A *2388:C 7.16452e-05
*RES
1 *2387:Y *2388:C 35.2071 
*END

*D_NET *263 0.000815692
*CONN
*I *2389:B I *D sky130_fd_sc_hd__nor2_1
*I *2388:X O *D sky130_fd_sc_hd__or4b_1
*CAP
1 *2389:B 0.000222641
2 *2388:X 0.000222641
3 *2389:B *2306:A 0
4 *2389:B *677:31 0.000315179
5 *2388:C *2389:B 5.52302e-05
*RES
1 *2388:X *2389:B 32.2071 
*END

*D_NET *264 0.0212112
*CONN
*I *2828:A I *D sky130_fd_sc_hd__clkbuf_4
*I *2461:S I *D sky130_fd_sc_hd__mux2_1
*I *2423:S I *D sky130_fd_sc_hd__mux2_1
*I *2390:X O *D sky130_fd_sc_hd__and2b_2
*CAP
1 *2828:A 0
2 *2461:S 0.00104365
3 *2423:S 8.48132e-05
4 *2390:X 0.000135476
5 *264:20 0.00340664
6 *264:18 0.0063443
7 *264:10 0.0042016
8 *2423:S *2857:A 2.89016e-05
9 *2461:S *2617:CLK 0.000236195
10 *2461:S *2617:RESET_B 0.000110641
11 *2461:S *540:10 6.07232e-05
12 *264:10 *2431:A0 3.14163e-05
13 *264:10 *678:54 0.000148555
14 *264:10 *739:10 7.19063e-05
15 *264:18 *2431:A1 0
16 *264:18 *2575:S 0
17 *264:18 *2855:A 0
18 *264:18 *331:56 0.000101825
19 *264:18 *339:142 0
20 *264:18 *637:16 0.000898873
21 *264:18 *637:28 0.000641394
22 *264:18 *642:37 0
23 *264:18 *678:54 2.11419e-05
24 *264:18 *739:10 1.01912e-05
25 *264:20 *2419:A2 0
26 *264:20 *2419:S0 0.000187398
27 *264:20 *2421:A3 0.00023817
28 *264:20 *2421:S0 0
29 *264:20 *2421:S1 6.42242e-05
30 *264:20 *2422:A2 0.000389447
31 *264:20 *2423:A1 0
32 *264:20 *2428:A0 0.000171368
33 *264:20 *2428:A1 6.39908e-05
34 *264:20 *2428:S0 0.000106099
35 *264:20 *2574:S 1.01912e-05
36 *264:20 *2609:A1 4.06875e-05
37 *264:20 *2811:A 4.19624e-06
38 *264:20 *2858:A 0.000207268
39 *264:20 *2877:A 3.15739e-05
40 *264:20 *2898:A 0
41 *264:20 *2953:A 8.26359e-05
42 *264:20 *2965:A 2.22043e-05
43 *264:20 *2999:A 0.00036446
44 *264:20 *329:107 0.000520291
45 *264:20 *336:10 0.000321742
46 *264:20 *342:67 0
47 *264:20 *384:10 0
48 *264:20 *439:16 0.00012401
49 *264:20 *540:10 2.94103e-05
50 *264:20 *637:30 0
51 *264:20 *644:82 0
52 *264:20 *664:43 0
53 *264:20 *664:54 0
54 *264:20 *667:14 6.98669e-05
55 empty *264:18 0.000299094
56 *2617:D *2461:S 0.000199924
57 *2681:D *264:20 8.47011e-05
*RES
1 *2390:X *264:10 16.6929 
2 *264:10 *264:18 17.4493 
3 *264:18 *264:20 54.0089 
4 *264:20 *2423:S 15.1571 
5 *264:20 *2461:S 29.1571 
6 *264:10 *2828:A 13.8 
*END

*D_NET *265 0.000897902
*CONN
*I *2404:B I *D sky130_fd_sc_hd__xnor2_1
*I *2393:A I *D sky130_fd_sc_hd__nor2_1
*I *2391:Y O *D sky130_fd_sc_hd__nor2_1
*CAP
1 *2404:B 1.12434e-05
2 *2393:A 0.000109114
3 *2391:Y 2.72966e-05
4 *265:6 0.000147654
5 *2393:A *2392:B 5.52302e-05
6 *2393:A *642:99 1.17968e-05
7 *2393:A *642:101 9.24491e-05
8 *2393:A *668:26 0.000193833
9 *2404:B *650:22 2.28598e-05
10 *2404:B *669:28 5.52302e-05
11 *265:6 *2391:B 5.52238e-05
12 *265:6 *650:22 1.98839e-05
13 *265:6 *669:28 9.60875e-05
*RES
1 *2391:Y *265:6 10.2464 
2 *265:6 *2393:A 21.3893 
3 *265:6 *2404:B 9.83571 
*END

*D_NET *266 0.000608325
*CONN
*I *2393:B I *D sky130_fd_sc_hd__nor2_1
*I *2392:X O *D sky130_fd_sc_hd__and2_1
*CAP
1 *2393:B 0.000165801
2 *2392:X 0.000165801
3 *2393:B *2392:B 4.43256e-05
4 *2393:B *2840:A 0.000232399
*RES
1 *2392:X *2393:B 22.0286 
*END

*D_NET *267 0.0011152
*CONN
*I *2396:A I *D sky130_fd_sc_hd__nor2_1
*I *2400:B I *D sky130_fd_sc_hd__xnor2_1
*I *2394:Y O *D sky130_fd_sc_hd__a21oi_1
*CAP
1 *2396:A 0
2 *2400:B 9.09735e-05
3 *2394:Y 0.000156774
4 *267:12 0.000247747
5 *2400:B *2396:B 8.35412e-05
6 *2400:B *640:20 0.000224583
7 *267:12 *363:10 0.000145609
8 *267:12 *551:26 1.27207e-05
9 *267:12 *634:40 3.69047e-06
10 *267:12 *669:87 0.000149556
*RES
1 *2394:Y *267:12 21.1929 
2 *267:12 *2400:B 11.9071 
3 *267:12 *2396:A 9.3 
*END

*D_NET *268 0.00596724
*CONN
*I *2403:C I *D sky130_fd_sc_hd__and3_1
*I *2398:B I *D sky130_fd_sc_hd__and2_1
*I *2408:A2 I *D sky130_fd_sc_hd__a21oi_1
*I *2397:B I *D sky130_fd_sc_hd__nor2_1
*I *2396:B I *D sky130_fd_sc_hd__nor2_1
*I *2395:X O *D sky130_fd_sc_hd__and3_1
*CAP
1 *2403:C 0.00059016
2 *2398:B 4.60399e-05
3 *2408:A2 0.000332948
4 *2397:B 5.9362e-05
5 *2396:B 0.000286892
6 *2395:X 0
7 *268:27 0.000662551
8 *268:21 0.000499874
9 *268:6 0.000507372
10 *268:4 0.000627047
11 *2396:B *2835:A 5.71472e-05
12 *2396:B *640:20 1.74352e-05
13 *2396:B *642:6 0.000171283
14 *2396:B *642:12 0.000266473
15 *2397:B *2837:A 2.84494e-05
16 *2397:B *639:8 5.52238e-05
17 *2397:B *672:40 2.61337e-05
18 *2398:B *2395:B 0
19 *2398:B *2411:B 5.59013e-05
20 *2398:B *639:49 2.09846e-05
21 *2403:C *2395:C 1.95435e-05
22 *2403:C *2403:B 1.23419e-06
23 *2403:C *2835:A 9.60395e-05
24 *2408:A2 *2408:A1 6.79057e-05
25 *2408:A2 *2408:B1 3.37729e-05
26 *2408:A2 *637:157 0.000268396
27 *2408:A2 *639:6 0.000549968
28 *2408:A2 *639:8 5.52302e-05
29 *268:6 *2835:A 2.44318e-05
30 *268:21 *2395:B 0
31 *268:21 *639:49 0.000129633
32 *268:27 *2399:A 5.52302e-05
33 *268:27 *269:6 0.000254036
34 *268:27 *639:8 1.69961e-05
35 *2400:B *2396:B 8.35412e-05
*RES
1 *2395:X *268:4 9.3 
2 *268:4 *268:6 0.535714 
3 *268:6 *2396:B 16.0321 
4 *268:6 *268:21 7.96429 
5 *268:21 *268:27 8.33929 
6 *268:27 *2397:B 19.5679 
7 *268:27 *2408:A2 17.55 
8 *268:21 *2398:B 14.8357 
9 *268:4 *2403:C 16.0679 
*END

*D_NET *269 0.00234354
*CONN
*I *2411:B I *D sky130_fd_sc_hd__xnor2_1
*I *2399:A I *D sky130_fd_sc_hd__nor2_1
*I *2397:Y O *D sky130_fd_sc_hd__nor2_1
*CAP
1 *2411:B 0.000143802
2 *2399:A 0.000219815
3 *2397:Y 5.68426e-05
4 *269:6 0.00042046
5 *2399:A *2399:B 0.000184745
6 *2399:A *2733:CLK 3.22304e-05
7 *2399:A *2737:D 0.000171034
8 *2399:A *363:10 0
9 *2399:A *639:10 0.000125547
10 *2399:A *639:18 0.000269422
11 *2411:B *2395:B 3.66509e-05
12 *2411:B *644:27 4.65603e-05
13 *2411:B *648:78 5.80706e-06
14 *269:6 *639:8 0.000210223
15 *269:6 *639:10 5.52302e-05
16 *2398:B *2411:B 5.59013e-05
17 *268:27 *2399:A 5.52302e-05
18 *268:27 *269:6 0.000254036
*RES
1 *2397:Y *269:6 11.8893 
2 *269:6 *2399:A 24.3714 
3 *269:6 *2411:B 21.4607 
*END

*D_NET *270 0.000759991
*CONN
*I *2399:B I *D sky130_fd_sc_hd__nor2_1
*I *2398:X O *D sky130_fd_sc_hd__and2_1
*CAP
1 *2399:B 0.000213447
2 *2398:X 0.000213447
3 *2399:B *2737:D 0.000148352
4 *2399:B *639:49 0
5 *2399:A *2399:B 0.000184745
*RES
1 *2398:X *2399:B 31.3143 
*END

*D_NET *271 0.000738303
*CONN
*I *2407:A1 I *D sky130_fd_sc_hd__o221a_1
*I *2401:X O *D sky130_fd_sc_hd__and2_1
*CAP
1 *2407:A1 0.000124906
2 *2401:X 0.000124906
3 *2407:A1 *2336:A 9.60875e-05
4 *2407:A1 *551:18 0.000107204
5 *2407:A1 *634:26 0.000285198
*RES
1 *2401:X *2407:A1 22.4571 
*END

*D_NET *272 0.000591567
*CONN
*I *2407:A2 I *D sky130_fd_sc_hd__o221a_1
*I *2402:Y O *D sky130_fd_sc_hd__nor2_1
*CAP
1 *2407:A2 0.000223538
2 *2402:Y 0.000223538
3 *2407:A2 *2402:B 6.05161e-06
4 *2407:A2 *2416:A 8.27184e-06
5 *2407:A2 *273:6 8.27184e-06
6 *2407:A2 *273:10 6.09476e-05
7 *2407:A2 *708:42 6.09476e-05
*RES
1 *2402:Y *2407:A2 31.0107 
*END

*D_NET *273 0.00317717
*CONN
*I *2416:A I *D sky130_fd_sc_hd__nor2_1
*I *2407:B1 I *D sky130_fd_sc_hd__o221a_1
*I *2417:B I *D sky130_fd_sc_hd__xor2_1
*I *2406:A2 I *D sky130_fd_sc_hd__a21oi_1
*I *2403:X O *D sky130_fd_sc_hd__and3_1
*CAP
1 *2416:A 0.000426535
2 *2407:B1 0
3 *2417:B 6.74999e-05
4 *2406:A2 2.63445e-05
5 *2403:X 0.000185846
6 *273:14 0.000164147
7 *273:10 0.000205633
8 *273:6 0.00074771
9 *2406:A2 *668:79 5.33005e-05
10 *2416:A *2413:A 0.000337367
11 *2416:A *2416:B 5.33005e-05
12 *2416:A *2734:D 6.05161e-06
13 *2416:A *668:112 0.000173211
14 *2417:B *2407:C1 0
15 *2417:B *668:79 0.000142856
16 *273:6 *2402:A 2.89016e-05
17 *273:6 *2402:B 2.61099e-05
18 *273:10 *2334:A 0.000118179
19 *273:10 *2336:A 2.31791e-05
20 *273:10 *708:42 0
21 *273:14 *2336:A 0.000170661
22 *273:14 *668:79 6.8646e-06
23 *2407:A2 *2416:A 8.27184e-06
24 *2407:A2 *273:6 8.27184e-06
25 *2407:A2 *273:10 6.09476e-05
26 *2407:B2 *273:10 1.02504e-05
27 *2407:B2 *273:14 0.000125731
*RES
1 *2403:X *273:6 11.4786 
2 *273:6 *273:10 7.96429 
3 *273:10 *273:14 6.75 
4 *273:14 *2406:A2 9.83571 
5 *273:14 *2417:B 11.0857 
6 *273:10 *2407:B1 13.8 
7 *273:6 *2416:A 26.2107 
*END

*D_NET *274 0.0010082
*CONN
*I *2406:B1 I *D sky130_fd_sc_hd__a21oi_1
*I *2405:X O *D sky130_fd_sc_hd__xor2_1
*CAP
1 *2406:B1 0.000305071
2 *2405:X 0.000305071
3 *2406:B1 *2334:A 0.000195237
4 *2406:B1 *2336:A 7.80714e-06
5 *2406:B1 *2407:C1 3.51442e-05
6 *2406:B1 *640:55 0.000159868
*RES
1 *2405:X *2406:B1 35.475 
*END

*D_NET *275 0.00071339
*CONN
*I *2407:C1 I *D sky130_fd_sc_hd__o221a_1
*I *2406:Y O *D sky130_fd_sc_hd__a21oi_1
*CAP
1 *2407:C1 0.000174955
2 *2406:Y 0.000174955
3 *2407:C1 *2334:A 0.000197984
4 *2407:C1 *2336:A 5.33005e-05
5 *2407:C1 *2402:B 4.46186e-06
6 *2407:C1 *551:18 5.33005e-05
7 *2407:C1 *640:55 0
8 *2407:C1 *668:79 1.92905e-05
9 *2406:B1 *2407:C1 3.51442e-05
10 *2417:B *2407:C1 0
*RES
1 *2406:Y *2407:C1 31.6536 
*END

*D_NET *276 0.00243753
*CONN
*I *2413:A I *D sky130_fd_sc_hd__and3_1
*I *2407:X O *D sky130_fd_sc_hd__o221a_1
*CAP
1 *2413:A 0.000466907
2 *2407:X 0.000466907
3 *2413:A *2409:B 0.000462964
4 *2413:A *2413:B 0
5 *2413:A *2413:C 0.000318107
6 *2413:A *668:112 0.000137473
7 *2413:A *708:42 0.000247803
8 *2416:A *2413:A 0.000337367
*RES
1 *2407:X *2413:A 42.5643 
*END

*D_NET *277 0.00188383
*CONN
*I *2416:B I *D sky130_fd_sc_hd__nor2_1
*I *2409:B I *D sky130_fd_sc_hd__xnor2_1
*I *2408:Y O *D sky130_fd_sc_hd__a21oi_1
*CAP
1 *2416:B 8.23746e-05
2 *2409:B 0.000214101
3 *2408:Y 0
4 *277:4 0.000296475
5 *2409:B *2413:B 0
6 *2409:B *2773:D 3.34366e-05
7 *2409:B *708:42 0.000605761
8 *2409:B *755:10 0
9 *2416:B *2408:B1 4.81734e-05
10 *2416:B *2734:D 1.56e-05
11 *2416:B *637:174 7.16452e-05
12 *2413:A *2409:B 0.000462964
13 *2416:A *2416:B 5.33005e-05
*RES
1 *2408:Y *277:4 9.3 
2 *277:4 *2409:B 26.3179 
3 *277:4 *2416:B 11.5143 
*END

*D_NET *278 0.000485499
*CONN
*I *2413:B I *D sky130_fd_sc_hd__and3_1
*I *2410:Y O *D sky130_fd_sc_hd__xnor2_1
*CAP
1 *2413:B 0.000188055
2 *2410:Y 0.000188055
3 *2413:B *2330:A 7.26748e-05
4 *2413:B *722:8 3.67142e-05
5 *2409:B *2413:B 0
6 *2413:A *2413:B 0
*RES
1 *2410:Y *2413:B 31.1 
*END

*D_NET *279 0.0013295
*CONN
*I *2413:C I *D sky130_fd_sc_hd__and3_1
*I *2412:Y O *D sky130_fd_sc_hd__xnor2_1
*CAP
1 *2413:C 0.000486054
2 *2412:Y 0.000486054
3 *2413:C *2334:A 0
4 *2413:C *708:42 3.92854e-05
5 *2413:A *2413:C 0.000318107
*RES
1 *2412:Y *2413:C 34.1714 
*END

*D_NET *280 0.00334149
*CONN
*I *2422:A2 I *D sky130_fd_sc_hd__mux4_1
*I *2418:X O *D sky130_fd_sc_hd__mux4_1
*CAP
1 *2422:A2 0.000436598
2 *2418:X 0.000436598
3 *2422:A2 *2422:A3 3.33238e-05
4 *2422:A2 *2422:S1 0.000245342
5 *2422:A2 *2534:S 0.000785316
6 *2422:A2 *2900:A 0.000317082
7 *2422:A2 *336:10 0.000148911
8 *2422:A2 *336:51 0.000298281
9 *2422:A2 *337:24 0.000250588
10 *2422:A2 *342:67 0
11 *264:20 *2422:A2 0.000389447
*RES
1 *2418:X *2422:A2 44.9839 
*END

*D_NET *281 0.00202475
*CONN
*I *2422:A0 I *D sky130_fd_sc_hd__mux4_1
*I *2419:X O *D sky130_fd_sc_hd__mux4_1
*CAP
1 *2422:A0 0.000708681
2 *2419:X 0.000708681
3 *2422:A0 *2510:A0 0
4 *2422:A0 *2538:S 0.000384357
5 *2422:A0 *329:20 1.92789e-05
6 *2422:A0 *331:31 1.67276e-05
7 *2422:A0 *333:12 0
8 *2422:A0 *334:12 7.8327e-05
9 *2422:A0 *340:10 7.44945e-07
10 *2422:A0 *340:16 2.86754e-05
11 *2422:A0 *648:117 7.92757e-05
*RES
1 *2419:X *2422:A0 41.2607 
*END

*D_NET *282 0.00263049
*CONN
*I *2422:A3 I *D sky130_fd_sc_hd__mux4_1
*I *2420:X O *D sky130_fd_sc_hd__mux4_1
*CAP
1 *2422:A3 0.000749083
2 *2420:X 0.000749083
3 *2422:A3 *2423:A1 6.71755e-05
4 *2422:A3 *329:20 0.000102197
5 *2422:A3 *329:96 0.000122933
6 *2422:A3 *332:155 0
7 *2422:A3 *334:31 1.19191e-05
8 *2422:A3 *334:41 9.71197e-05
9 *2422:A3 *342:67 9.44268e-05
10 *2422:A3 *375:10 3.69697e-05
11 *2422:A3 *667:24 0.000254049
12 *2422:A3 *667:30 0.000312209
13 *2422:A2 *2422:A3 3.33238e-05
*RES
1 *2420:X *2422:A3 41.3679 
*END

*D_NET *283 0.00204648
*CONN
*I *2422:A1 I *D sky130_fd_sc_hd__mux4_1
*I *2421:X O *D sky130_fd_sc_hd__mux4_1
*CAP
1 *2422:A1 0.000854195
2 *2421:X 0.000854195
3 *2422:A1 *2421:A0 1.92789e-05
4 *2422:A1 *2421:A2 0.000114063
5 *2422:A1 *332:12 3.96269e-05
6 *2422:A1 *334:12 0.000107975
7 *2422:A1 *479:10 0
8 *2422:A1 *667:24 5.71472e-05
*RES
1 *2421:X *2422:A1 39.6 
*END

*D_NET *284 0.00230309
*CONN
*I *2423:A1 I *D sky130_fd_sc_hd__mux2_1
*I *2422:X O *D sky130_fd_sc_hd__mux4_1
*CAP
1 *2423:A1 0.000721311
2 *2422:X 0.000721311
3 *2423:A1 *2421:S1 4.48113e-05
4 *2423:A1 *2500:A1 0
5 *2423:A1 *2858:A 5.38886e-05
6 *2423:A1 *2877:A 8.89385e-05
7 *2423:A1 *329:20 7.6644e-05
8 *2423:A1 *334:41 9.71197e-05
9 *2423:A1 *342:67 0.000274825
10 *2423:A1 *667:24 2.30116e-06
11 *2422:A3 *2423:A1 6.71755e-05
12 *2787:D *2423:A1 0.000154762
13 *264:20 *2423:A1 0
*RES
1 *2422:X *2423:A1 42.9571 
*END

*D_NET *285 0.00548747
*CONN
*I *2426:A1 I *D sky130_fd_sc_hd__mux2_1
*I *2424:X O *D sky130_fd_sc_hd__mux4_1
*CAP
1 *2426:A1 0
2 *2424:X 0.00177625
3 *285:24 0.00177625
4 *285:24 *2424:A3 0.000239722
5 *285:24 *2424:S0 0.000603927
6 *285:24 *2425:A3 7.94417e-05
7 *285:24 *2426:A0 7.47511e-05
8 *285:24 *2430:A0 2.89114e-05
9 *285:24 *2658:CLK 3.3283e-05
10 *285:24 *2897:A 5.76422e-05
11 *285:24 *345:128 0.000128154
12 *285:24 *424:8 9.16882e-05
13 *285:24 *432:6 5.52302e-05
14 *285:24 *640:20 1.3701e-05
15 *285:24 *642:37 0.000223631
16 *2658:D *285:24 0.000145377
17 *2714:D *285:24 0.00015952
*RES
1 *2424:X *285:24 48.1036 
2 *285:24 *2426:A1 9.3 
*END

*D_NET *286 0.00313307
*CONN
*I *2426:A0 I *D sky130_fd_sc_hd__mux2_1
*I *2425:X O *D sky130_fd_sc_hd__mux4_1
*CAP
1 *2426:A0 0.00112722
2 *2425:X 0.00112722
3 *2426:A0 *2425:A0 3.32631e-05
4 *2426:A0 *2425:A1 0.000458597
5 *2426:A0 *2425:A2 9.75337e-06
6 *2426:A0 *2425:A3 6.19471e-06
7 *2426:A0 *2425:S0 1.40415e-05
8 *2426:A0 *2425:S1 2.85015e-05
9 *2426:A0 *2529:A1 0.000191629
10 *2426:A0 *333:98 5.66914e-05
11 *2426:A0 *705:12 5.20359e-06
12 *285:24 *2426:A0 7.47511e-05
*RES
1 *2425:X *2426:A0 43.6179 
*END

*D_NET *287 0.00248258
*CONN
*I *2430:A0 I *D sky130_fd_sc_hd__mux2_1
*I *2426:X O *D sky130_fd_sc_hd__mux2_1
*CAP
1 *2430:A0 0.000490227
2 *2426:X 0.000490227
3 *2430:A0 *2430:S 0.000105598
4 *2430:A0 *2431:A1 0.000478351
5 *2430:A0 *2770:CLK 0.000120519
6 *2430:A0 *2770:D 9.91086e-05
7 *2430:A0 *331:102 6.85303e-05
8 *2430:A0 *633:22 0.000242589
9 *2430:A0 *637:62 3.27428e-05
10 *2430:A0 *639:26 0.000220085
11 *2430:A0 *642:37 0.000105689
12 *285:24 *2430:A0 2.89114e-05
*RES
1 *2426:X *2430:A0 41.8321 
*END

*D_NET *288 0.00194451
*CONN
*I *2429:A1 I *D sky130_fd_sc_hd__mux2_1
*I *2427:X O *D sky130_fd_sc_hd__mux4_1
*CAP
1 *2429:A1 0.000604731
2 *2427:X 0.000604731
3 *2429:A1 *2427:S1 0.000368227
4 *2429:A1 *325:34 0.000266085
5 *2429:A1 *644:27 7.83587e-05
6 *2429:A1 *664:82 2.23758e-05
*RES
1 *2427:X *2429:A1 37.35 
*END

*D_NET *289 0.00293201
*CONN
*I *2429:A0 I *D sky130_fd_sc_hd__mux2_1
*I *2428:X O *D sky130_fd_sc_hd__mux4_1
*CAP
1 *2429:A0 0.000817068
2 *2428:X 0.000817068
3 *2429:A0 *2610:A0 7.83659e-05
4 *2429:A0 *333:98 8.25843e-06
5 *2429:A0 *637:28 7.83659e-05
6 *2429:A0 *648:86 0.00113288
*RES
1 *2428:X *2429:A0 39.85 
*END

*D_NET *290 0.00040868
*CONN
*I *2430:A1 I *D sky130_fd_sc_hd__mux2_1
*I *2429:X O *D sky130_fd_sc_hd__mux2_1
*CAP
1 *2430:A1 0.00012793
2 *2429:X 0.00012793
3 *2430:A1 *325:34 3.97356e-05
4 *2430:A1 *333:58 0.000108622
5 *2430:A1 *345:152 0
6 *2430:A1 *648:78 4.46186e-06
*RES
1 *2429:X *2430:A1 29.7786 
*END

*D_NET *291 0.00714449
*CONN
*I *2431:A1 I *D sky130_fd_sc_hd__mux2_1
*I *2430:X O *D sky130_fd_sc_hd__mux2_1
*CAP
1 *2431:A1 0.00288003
2 *2430:X 0.00288003
3 *2431:A1 *2430:S 1.74782e-05
4 *2431:A1 *2737:RESET_B 1.77247e-05
5 *2431:A1 *2862:A 5.7836e-06
6 *2431:A1 *333:98 3.22243e-05
7 *2431:A1 *637:16 0.000702187
8 *2431:A1 *739:10 2.06112e-05
9 empty *2431:A1 0.000110078
10 *2430:A0 *2431:A1 0.000478351
11 *264:18 *2431:A1 0
*RES
1 *2430:X *2431:A1 48.0895 
*END

*D_NET *292 0.00699728
*CONN
*I *2436:A2 I *D sky130_fd_sc_hd__mux4_1
*I *2432:X O *D sky130_fd_sc_hd__mux4_1
*CAP
1 *2436:A2 0.000189713
2 *2432:X 0.00234708
3 *292:16 0.0025368
4 *2436:A2 *2436:S1 1.66856e-05
5 *2436:A2 *2930:A 7.05375e-05
6 *2436:A2 *327:53 2.61337e-05
7 *2436:A2 *339:32 0.000115365
8 *2436:A2 *358:22 7.33494e-06
9 *2436:A2 *358:26 0.000114121
10 *2436:A2 *393:10 0.000125731
11 *292:16 *2432:A2 1.14548e-05
12 *292:16 *2432:S0 0.000140088
13 *292:16 *2432:S1 4.96113e-05
14 *292:16 *2434:A0 8.20284e-05
15 *292:16 *2482:A1 0.000257772
16 *292:16 *2627:CLK 2.14083e-05
17 *292:16 *2951:A 0.00018612
18 *292:16 *325:83 0.000119125
19 *292:16 *325:93 7.02611e-05
20 *292:16 *342:36 1.51476e-05
21 *292:16 *626:20 0.000348213
22 *2627:D *292:16 3.32132e-06
23 *2643:D *2436:A2 0.000125731
24 *2724:D *292:16 1.7494e-05
*RES
1 *2432:X *292:16 44.6036 
2 *292:16 *2436:A2 19.7196 
*END

*D_NET *293 0.00257842
*CONN
*I *2436:A0 I *D sky130_fd_sc_hd__mux4_1
*I *2433:X O *D sky130_fd_sc_hd__mux4_1
*CAP
1 *2436:A0 0.000649968
2 *2433:X 0.000649968
3 *2436:A0 *2707:CLK 0.000134095
4 *2436:A0 *327:65 0.00070207
5 *2436:A0 *626:20 5.03772e-05
6 *2436:A0 *639:124 0.000376615
7 *2436:A0 *650:84 1.53267e-05
*RES
1 *2433:X *2436:A0 42.1179 
*END

*D_NET *294 0.000597331
*CONN
*I *2436:A3 I *D sky130_fd_sc_hd__mux4_1
*I *2434:X O *D sky130_fd_sc_hd__mux4_1
*CAP
1 *2436:A3 0.00015161
2 *2434:X 0.00015161
3 *2436:A3 *2436:S1 0.000141445
4 *2436:A3 *327:65 0.000102545
5 *2436:A3 *663:16 5.01213e-05
*RES
1 *2434:X *2436:A3 31.2607 
*END

*D_NET *295 0.00553924
*CONN
*I *2436:A1 I *D sky130_fd_sc_hd__mux4_1
*I *2435:X O *D sky130_fd_sc_hd__mux4_1
*CAP
1 *2436:A1 0
2 *2435:X 0.0015585
3 *295:16 0.0015585
4 *295:16 *2435:A3 0.000240414
5 *295:16 *2435:S0 0.000141729
6 *295:16 *2435:S1 3.06878e-06
7 *295:16 *2472:A0 0.000273269
8 *295:16 *2879:A 9.90431e-05
9 *295:16 *639:124 0.000181388
10 *295:16 *643:39 0.000350081
11 *295:16 *643:41 0.000137976
12 *295:16 *644:55 0.000349897
13 *295:16 *646:16 0.000645386
*RES
1 *2435:X *295:16 47.9964 
2 *295:16 *2436:A1 9.3 
*END

*D_NET *296 0.000915053
*CONN
*I *2437:A1 I *D sky130_fd_sc_hd__mux2_1
*I *2436:X O *D sky130_fd_sc_hd__mux4_1
*CAP
1 *2437:A1 0.000404129
2 *2436:X 0.000404129
3 *2437:A1 *345:72 4.25716e-05
4 *2437:A1 *634:176 6.42242e-05
*RES
1 *2436:X *2437:A1 33.0643 
*END

*D_NET *297 0.00304506
*CONN
*I *2442:A2 I *D sky130_fd_sc_hd__mux4_1
*I *2438:X O *D sky130_fd_sc_hd__mux4_1
*CAP
1 *2442:A2 0
2 *2438:X 0.000701195
3 *297:24 0.000701195
4 *297:24 *2438:A2 4.0342e-06
5 *297:24 *2560:S 0.000266479
6 *297:24 *2750:CLK 0.000123126
7 *297:24 *299:16 0.000148182
8 *297:24 *342:75 0
9 *297:24 *633:50 0.000168777
10 *297:24 *634:98 0.000161869
11 *297:24 *639:105 2.524e-05
12 *297:24 *641:18 0
13 *297:24 *641:40 0.000159251
14 *297:24 *641:143 0
15 *297:24 *661:31 5.92605e-05
16 *2750:D *297:24 0.000526449
*RES
1 *2438:X *297:24 41.9652 
2 *297:24 *2442:A2 9.3 
*END

*D_NET *298 0.00162271
*CONN
*I *2442:A0 I *D sky130_fd_sc_hd__mux4_1
*I *2439:X O *D sky130_fd_sc_hd__mux4_1
*CAP
1 *2442:A0 0.000389059
2 *2439:X 0.000389059
3 *2442:A0 *2439:S0 2.20608e-05
4 *2442:A0 *2441:S0 0.000287749
5 *2442:A0 *2882:A 0.000125731
6 *2442:A0 *300:14 0.000233003
7 *2442:A0 *338:44 5.71472e-05
8 *2442:A0 *639:105 5.52302e-05
9 *2442:A0 *645:145 5.52302e-05
10 *2442:A0 *645:162 8.44271e-06
*RES
1 *2439:X *2442:A0 38.1357 
*END

*D_NET *299 0.00412141
*CONN
*I *2442:A3 I *D sky130_fd_sc_hd__mux4_1
*I *2440:X O *D sky130_fd_sc_hd__mux4_1
*CAP
1 *2442:A3 0
2 *2440:X 0.00161468
3 *299:16 0.00161468
4 *299:16 *2438:A1 7.26935e-05
5 *299:16 *2440:A0 0.000102197
6 *299:16 *2440:A2 1.4024e-05
7 *299:16 *2912:A 1.98839e-05
8 *299:16 *337:30 0
9 *299:16 *342:75 0
10 *299:16 *355:75 7.84126e-05
11 *299:16 *394:12 7.6644e-05
12 *299:16 *418:10 1.75608e-05
13 *299:16 *450:12 0.000126439
14 *299:16 *637:90 5.34648e-05
15 *299:16 *650:30 5.95659e-05
16 *299:16 *661:31 9.047e-05
17 *2750:D *299:16 3.25078e-05
18 *297:24 *299:16 0.000148182
*RES
1 *2440:X *299:16 44.7464 
2 *299:16 *2442:A3 9.3 
*END

*D_NET *300 0.00398181
*CONN
*I *2442:A1 I *D sky130_fd_sc_hd__mux4_1
*I *2441:X O *D sky130_fd_sc_hd__mux4_1
*CAP
1 *2442:A1 0
2 *2441:X 0.00103405
3 *300:14 0.00103405
4 *300:14 *2439:S0 5.32956e-05
5 *300:14 *2441:A2 0.00025262
6 *300:14 *2441:S0 0
7 *300:14 *2441:S1 0.000388506
8 *300:14 *2614:S 1.53439e-06
9 *300:14 *2882:A 0
10 *300:14 *2891:A 0.000349858
11 *300:14 *386:14 8.32242e-05
12 *300:14 *639:105 5.46939e-05
13 *300:14 *641:143 0.000400875
14 *300:14 *645:145 9.60939e-05
15 *2442:A0 *300:14 0.000233003
16 *2790:D *300:14 0
*RES
1 *2441:X *300:14 43.2286 
2 *300:14 *2442:A1 9.3 
*END

*D_NET *301 0.000436606
*CONN
*I *2443:A1 I *D sky130_fd_sc_hd__mux2_1
*I *2442:X O *D sky130_fd_sc_hd__mux4_1
*CAP
1 *2443:A1 0.000151951
2 *2442:X 0.000151951
3 *2443:A1 *2701:CLK 7.83659e-05
4 *2443:A1 *329:107 3.92854e-05
5 *2443:A1 *639:73 1.50524e-05
*RES
1 *2442:X *2443:A1 29.9929 
*END

*D_NET *302 0.00192829
*CONN
*I *2448:A2 I *D sky130_fd_sc_hd__mux4_1
*I *2444:X O *D sky130_fd_sc_hd__mux4_1
*CAP
1 *2448:A2 0.000672072
2 *2444:X 0.000672072
3 *2448:A2 *2448:A3 0.000128146
4 *2448:A2 *2814:A 8.43535e-06
5 *2448:A2 *2964:A 0.000210742
6 *2448:A2 *333:108 0.000126439
7 *2448:A2 *634:78 0.000104328
8 *2448:A2 *639:59 6.05161e-06
*RES
1 *2444:X *2448:A2 37.408 
*END

*D_NET *303 0.00178624
*CONN
*I *2448:A0 I *D sky130_fd_sc_hd__mux4_1
*I *2445:X O *D sky130_fd_sc_hd__mux4_1
*CAP
1 *2448:A0 0.000576144
2 *2445:X 0.000576144
3 *2448:A0 *2445:A2 5.33005e-05
4 *2448:A0 *2448:A1 5.52302e-05
5 *2448:A0 *2876:A 3.34672e-05
6 *2448:A0 *331:102 0
7 *2448:A0 *637:90 7.41433e-05
8 *2448:A0 *647:35 3.69697e-05
9 *2448:A0 *647:67 3.92854e-05
10 *2448:A0 *658:51 0.000142856
11 *2661:D *2448:A0 0.000198698
*RES
1 *2445:X *2448:A0 39.3321 
*END

*D_NET *304 0.00109941
*CONN
*I *2448:A3 I *D sky130_fd_sc_hd__mux4_1
*I *2446:X O *D sky130_fd_sc_hd__mux4_1
*CAP
1 *2448:A3 0.000172315
2 *2446:X 0.000172315
3 *2448:A3 *331:102 0.000266079
4 *2448:A3 *333:108 2.04866e-05
5 *2448:A3 *639:59 0.000340073
6 *2448:A2 *2448:A3 0.000128146
*RES
1 *2446:X *2448:A3 34.1 
*END

*D_NET *305 0.00305895
*CONN
*I *2448:A1 I *D sky130_fd_sc_hd__mux4_1
*I *2447:X O *D sky130_fd_sc_hd__mux4_1
*CAP
1 *2448:A1 0.000859332
2 *2447:X 0.000859332
3 *2448:A1 *2578:A1 0.000335929
4 *2448:A1 *2850:A 0.000252145
5 *2448:A1 *2876:A 0.000101545
6 *2448:A1 *339:142 0.00022124
7 *2448:A1 *637:90 0.000224596
8 *2448:A1 *647:35 3.92757e-05
9 *2448:A1 *647:67 2.16719e-05
10 *2448:A1 *658:51 8.86512e-05
11 *2448:A0 *2448:A1 5.52302e-05
12 *2661:D *2448:A1 0
*RES
1 *2447:X *2448:A1 48.4214 
*END

*D_NET *306 0.000371465
*CONN
*I *2449:A1 I *D sky130_fd_sc_hd__mux2_1
*I *2448:X O *D sky130_fd_sc_hd__mux4_1
*CAP
1 *2449:A1 0.000119811
2 *2448:X 0.000119811
3 *2449:A1 *2494:A0 3.69047e-06
4 *2449:A1 *669:40 0.000128154
*RES
1 *2448:X *2449:A1 29.7786 
*END

*D_NET *307 0.00455697
*CONN
*I *2454:A2 I *D sky130_fd_sc_hd__mux4_1
*I *2450:X O *D sky130_fd_sc_hd__mux4_1
*CAP
1 *2454:A2 0.00157988
2 *2450:X 0.00157988
3 *2454:A2 *2450:A2 0.000118803
4 *2454:A2 *2450:A3 3.42426e-05
5 *2454:A2 *2450:S0 0.000399668
6 *2454:A2 *2454:A0 5.33005e-05
7 *2454:A2 *2454:A1 0.000222666
8 *2454:A2 *2597:A1 5.03772e-05
9 *2454:A2 *2605:A0 0.000255905
10 *2454:A2 *468:8 1.92789e-05
11 *2454:A2 *641:77 1.3763e-05
12 *2454:A2 *645:18 3.29506e-06
13 *2454:A2 *645:30 9.58478e-05
14 *2454:A2 *655:75 0.000130058
*RES
1 *2450:X *2454:A2 44.7295 
*END

*D_NET *308 0.0019088
*CONN
*I *2454:A0 I *D sky130_fd_sc_hd__mux4_1
*I *2451:X O *D sky130_fd_sc_hd__mux4_1
*CAP
1 *2454:A0 0.000485672
2 *2451:X 0.000485672
3 *2454:A0 *2451:A2 6.07232e-05
4 *2454:A0 *2577:S 5.93594e-05
5 *2454:A0 *2579:S 3.69047e-06
6 *2454:A0 *2880:A 0.000177941
7 *2454:A0 *339:44 0
8 *2454:A0 *656:23 0.000171375
9 *2454:A0 *656:56 0.00041107
10 *2454:A2 *2454:A0 5.33005e-05
*RES
1 *2451:X *2454:A0 38.8321 
*END

*D_NET *309 0.000753726
*CONN
*I *2454:A3 I *D sky130_fd_sc_hd__mux4_1
*I *2452:X O *D sky130_fd_sc_hd__mux4_1
*CAP
1 *2454:A3 0.000216269
2 *2452:X 0.000216269
3 *2454:A3 *2495:A1 2.89114e-05
4 *2454:A3 *354:19 0.000125731
5 *2454:A3 *637:104 0
6 *2454:A3 *639:111 2.46318e-05
7 *2454:A3 *645:121 5.83233e-05
8 *2646:D *2454:A3 8.359e-05
*RES
1 *2452:X *2454:A3 32.2071 
*END

*D_NET *310 0.00535227
*CONN
*I *2454:A1 I *D sky130_fd_sc_hd__mux4_1
*I *2453:X O *D sky130_fd_sc_hd__mux4_1
*CAP
1 *2454:A1 0.000677577
2 *2453:X 0.000430858
3 *310:22 0.00110843
4 *2454:A1 *2450:S0 0.000137983
5 *2454:A1 *2570:A0 0.00015234
6 *2454:A1 *2579:A0 0.000106507
7 *2454:A1 *2579:A1 6.74911e-05
8 *2454:A1 *2605:A1 6.07328e-05
9 *2454:A1 *2848:A 0
10 *2454:A1 *339:44 0.000335975
11 *2454:A1 *633:50 1.02504e-05
12 *2454:A1 *641:50 0
13 *310:22 *2505:A0 5.04579e-06
14 *310:22 *2505:S 0.000923086
15 *310:22 *2524:A1 0.000272422
16 *310:22 *2848:A 0.000487467
17 *310:22 *2971:A 7.30642e-05
18 *310:22 *388:8 0.000177679
19 *310:22 *655:10 9.05667e-05
20 *2454:A2 *2454:A1 0.000222666
21 *2654:D *310:22 1.21258e-05
22 *2670:D *310:22 0
*RES
1 *2453:X *310:22 38.4071 
2 *310:22 *2454:A1 30.675 
*END

*D_NET *311 0.00144348
*CONN
*I *2455:A1 I *D sky130_fd_sc_hd__mux2_1
*I *2454:X O *D sky130_fd_sc_hd__mux4_1
*CAP
1 *2455:A1 0.0004646
2 *2454:X 0.0004646
3 *2455:A1 *2455:A0 2.89016e-05
4 *2455:A1 *2455:S 0.000268521
5 *2455:A1 *354:32 0
6 *2455:A1 *639:105 0.000216852
7 *2622:D *2455:A1 0
*RES
1 *2454:X *2455:A1 35.4214 
*END

*D_NET *312 0.00291155
*CONN
*I *2460:A2 I *D sky130_fd_sc_hd__mux4_1
*I *2456:X O *D sky130_fd_sc_hd__mux4_1
*CAP
1 *2460:A2 0.00105346
2 *2456:X 0.00105346
3 *2460:A2 *2460:A0 0.000128154
4 *2460:A2 *2460:S0 0.000107264
5 *2460:A2 *2571:A0 3.06878e-06
6 *2460:A2 *2580:A1 2.15245e-05
7 *2460:A2 *2719:CLK 9.58593e-05
8 *2460:A2 *341:40 9.47712e-05
9 *2460:A2 *437:12 2.42516e-05
10 *2460:A2 *445:6 0.000185643
11 *2460:A2 *654:20 0
12 *2606:S *2460:A2 0.000140777
13 *2719:D *2460:A2 3.32132e-06
*RES
1 *2456:X *2460:A2 43.5687 
*END

*D_NET *313 0.00116162
*CONN
*I *2460:A0 I *D sky130_fd_sc_hd__mux4_1
*I *2457:X O *D sky130_fd_sc_hd__mux4_1
*CAP
1 *2460:A0 0.00042733
2 *2457:X 0.00042733
3 *2460:A0 *2457:A2 6.19181e-05
4 *2460:A0 *2457:A3 1.37292e-05
5 *2460:A0 *2457:S1 3.67257e-05
6 *2460:A0 *2580:S 6.03797e-05
7 *2460:A0 *323:114 0
8 *2460:A0 *341:40 6.05161e-06
9 *2460:A2 *2460:A0 0.000128154
*RES
1 *2457:X *2460:A0 34.6714 
*END

*D_NET *314 0.00254622
*CONN
*I *2460:A3 I *D sky130_fd_sc_hd__mux4_1
*I *2458:X O *D sky130_fd_sc_hd__mux4_1
*CAP
1 *2460:A3 0.000930028
2 *2458:X 0.000930028
3 *2460:A3 *2458:A2 1.14548e-05
4 *2460:A3 *2476:A0 6.94775e-05
5 *2460:A3 *2606:A0 0.000219591
6 *2460:A3 *2606:A1 5.33005e-05
7 *2460:A3 *2846:A 2.13481e-06
8 *2460:A3 *325:83 0
9 *2460:A3 *654:14 7.37829e-05
10 *2460:A3 *654:16 6.19037e-05
11 *2460:A3 *654:20 0.00019452
*RES
1 *2458:X *2460:A3 42.0286 
*END

*D_NET *315 0.0028813
*CONN
*I *2460:A1 I *D sky130_fd_sc_hd__mux4_1
*I *2459:X O *D sky130_fd_sc_hd__mux4_1
*CAP
1 *2460:A1 0.000686187
2 *2459:X 0.000686187
3 *2460:A1 *2459:S1 0.00027032
4 *2460:A1 *2606:A0 0.000225609
5 *2460:A1 *2606:A1 0.000561804
6 *2460:A1 *2846:A 3.98547e-05
7 *2460:A1 *323:114 8.82396e-05
8 *2460:A1 *334:66 0
9 *2606:S *2460:A1 0.000219828
10 *2631:D *2460:A1 0
11 *2785:D *2460:A1 0.000103267
*RES
1 *2459:X *2460:A1 44.4036 
*END

*D_NET *316 0.0058162
*CONN
*I *2461:A1 I *D sky130_fd_sc_hd__mux2_1
*I *2460:X O *D sky130_fd_sc_hd__mux4_1
*CAP
1 *2461:A1 0
2 *2460:X 0.0012287
3 *316:14 0.0012287
4 *316:14 *2420:S0 0.000523792
5 *316:14 *2617:CLK 8.66063e-05
6 *316:14 *2619:RESET_B 0.00111118
7 *316:14 *2623:CLK 9.71197e-05
8 *316:14 *670:80 0.000473833
9 *2633:D *316:14 0.000100823
10 *260:12 *316:14 0.00096544
*RES
1 *2460:X *316:14 47.8714 
2 *316:14 *2461:A1 9.3 
*END

*D_NET *317 0.00398965
*CONN
*I *2466:A2 I *D sky130_fd_sc_hd__mux4_1
*I *2462:X O *D sky130_fd_sc_hd__mux4_1
*CAP
1 *2466:A2 0.000825513
2 *2462:X 0.000825513
3 *2466:A2 *2463:A1 0.000125717
4 *2466:A2 *2466:A3 0
5 *2466:A2 *2477:A0 0.000492333
6 *2466:A2 *2487:A1 0.000535248
7 *2466:A2 *2935:A 0.000243627
8 *2466:A2 *331:80 1.59935e-05
9 *2466:A2 *637:125 1.32276e-05
10 *2466:A2 *639:124 0
11 *2466:A2 *642:78 0.000299462
12 *2466:A2 *651:103 0.00061302
*RES
1 *2462:X *2466:A2 49.2339 
*END

*D_NET *318 0.00120666
*CONN
*I *2466:A0 I *D sky130_fd_sc_hd__mux4_1
*I *2463:X O *D sky130_fd_sc_hd__mux4_1
*CAP
1 *2466:A0 0.000413222
2 *2463:X 0.000413222
3 *2466:A0 *2463:A2 0.000187026
4 *2466:A0 *2466:A1 0.000128154
5 *2466:A0 *2485:S 0
6 *2466:A0 *446:8 9.8016e-06
7 *2466:A0 *652:63 5.52302e-05
*RES
1 *2463:X *2466:A0 34.0107 
*END

*D_NET *319 0.00340967
*CONN
*I *2466:A3 I *D sky130_fd_sc_hd__mux4_1
*I *2464:X O *D sky130_fd_sc_hd__mux4_1
*CAP
1 *2466:A3 0.0011706
2 *2464:X 0.0011706
3 *2466:A3 *2463:A1 5.26184e-05
4 *2466:A3 *2464:A0 3.92757e-05
5 *2466:A3 *2464:A2 1.66856e-05
6 *2466:A3 *2464:S0 9.02701e-05
7 *2466:A3 *2466:S0 6.05161e-06
8 *2466:A3 *2485:S 3.0987e-05
9 *2466:A3 *2935:A 8.45386e-05
10 *2466:A3 *2988:A 0.000125724
11 *2466:A3 *331:80 3.67257e-05
12 *2466:A3 *637:125 5.33433e-05
13 *2466:A3 *652:12 3.5707e-05
14 *2466:A3 *652:31 0.000428264
15 *2466:A3 *652:33 4.46186e-06
16 *2466:A2 *2466:A3 0
17 *2648:D *2466:A3 0
18 *28:17 *2466:A3 6.38088e-05
*RES
1 *2464:X *2466:A3 49.3321 
*END

*D_NET *320 0.00505857
*CONN
*I *2466:A1 I *D sky130_fd_sc_hd__mux4_1
*I *2465:X O *D sky130_fd_sc_hd__mux4_1
*CAP
1 *2466:A1 0.000229483
2 *2465:X 0.0013765
3 *320:22 0.00160599
4 *2466:A1 *2463:A2 0
5 *2466:A1 *2463:A3 4.90803e-05
6 *2466:A1 *2463:S0 1.00375e-05
7 *2466:A1 *2463:S1 9.88232e-05
8 *2466:A1 *2485:S 0
9 *2466:A1 *2581:S 5.41794e-05
10 *2466:A1 *2883:A 0.000262941
11 *2466:A1 *339:44 7.83587e-05
12 *320:22 *2463:S1 3.97677e-05
13 *320:22 *2465:A0 0.000182598
14 *320:22 *2552:S 7.83587e-05
15 *320:22 *2803:A 3.67257e-05
16 *320:22 *2883:A 1.33343e-05
17 *320:22 *2955:A 4.17433e-05
18 *320:22 *345:52 0.000256231
19 *320:22 *353:22 0.000324743
20 *320:22 *353:26 9.24825e-05
21 *320:22 *382:12 9.41642e-05
22 *2466:A0 *2466:A1 0.000128154
23 *2688:D *320:22 4.87669e-06
*RES
1 *2465:X *320:22 45.6036 
2 *320:22 *2466:A1 20.3 
*END

*D_NET *321 0.00109795
*CONN
*I *2467:A1 I *D sky130_fd_sc_hd__mux2_1
*I *2466:X O *D sky130_fd_sc_hd__mux4_1
*CAP
1 *2467:A1 0.000326332
2 *2466:X 0.000326332
3 *2467:A1 *2467:S 2.56694e-05
4 *2467:A1 *331:80 0.000393943
5 *2467:A1 *339:40 2.56694e-05
*RES
1 *2466:X *2467:A1 32.4571 
*END

*D_NET *322 0.00696461
*CONN
*I *2469:B I *D sky130_fd_sc_hd__nor2_4
*I *2564:A I *D sky130_fd_sc_hd__nor2_4
*I *2555:A I *D sky130_fd_sc_hd__nor2_4
*I *2518:A I *D sky130_fd_sc_hd__nor2_4
*I *2468:X O *D sky130_fd_sc_hd__or3b_4
*CAP
1 *2469:B 4.1975e-05
2 *2564:A 0.00104208
3 *2555:A 0
4 *2518:A 5.82802e-05
5 *2468:X 0.000378537
6 *322:31 0.00150487
7 *322:18 0.000835698
8 *322:10 0.000735133
9 *2469:B *2536:A 9.71197e-05
10 *2469:B *323:64 7.02611e-05
11 *2469:B *326:12 4.08637e-05
12 *2564:A *2509:A 0
13 *2564:A *2564:B 0.000230458
14 *2564:A *2582:B 0
15 *2564:A *2657:CLK 0.000356035
16 *2564:A *2775:CLK 0.000121499
17 *2564:A *324:20 0
18 *2564:A *325:26 5.83233e-05
19 *2564:A *335:19 0
20 *2564:A *337:24 7.43578e-06
21 *2564:A *338:10 0.00022459
22 *2564:A *341:6 0.000140933
23 *2564:A *341:103 0
24 *2564:A *350:19 8.46829e-05
25 *2564:A *635:24 0
26 *322:10 *2468:B 2.89114e-05
27 *322:10 *2743:D 0
28 *322:10 *324:12 0
29 *322:10 *325:67 0
30 *322:10 *326:25 1.52978e-05
31 *322:18 *2518:B 2.59355e-05
32 *322:18 *325:67 0
33 *322:18 *326:25 8.56812e-05
34 *322:18 *326:29 4.46186e-06
35 *322:18 *328:8 1.33343e-05
36 *322:18 *328:10 0.000114655
37 *322:18 *332:12 0
38 *322:18 *342:16 3.34672e-05
39 *322:31 *2384:A 0.000172026
40 *322:31 *2591:B 1.46624e-05
41 *322:31 *325:26 0.000104009
42 *322:31 *325:67 9.14582e-05
43 *322:31 *327:26 5.83233e-05
44 *322:31 *335:19 5.80706e-06
45 *322:31 *479:10 0
46 *2468:A *322:10 6.09476e-05
47 *249:29 *322:10 0.000106853
*RES
1 *2468:X *322:10 20.8357 
2 *322:10 *322:18 10.4821 
3 *322:18 *2518:A 10.2464 
4 *322:18 *322:31 18.8393 
5 *322:31 *2555:A 9.3 
6 *322:31 *2564:A 36.2107 
7 *322:10 *2469:B 15.1571 
*END

*D_NET *323 0.0379791
*CONN
*I *2470:S I *D sky130_fd_sc_hd__mux2_1
*I *2476:S I *D sky130_fd_sc_hd__mux2_1
*I *2472:S I *D sky130_fd_sc_hd__mux2_1
*I *2477:S I *D sky130_fd_sc_hd__mux2_1
*I *2473:S I *D sky130_fd_sc_hd__mux2_1
*I *2475:S I *D sky130_fd_sc_hd__mux2_1
*I *2471:S I *D sky130_fd_sc_hd__mux2_1
*I *2474:S I *D sky130_fd_sc_hd__mux2_1
*I *2469:Y O *D sky130_fd_sc_hd__nor2_4
*CAP
1 *2470:S 2.30855e-05
2 *2476:S 0
3 *2472:S 0
4 *2477:S 2.23854e-05
5 *2473:S 0.00110424
6 *2475:S 0.000661449
7 *2471:S 0
8 *2474:S 0
9 *2469:Y 0.000105813
10 *323:126 0.00213341
11 *323:120 0.00133578
12 *323:114 0.00254594
13 *323:102 0.00245863
14 *323:86 0.00153791
15 *323:64 0.00221177
16 *323:32 0.00130753
17 *323:20 0.00245243
18 *323:10 0.00280601
19 *2473:S *2495:S 0.000173083
20 *2473:S *2624:CLK 0.000171375
21 *2473:S *2664:CLK 0.000208158
22 *2473:S *331:80 0.000377217
23 *2473:S *430:8 9.90367e-05
24 *2473:S *632:26 0.000771615
25 *2473:S *637:125 9.7659e-05
26 *2475:S *2452:A1 3.40128e-05
27 *2475:S *2463:A2 0.000118784
28 *2475:S *2463:S1 0
29 *2475:S *2485:A1 0.000123903
30 *2475:S *2581:A1 0
31 *2475:S *2597:S 0
32 *2475:S *2803:A 0
33 *2475:S *2937:A 6.39901e-05
34 *2475:S *2973:A 7.79781e-06
35 *2475:S *339:44 0
36 *2475:S *655:112 5.80706e-06
37 *323:10 *324:12 0
38 *323:10 *326:12 0
39 *323:10 *350:71 1.78353e-05
40 *323:10 *636:117 5.83304e-05
41 *323:20 *2471:A0 2.44318e-05
42 *323:20 *2481:A0 3.92757e-05
43 *323:20 *2481:A1 0.000377935
44 *323:20 *2527:B 0.000171375
45 *323:20 *2545:B 0.000197984
46 *323:20 *2756:D 0
47 *323:20 *2800:A 5.01213e-05
48 *323:20 *2969:A 0.000207274
49 *323:20 *325:34 0.000170661
50 *323:20 *330:10 0.000572722
51 *323:20 *330:12 0.000381333
52 *323:20 *333:46 0.000112307
53 *323:20 *338:10 0
54 *323:20 *338:22 0.000278614
55 *323:20 *408:6 5.33005e-05
56 *323:20 *636:23 0.000137224
57 *323:20 *636:34 0.000161933
58 *323:20 *636:38 0.000132594
59 *323:20 *636:46 0
60 *323:20 *636:70 0.000119618
61 *323:20 *636:104 0.000116474
62 *323:20 *636:117 0.00016284
63 *323:32 *2444:S1 0.000579895
64 *323:32 *2474:A1 5.23142e-05
65 *323:32 *2481:A1 5.33005e-05
66 *323:32 *345:128 0.000820441
67 *323:32 *345:152 0.000488007
68 *323:32 *408:6 0.000137983
69 *323:32 *633:34 7.61932e-05
70 *323:32 *642:37 6.5185e-05
71 *323:32 *664:82 0.000223559
72 *323:64 *2536:A 1.55885e-05
73 *323:64 *326:12 4.51726e-05
74 *323:64 *327:26 0.000588845
75 *323:64 *332:18 0.000227539
76 *323:64 *334:6 0.000607494
77 *323:64 *334:12 9.90431e-05
78 *323:64 *342:16 0.00104333
79 *323:64 *359:123 4.78056e-05
80 *323:64 *667:30 3.19239e-05
81 *323:86 *2490:A0 7.6644e-05
82 *323:86 *2619:RESET_B 0.000121416
83 *323:86 *2959:A 0.000191817
84 *323:86 *2976:A 1.39726e-05
85 *323:86 *327:26 5.33005e-05
86 *323:86 *327:34 1.08359e-05
87 *323:86 *332:38 0.000147734
88 *323:86 *643:157 0.000117528
89 *323:86 *670:80 0
90 *323:102 *2458:A0 6.42095e-05
91 *323:102 *2458:A1 0
92 *323:102 *2458:S0 9.98458e-05
93 *323:102 *2470:A1 5.52302e-05
94 *323:102 *2476:A0 0.000454775
95 *323:102 *2486:A1 5.71472e-05
96 *323:102 *2647:CLK 5.31101e-05
97 *323:102 *2919:A 0.000315165
98 *323:102 *332:38 0.00106951
99 *323:102 *342:26 0.000160191
100 *323:102 *643:157 2.14658e-05
101 *323:114 *2458:A2 0
102 *323:114 *2458:S0 5.52238e-05
103 *323:114 *2459:S1 0
104 *323:114 *2472:A1 5.41797e-06
105 *323:114 *2571:A0 5.69154e-05
106 *323:114 *2571:A1 0
107 *323:114 *2571:S 4.64488e-06
108 *323:114 *2594:A1 6.95205e-05
109 *323:114 *2606:A1 0.000154104
110 *323:114 *2679:CLK 5.26291e-05
111 *323:114 *2995:A 0
112 *323:114 *341:40 0.000195555
113 *323:114 *356:10 0
114 *323:114 *356:12 0
115 *323:114 *357:12 0
116 *323:114 *413:10 0
117 *323:114 *437:12 0.000312736
118 *323:114 *643:157 0
119 *323:114 *644:55 0
120 *323:114 *662:76 0.00011716
121 *323:120 *2464:A2 0
122 *323:120 *2464:S1 0
123 *323:120 *2472:A0 0.000145584
124 *323:120 *2472:A1 4.46186e-06
125 *323:120 *2477:A0 2.44318e-05
126 *323:120 *2487:A1 0
127 *323:120 *2640:CLK 8.04913e-05
128 *323:120 *353:106 0
129 *323:120 *356:24 9.00967e-05
130 *323:120 *422:10 0
131 *323:120 *644:55 0
132 *323:120 *646:16 0
133 *323:120 *650:84 7.8327e-05
134 *323:120 *662:74 0
135 *323:126 *2477:A0 2.28598e-05
136 *323:126 *2973:A 7.63945e-05
137 *323:126 *353:106 0
138 *323:126 *642:78 0.00017218
139 *2460:A0 *323:114 0
140 *2460:A1 *323:114 8.82396e-05
141 *2469:A *323:10 4.90803e-05
142 *2469:A *323:20 0.000148911
143 *2469:B *323:64 7.02611e-05
144 *2479:A *323:20 0.000166503
145 *2573:C_N *323:20 5.67394e-05
146 *2631:D *323:114 0
147 *2632:D *323:120 0
148 *2640:D *323:120 0
149 *2641:D *323:86 9.21935e-05
150 *2647:D *323:102 8.6229e-06
151 *2647:D *323:114 0
152 *2664:D *2473:S 0.000103323
153 *2665:D *323:64 0.000131874
154 *2712:D *2475:S 0
155 *2720:D *2475:S 0.000101545
156 *2781:D *323:114 7.26935e-05
157 *2781:D *323:120 5.16852e-05
158 *2786:D *323:120 0.000107018
159 *252:12 *323:20 0
160 *259:23 *323:20 0.000221163
*RES
1 *2469:Y *323:10 16.0857 
2 *323:10 *323:20 38.8393 
3 *323:20 *323:32 44.25 
4 *323:32 *2474:S 9.3 
5 *323:20 *2471:S 9.3 
6 *323:10 *323:64 49.0357 
7 *323:64 *323:86 33.8571 
8 *323:86 *323:102 29.3393 
9 *323:102 *323:114 37.2143 
10 *323:114 *323:120 24.2857 
11 *323:120 *323:126 11.75 
12 *323:126 *2475:S 27.8893 
13 *323:126 *2473:S 46.1214 
14 *323:120 *2477:S 9.72857 
15 *323:114 *2472:S 13.8 
16 *323:102 *2476:S 9.3 
17 *323:86 *2470:S 9.72857 
*END

*D_NET *324 0.00591038
*CONN
*I *2608:A I *D sky130_fd_sc_hd__nor2_4
*I *2479:B I *D sky130_fd_sc_hd__nor2_4
*I *2582:A I *D sky130_fd_sc_hd__nor2_4
*I *2509:A I *D sky130_fd_sc_hd__nor2_4
*I *2478:Y O *D sky130_fd_sc_hd__nand2_4
*CAP
1 *2608:A 0
2 *2479:B 5.52294e-05
3 *2582:A 6.54139e-05
4 *2509:A 0.00027157
5 *2478:Y 0.000313418
6 *324:20 0.000615538
7 *324:18 0.000582267
8 *324:12 0.000561901
9 *2479:B *2384:A 2.89016e-05
10 *2479:B *633:123 1.21258e-05
11 *2509:A *2510:A1 0
12 *2509:A *325:26 9.06558e-05
13 *2509:A *331:14 0.000195291
14 *2582:A *2657:CLK 0.000186662
15 *324:12 *2498:B 9.25014e-06
16 *324:12 *326:12 0.000365674
17 *324:18 *325:67 0
18 *324:18 *326:29 0.000378422
19 *324:18 *327:26 9.3111e-05
20 *324:18 *328:8 0.000178847
21 *324:18 *635:38 4.73656e-05
22 *324:18 *635:63 0.000168939
23 *324:20 *2527:A 1.50181e-05
24 *324:20 *325:26 0.00018232
25 *324:20 *326:29 0.000389854
26 *324:20 *635:24 0.000363245
27 *324:20 *635:38 0.000198698
28 *2370:B *324:12 0.000139907
29 *2468:A *324:12 2.8266e-06
30 *2469:A *324:12 0
31 *2564:A *2509:A 0
32 *2564:A *324:20 0
33 *175:16 *324:12 6.71327e-05
34 *249:16 *324:12 5.52302e-05
35 *249:29 *324:12 0.00027557
36 *322:10 *324:12 0
37 *323:10 *324:12 0
*RES
1 *2478:Y *324:12 27.3714 
2 *324:12 *324:18 11.25 
3 *324:18 *324:20 9.83929 
4 *324:20 *2509:A 19.3179 
5 *324:20 *2582:A 15.5679 
6 *324:18 *2479:B 14.7464 
7 *324:12 *2608:A 9.3 
*END

*D_NET *325 0.0358461
*CONN
*I *2480:S I *D sky130_fd_sc_hd__mux2_1
*I *2486:S I *D sky130_fd_sc_hd__mux2_1
*I *2482:S I *D sky130_fd_sc_hd__mux2_1
*I *2487:S I *D sky130_fd_sc_hd__mux2_1
*I *2485:S I *D sky130_fd_sc_hd__mux2_1
*I *2481:S I *D sky130_fd_sc_hd__mux2_1
*I *2483:S I *D sky130_fd_sc_hd__mux2_1
*I *2484:S I *D sky130_fd_sc_hd__mux2_1
*I *2479:Y O *D sky130_fd_sc_hd__nor2_4
*CAP
1 *2480:S 1.67212e-05
2 *2486:S 0.000217606
3 *2482:S 0
4 *2487:S 0
5 *2485:S 0.00111017
6 *2481:S 0
7 *2483:S 0.00192325
8 *2484:S 0.000299666
9 *2479:Y 0
10 *325:93 0.00166417
11 *325:83 0.00220433
12 *325:77 0.00308482
13 *325:67 0.00327012
14 *325:34 0.00331435
15 *325:26 0.0025621
16 *325:6 0.00350719
17 *2480:S *666:14 1.04232e-05
18 *2483:S *2483:A0 5.33334e-05
19 *2483:S *2674:CLK 0.000348325
20 *2483:S *2931:A 2.44318e-05
21 *2483:S *360:22 7.65804e-05
22 *2483:S *360:33 8.83407e-05
23 *2484:S *2474:A1 0.000243627
24 *2484:S *2484:A0 3.25078e-05
25 *2484:S *339:142 0.000136178
26 *2484:S *647:78 0.000245444
27 *2485:S *2463:S0 0.000129175
28 *2485:S *2463:S1 0.000200406
29 *2485:S *2464:A0 0
30 *2485:S *2464:A1 0
31 *2485:S *2464:S0 9.91086e-05
32 *2485:S *2487:A1 0.000457226
33 *2485:S *2517:A0 0
34 *2485:S *2581:A0 0.000200406
35 *2485:S *2607:S 0.000128154
36 *2485:S *2921:A 0
37 *2485:S *637:104 8.48756e-05
38 *2485:S *645:68 9.55418e-05
39 *2485:S *652:31 0.000922339
40 *2485:S *652:33 0.000142797
41 *2486:S *2486:A0 0.00014285
42 *325:26 *2527:A 0.000396798
43 *325:26 *2591:B 2.47833e-05
44 *325:26 *331:14 0.000220185
45 *325:26 *341:6 3.69047e-06
46 *325:26 *345:152 0.00083227
47 *325:26 *416:8 1.40415e-05
48 *325:26 *635:24 6.38485e-05
49 *325:26 *635:38 0
50 *325:34 *2425:A2 0.000233124
51 *325:34 *2425:A3 0.000322546
52 *325:34 *2425:S1 2.59093e-05
53 *325:34 *2427:S0 0.000312736
54 *325:34 *2427:S1 3.53786e-05
55 *325:34 *2481:A1 1.08359e-05
56 *325:34 *2897:A 0
57 *325:34 *333:46 4.36551e-06
58 *325:34 *338:22 0.000504737
59 *325:34 *339:134 0.000125441
60 *325:34 *339:142 6.57431e-05
61 *325:34 *345:128 0
62 *325:34 *345:152 0
63 *325:34 *647:78 7.95674e-05
64 *325:34 *647:89 4.97121e-06
65 *325:34 *648:78 0.000103974
66 *325:67 *2536:B 0.000220455
67 *325:67 *2609:A0 0.000120509
68 *325:67 *2743:D 4.05411e-05
69 *325:67 *326:29 0
70 *325:67 *327:26 2.49484e-05
71 *325:67 *329:20 7.83659e-05
72 *325:67 *342:16 0.000125724
73 *325:67 *633:123 1.39148e-05
74 *325:67 *635:63 0
75 *325:67 *666:14 0.000227322
76 *325:77 *2458:A1 4.29272e-05
77 *325:77 *2938:A 1.24368e-05
78 *325:77 *666:14 2.44318e-05
79 *325:77 *666:20 0.000260976
80 *325:83 *2434:A0 0.000116039
81 *325:83 *2434:S0 0
82 *325:83 *2457:A1 0.000308359
83 *325:83 *2458:A1 5.69309e-05
84 *325:83 *2460:S1 0
85 *325:83 *2476:A0 7.50455e-05
86 *325:83 *2496:A0 0.000267814
87 *325:83 *2516:A0 6.8646e-06
88 *325:83 *2516:A1 0
89 *325:83 *2779:CLK 0
90 *325:83 *2946:A 5.58941e-05
91 *325:83 *331:31 5.86416e-05
92 *325:83 *373:12 5.26184e-05
93 *325:83 *562:29 0
94 *325:83 *646:61 0
95 *325:83 *646:82 0
96 *325:83 *654:20 0
97 *325:93 *2434:A0 0.000192974
98 *325:93 *2482:A0 0.000456547
99 *325:93 *2482:A1 9.71197e-05
100 *325:93 *2602:A1 0
101 *325:93 *2607:S 0.000326537
102 *325:93 *2879:A 0
103 *325:93 *2894:A 3.34687e-05
104 *325:93 *2921:A 0
105 *325:93 *2922:A 2.49484e-05
106 *325:93 *643:39 0
107 *2429:A1 *325:34 0.000266085
108 *2430:A1 *325:34 3.97356e-05
109 *2460:A3 *325:83 0
110 *2466:A0 *2485:S 0
111 *2466:A1 *2485:S 0
112 *2466:A3 *2485:S 3.0987e-05
113 *2509:A *325:26 9.06558e-05
114 *2564:A *325:26 5.83233e-05
115 *2635:D *325:93 6.53874e-05
116 *2664:D *2485:S 0
117 *2714:D *325:34 4.71964e-05
118 *2748:D *2483:S 0.00067187
119 *2780:D *325:26 0
120 *2787:D *325:67 9.41642e-05
121 *292:16 *325:83 0.000119125
122 *292:16 *325:93 7.02611e-05
123 *322:10 *325:67 0
124 *322:18 *325:67 0
125 *322:31 *325:26 0.000104009
126 *322:31 *325:67 9.14582e-05
127 *323:20 *325:34 0.000170661
128 *324:18 *325:67 0
129 *324:20 *325:26 0.00018232
*RES
1 *2479:Y *325:6 13.8 
2 *325:6 *325:26 43.7143 
3 *325:26 *325:34 32.6071 
4 *325:34 *2484:S 22.7286 
5 *325:34 *2483:S 41.7821 
6 *325:26 *2481:S 9.3 
7 *325:6 *325:67 40.5179 
8 *325:67 *325:77 20.375 
9 *325:77 *325:83 35.9464 
10 *325:83 *325:93 19.0893 
11 *325:93 *2485:S 43.0679 
12 *325:93 *2487:S 13.8 
13 *325:83 *2482:S 9.3 
14 *325:77 *2486:S 17.6214 
15 *325:67 *2480:S 9.72857 
*END

*D_NET *326 0.00825708
*CONN
*I *2489:B I *D sky130_fd_sc_hd__nor2_4
*I *2591:A I *D sky130_fd_sc_hd__nor2_4
*I *2527:A I *D sky130_fd_sc_hd__nor2_4
*I *2536:A I *D sky130_fd_sc_hd__nor2_4
*I *2488:X O *D sky130_fd_sc_hd__or3b_4
*CAP
1 *2489:B 0.0004609
2 *2591:A 0
3 *2527:A 0.000581529
4 *2536:A 9.72522e-05
5 *2488:X 0.000389962
6 *326:29 0.000962956
7 *326:25 0.000917101
8 *326:12 0.000561989
9 *2489:B *327:26 3.39935e-05
10 *2489:B *327:99 3.55443e-05
11 *2489:B *328:8 0.00022459
12 *2527:A *2527:B 5.52238e-05
13 *2527:A *330:12 0
14 *2527:A *333:12 5.71472e-05
15 *2527:A *333:46 9.90367e-05
16 *2527:A *339:12 0.000157217
17 *2527:A *345:152 0.000385259
18 *2527:A *350:19 5.83304e-05
19 *2527:A *350:30 0.000102713
20 *326:12 *2368:B 0
21 *326:12 *350:71 0
22 *326:29 *2573:B 8.53881e-05
23 *326:29 *342:16 0
24 *326:29 *636:46 0
25 *2468:A *326:12 0
26 *2469:B *2536:A 9.71197e-05
27 *2469:B *326:12 4.08637e-05
28 *2489:A *2489:B 0.000265453
29 *2546:B *2527:A 0.000152333
30 *249:16 *326:12 5.41794e-05
31 *249:29 *326:25 0.000196276
32 *249:29 *326:29 0.000204618
33 *249:37 *326:29 0.000170654
34 *252:12 *2527:A 2.48938e-05
35 *252:12 *326:29 7.2589e-05
36 *322:10 *326:25 1.52978e-05
37 *322:18 *326:25 8.56812e-05
38 *322:18 *326:29 4.46186e-06
39 *323:10 *326:12 0
40 *323:64 *2536:A 1.55885e-05
41 *323:64 *326:12 4.51726e-05
42 *324:12 *326:12 0.000365674
43 *324:18 *326:29 0.000378422
44 *324:20 *2527:A 1.50181e-05
45 *324:20 *326:29 0.000389854
46 *325:26 *2527:A 0.000396798
47 *325:67 *326:29 0
*RES
1 *2488:X *326:12 26.2643 
2 *326:12 *2536:A 11.0857 
3 *326:12 *326:25 7.05357 
4 *326:25 *326:29 11.3929 
5 *326:29 *2527:A 29.1393 
6 *326:29 *2591:A 13.8 
7 *326:25 *2489:B 22.05 
*END

*D_NET *327 0.0396013
*CONN
*I *2491:S I *D sky130_fd_sc_hd__mux2_1
*I *2494:S I *D sky130_fd_sc_hd__mux2_1
*I *2493:S I *D sky130_fd_sc_hd__mux2_1
*I *2490:S I *D sky130_fd_sc_hd__mux2_1
*I *2492:S I *D sky130_fd_sc_hd__mux2_1
*I *2497:S I *D sky130_fd_sc_hd__mux2_1
*I *2495:S I *D sky130_fd_sc_hd__mux2_1
*I *2496:S I *D sky130_fd_sc_hd__mux2_1
*I *2489:Y O *D sky130_fd_sc_hd__nor2_4
*CAP
1 *2491:S 0.000113074
2 *2494:S 0.000993194
3 *2493:S 0.00237769
4 *2490:S 0
5 *2492:S 0
6 *2497:S 0
7 *2495:S 0.00107452
8 *2496:S 0.000554724
9 *2489:Y 0
10 *327:103 0.00410614
11 *327:99 0.00234382
12 *327:65 0.00155416
13 *327:53 0.00162392
14 *327:34 0.00255439
15 *327:26 0.00272097
16 *327:4 0.00336107
17 *2491:S *2491:A0 5.52238e-05
18 *2493:S *2493:A0 4.01768e-05
19 *2493:S *2493:A1 1.97695e-05
20 *2494:S *2391:A 0
21 *2494:S *2621:CLK 0
22 *2494:S *2774:CLK 0.000119125
23 *2494:S *634:52 0.000724528
24 *2494:S *668:26 0
25 *2494:S *669:40 6.2993e-05
26 *2494:S *669:87 0.000175049
27 *2495:S *2495:A0 1.76135e-05
28 *2495:S *2497:A0 0.000129868
29 *2495:S *2535:A0 2.56694e-05
30 *2495:S *2624:CLK 0.000753788
31 *2495:S *637:125 0
32 *2495:S *639:111 0
33 *2495:S *639:124 0.00115978
34 *2496:S *2779:CLK 4.37999e-05
35 *2496:S *2997:A 0.000171979
36 *2496:S *359:84 3.31856e-05
37 *2496:S *643:157 1.40131e-05
38 *327:26 *2518:B 2.89114e-05
39 *327:26 *2519:A0 2.794e-05
40 *327:26 *2519:A1 0.000315417
41 *327:26 *2536:B 0.000218741
42 *327:26 *2537:A0 4.88637e-05
43 *327:26 *2537:A1 0.000172309
44 *327:26 *2941:A 0
45 *327:26 *328:8 3.98547e-05
46 *327:26 *328:10 0.000117621
47 *327:26 *334:6 0.000620829
48 *327:26 *334:12 9.90431e-05
49 *327:26 *479:10 0
50 *327:26 *643:157 5.33005e-05
51 *327:26 *667:24 0.000481575
52 *327:34 *2420:A2 5.66157e-05
53 *327:34 *2895:A 0.000138826
54 *327:34 *359:82 0.000168894
55 *327:34 *359:84 1.32552e-05
56 *327:34 *643:126 0.000247778
57 *327:34 *643:157 0.000165254
58 *327:34 *667:51 3.4323e-05
59 *327:53 *2434:A0 0.000119125
60 *327:53 *2556:A0 0.00033955
61 *327:53 *2580:S 0
62 *327:53 *2930:A 4.29179e-05
63 *327:53 *336:61 0
64 *327:53 *339:32 8.21115e-05
65 *327:53 *358:22 0
66 *327:53 *358:61 0
67 *327:53 *626:20 0.000219711
68 *327:53 *666:28 0
69 *327:65 *2497:A0 3.34295e-05
70 *327:65 *2707:CLK 8.55697e-05
71 *327:65 *441:12 0.000112711
72 *327:65 *626:20 0.000364967
73 *327:65 *637:125 0.000300635
74 *327:65 *639:124 0.000231069
75 *327:65 *663:10 2.31791e-05
76 *327:65 *663:16 0.00022898
77 *327:99 *2601:A0 0.000771165
78 *327:99 *2755:D 0
79 *327:99 *2756:D 0.00133709
80 *327:99 *339:134 0.000188844
81 *327:99 *349:56 2.59093e-05
82 *327:99 *349:58 0.000177867
83 *327:99 *639:26 0
84 *327:99 *665:57 3.34366e-05
85 *327:99 *745:10 0.000126439
86 *327:103 *2424:S0 0
87 *327:103 *2425:A0 2.49484e-05
88 *327:103 *2446:S1 0.000390568
89 *327:103 *2575:A1 0.000352239
90 *327:103 *637:62 0.00111301
91 *327:103 *639:26 0.00020992
92 *327:103 *647:89 0
93 *327:103 *665:46 0
94 *327:103 *665:57 0.000373107
95 *2388:B *327:99 0
96 *2388:D_N *327:99 0
97 *2436:A0 *327:65 0.00070207
98 *2436:A2 *327:53 2.61337e-05
99 *2436:A3 *327:65 0.000102545
100 *2473:S *2495:S 0.000173083
101 *2489:A *327:26 9.05499e-05
102 *2489:B *327:26 3.39935e-05
103 *2489:B *327:99 3.55443e-05
104 *2625:D *2496:S 4.87669e-06
105 *2625:D *327:34 7.15962e-05
106 *2641:D *327:26 5.97496e-05
107 *2649:D *327:26 1.64343e-05
108 *2665:D *327:26 1.98839e-05
109 *2689:D *327:53 5.01213e-05
110 *2697:D *327:53 0.00010326
111 *2779:D *327:53 0
112 *322:31 *327:26 5.83233e-05
113 *323:64 *327:26 0.000588845
114 *323:86 *327:26 5.33005e-05
115 *323:86 *327:34 1.08359e-05
116 *324:18 *327:26 9.3111e-05
117 *325:67 *327:26 2.49484e-05
*RES
1 *2489:Y *327:4 9.3 
2 *327:4 *327:26 47.0179 
3 *327:26 *327:34 23.3393 
4 *327:34 *2496:S 17.2643 
5 *327:34 *327:53 32.25 
6 *327:53 *327:65 23.25 
7 *327:65 *2495:S 43.0679 
8 *327:65 *2497:S 13.8 
9 *327:53 *2492:S 9.3 
10 *327:26 *2490:S 9.3 
11 *327:4 *327:99 39.9107 
12 *327:99 *327:103 27.0893 
13 *327:103 *2493:S 36.4429 
14 *327:103 *2494:S 36.7643 
15 *327:99 *2491:S 15.5857 
*END

*D_NET *328 0.00169531
*CONN
*I *2608:B I *D sky130_fd_sc_hd__nor2_4
*I *2536:B I *D sky130_fd_sc_hd__nor2_4
*I *2518:B I *D sky130_fd_sc_hd__nor2_4
*I *2498:Y O *D sky130_fd_sc_hd__nand2b_2
*CAP
1 *2608:B 0
2 *2536:B 7.13653e-05
3 *2518:B 2.01984e-05
4 *2498:Y 0.000114093
5 *328:10 0.000142087
6 *328:8 0.000164617
7 *2489:B *328:8 0.00022459
8 *322:18 *2518:B 2.59355e-05
9 *322:18 *328:8 1.33343e-05
10 *322:18 *328:10 0.000114655
11 *324:18 *328:8 0.000178847
12 *325:67 *2536:B 0.000220455
13 *327:26 *2518:B 2.89114e-05
14 *327:26 *2536:B 0.000218741
15 *327:26 *328:8 3.98547e-05
16 *327:26 *328:10 0.000117621
*RES
1 *2498:Y *328:8 12.7286 
2 *328:8 *328:10 2.17857 
3 *328:10 *2518:B 9.83571 
4 *328:10 *2536:B 21.1571 
5 *328:8 *2608:B 9.3 
*END

*D_NET *329 0.0439555
*CONN
*I *2504:S I *D sky130_fd_sc_hd__mux2_1
*I *2503:S I *D sky130_fd_sc_hd__mux2_1
*I *2505:S I *D sky130_fd_sc_hd__mux2_1
*I *2501:S I *D sky130_fd_sc_hd__mux2_1
*I *2500:S I *D sky130_fd_sc_hd__mux2_1
*I *2506:S I *D sky130_fd_sc_hd__mux2_1
*I *2502:S I *D sky130_fd_sc_hd__mux2_1
*I *2507:S I *D sky130_fd_sc_hd__mux2_1
*I *2499:Y O *D sky130_fd_sc_hd__nand3b_4
*CAP
1 *2504:S 0.000869316
2 *2503:S 6.16231e-05
3 *2505:S 0.00180556
4 *2501:S 0
5 *2500:S 0.000123428
6 *2506:S 0.000144285
7 *2502:S 0
8 *2507:S 0.000716331
9 *2499:Y 0.00145441
10 *329:111 0.00256905
11 *329:109 0.00157117
12 *329:107 0.00253804
13 *329:105 0.00256223
14 *329:96 0.00129771
15 *329:48 0.0025384
16 *329:38 0.003841
17 *329:36 0.00268713
18 *329:24 0.00119443
19 *329:20 0.00298645
20 *2500:S *332:155 0
21 *2500:S *359:66 0
22 *2500:S *359:123 8.91726e-05
23 *2503:S *2503:A1 0.000125724
24 *2503:S *3033:A 1.17968e-05
25 *2503:S *659:58 7.50601e-05
26 *2504:S *2613:S 0.00113685
27 *2504:S *2896:A 0
28 *2504:S *2952:A 0.000126446
29 *2504:S *2985:A 4.75521e-05
30 *2504:S *379:10 0.000171368
31 *2504:S *491:10 0.000123409
32 *2504:S *657:19 0
33 *2504:S *657:32 0
34 *2505:S *2503:A1 5.33005e-05
35 *2505:S *2522:A0 5.52238e-05
36 *2505:S *2662:CLK 8.90199e-05
37 *2505:S *388:8 0.000180764
38 *2505:S *428:10 0.000104744
39 *2506:S *2506:A1 6.42242e-05
40 *2507:S *2462:A2 0
41 *2507:S *2462:A3 0
42 *2507:S *2502:A1 1.04232e-05
43 *2507:S *2554:A1 3.92757e-05
44 *2507:S *2561:S 0
45 *2507:S *2563:A0 0.000344917
46 *2507:S *2563:A1 0
47 *2507:S *2899:A 0
48 *2507:S *2979:A 0
49 *2507:S *332:70 0.000765387
50 *2507:S *337:107 0
51 *329:20 *2384:A 0.00022459
52 *329:20 *2422:S0 9.60875e-05
53 *329:20 *375:10 1.7473e-05
54 *329:20 *633:123 0.000131176
55 *329:20 *635:63 2.28428e-05
56 *329:24 *359:123 2.72967e-05
57 *329:24 *375:10 5.39166e-06
58 *329:36 *2895:A 4.01768e-05
59 *329:36 *332:155 0
60 *329:36 *334:41 0.000267466
61 *329:36 *359:66 0
62 *329:38 *2506:A1 1.40415e-05
63 *329:38 *2543:S 4.80241e-05
64 *329:38 *2631:CLK 9.60939e-05
65 *329:38 *2893:A 7.94648e-05
66 *329:38 *334:41 0.000933755
67 *329:48 *2502:A1 0.000222385
68 *329:48 *2506:A1 2.72859e-05
69 *329:48 *2549:A0 0
70 *329:48 *2549:A1 0
71 *329:48 *2553:A0 0
72 *329:48 *2562:A0 0
73 *329:48 *2562:S 0
74 *329:48 *2853:A 0.000367396
75 *329:48 *2885:A 0.000134504
76 *329:48 *2966:A 0.000119618
77 *329:48 *332:52 0
78 *329:48 *332:70 0
79 *329:48 *337:97 0
80 *329:48 *337:107 0.000343943
81 *329:48 *465:18 0
82 *329:48 *469:10 0.000200413
83 *329:48 *473:10 3.92854e-05
84 *329:48 *653:25 0
85 *329:48 *662:120 0
86 *329:96 *2501:A0 3.47797e-05
87 *329:96 *2520:A0 5.24274e-05
88 *329:96 *332:155 0.000668143
89 *329:96 *334:31 5.98245e-05
90 *329:96 *342:67 0
91 *329:96 *634:176 0.000351156
92 *329:105 *2501:A0 1.58163e-05
93 *329:105 *634:176 1.98839e-05
94 *329:107 *2424:A3 0.000254337
95 *329:107 *2428:A0 0.000168939
96 *329:107 *2531:A1 5.90322e-05
97 *329:107 *2533:S 0
98 *329:107 *2550:S 0.000185587
99 *329:107 *2586:A0 3.92854e-05
100 *329:107 *2595:S 0
101 *329:107 *2701:CLK 0.000136091
102 *329:107 *2920:A 0.000270236
103 *329:107 *2965:A 0.000117196
104 *329:107 *336:10 0.00152653
105 *329:107 *336:14 0.000463805
106 *329:107 *342:75 0
107 *329:107 *342:77 0
108 *329:107 *642:54 0
109 *329:107 *642:64 0
110 *329:107 *664:10 0
111 *329:111 *2503:A1 4.27935e-05
112 *329:111 *2531:A1 6.25878e-05
113 *329:111 *2613:S 0.000228558
114 *329:111 *2891:A 0.000137983
115 *329:111 *659:62 0.000318838
116 *2422:A0 *329:20 1.92789e-05
117 *2422:A3 *329:20 0.000102197
118 *2422:A3 *329:96 0.000122933
119 *2423:A1 *329:20 7.6644e-05
120 *2443:A1 *329:107 3.92854e-05
121 *2620:D *329:107 0
122 *2631:D *329:38 0.000189929
123 *2653:D *2504:S 0.000124342
124 *2660:D *329:107 0
125 *2662:D *2505:S 3.52992e-05
126 *2665:D *2500:S 0.000195555
127 *2676:D *329:107 0.000150625
128 *2693:D *329:107 0
129 *2713:D *329:96 7.66377e-05
130 *2725:D *329:107 0
131 *2791:D *2504:S 5.33005e-05
132 *264:20 *329:107 0.000520291
133 *310:22 *2505:S 0.000923086
134 *325:67 *329:20 7.83659e-05
*RES
1 *2499:Y *329:20 45.6393 
2 *329:20 *329:24 7.5 
3 *329:24 *329:36 16.8929 
4 *329:36 *329:38 34.2143 
5 *329:38 *329:48 47.2857 
6 *329:48 *2507:S 35.8536 
7 *329:48 *2502:S 9.3 
8 *329:38 *2506:S 21.1571 
9 *329:24 *2500:S 17.2643 
10 *329:20 *329:96 38.4643 
11 *329:96 *2501:S 9.3 
12 *329:96 *329:105 5.03571 
13 *329:105 *329:107 61.4464 
14 *329:107 *329:109 4.5 
15 *329:109 *329:111 13.6786 
16 *329:111 *2505:S 38.8893 
17 *329:111 *2503:S 20.2464 
18 *329:109 *2504:S 38.6393 
*END

*D_NET *330 0.00377401
*CONN
*I *2564:B I *D sky130_fd_sc_hd__nor2_4
*I *2509:B I *D sky130_fd_sc_hd__nor2_4
*I *2527:B I *D sky130_fd_sc_hd__nor2_4
*I *2508:X O *D sky130_fd_sc_hd__or2_2
*CAP
1 *2564:B 6.1321e-05
2 *2509:B 0.000136576
3 *2527:B 0.000123918
4 *2508:X 0.000231753
5 *330:12 0.000421602
6 *330:10 0.000454183
7 *2509:B *331:14 9.41642e-05
8 *2509:B *331:50 0.000117621
9 *2527:B *333:46 4.46186e-06
10 *2527:B *345:152 0
11 *2564:B *2775:CLK 0.000315158
12 *330:10 *339:12 0.000200623
13 *330:10 *635:14 5.52238e-05
14 *330:12 *339:12 0.00011739
15 *2527:A *2527:B 5.52238e-05
16 *2527:A *330:12 0
17 *2564:A *2564:B 0.000230458
18 *252:36 *330:10 2.89016e-05
19 *323:20 *2527:B 0.000171375
20 *323:20 *330:10 0.000572722
21 *323:20 *330:12 0.000381333
*RES
1 *2508:X *330:10 21.7464 
2 *330:10 *330:12 4.98214 
3 *330:12 *2527:B 16.5857 
4 *330:12 *2509:B 16.8 
5 *330:10 *2564:B 16.8 
*END

*D_NET *331 0.0432192
*CONN
*I *2511:S I *D sky130_fd_sc_hd__mux2_1
*I *2514:S I *D sky130_fd_sc_hd__mux2_1
*I *2515:S I *D sky130_fd_sc_hd__mux2_1
*I *2513:S I *D sky130_fd_sc_hd__mux2_1
*I *2512:S I *D sky130_fd_sc_hd__mux2_1
*I *2517:S I *D sky130_fd_sc_hd__mux2_1
*I *2516:S I *D sky130_fd_sc_hd__mux2_1
*I *2510:S I *D sky130_fd_sc_hd__mux2_1
*I *2509:Y O *D sky130_fd_sc_hd__nor2_4
*CAP
1 *2511:S 0
2 *2514:S 3.04135e-05
3 *2515:S 0.00100501
4 *2513:S 0.000115576
5 *2512:S 0
6 *2517:S 0
7 *2516:S 3.93964e-05
8 *2510:S 0
9 *2509:Y 0
10 *331:110 0.00281564
11 *331:102 0.00335913
12 *331:94 0.00183342
13 *331:80 0.00159157
14 *331:56 0.0035106
15 *331:50 0.00307193
16 *331:31 0.00307838
17 *331:14 0.00332966
18 *331:4 0.00124383
19 *2513:S *2441:S0 0
20 *2513:S *2513:A0 3.5707e-05
21 *2513:S *342:77 0
22 *2513:S *342:83 0
23 *2514:S *2514:A0 5.33005e-05
24 *2515:S *2439:A3 0.000303747
25 *2515:S *2441:S0 0
26 *2515:S *2513:A0 2.66026e-05
27 *2515:S *2515:A0 0.000149609
28 *2515:S *2515:A1 0
29 *2515:S *2568:S 1.64329e-05
30 *2515:S *2570:S 5.74499e-06
31 *2515:S *2577:S 0.000136951
32 *2515:S *2676:CLK 0.000566278
33 *2515:S *354:108 0.000198352
34 *2515:S *442:6 0.000229456
35 *2516:S *2516:A0 0.000139907
36 *2516:S *2516:A1 0.00018077
37 *2516:S *345:76 2.44318e-05
38 *331:14 *349:14 0.000358965
39 *331:31 *2419:A0 2.89016e-05
40 *331:31 *2419:A1 2.01651e-05
41 *331:31 *2419:A2 1.14548e-05
42 *331:31 *2419:A3 5.33433e-05
43 *331:31 *2419:S0 2.89016e-05
44 *331:31 *2510:A0 7.61932e-05
45 *331:31 *2516:A0 0.000123295
46 *331:31 *2713:CLK 0.00016344
47 *331:31 *336:61 0.000998507
48 *331:31 *337:83 0.000218632
49 *331:31 *349:14 0.000114655
50 *331:31 *359:38 4.05356e-05
51 *331:50 *2756:CLK 1.24368e-05
52 *331:50 *2770:CLK 0.000223508
53 *331:50 *2878:A 0.000568337
54 *331:50 *338:22 0.00181053
55 *331:50 *339:134 0.000239977
56 *331:50 *349:58 0.000175552
57 *331:50 *400:10 0.000128154
58 *331:50 *665:57 0.000123889
59 *331:56 *2512:A0 0.000317082
60 *331:56 *2512:A1 8.76257e-05
61 *331:56 *2575:A1 3.39053e-05
62 *331:56 *2584:A0 2.77173e-05
63 *331:56 *2584:S 0.000139913
64 *331:56 *2990:A 0.000170964
65 *331:56 *3000:A 0.000140933
66 *331:56 *340:16 0.000137983
67 *331:56 *345:12 6.42877e-05
68 *331:56 *345:20 0.000363882
69 *331:56 *360:8 0.000570226
70 *331:80 *2466:S0 4.45768e-06
71 *331:80 *2466:S1 3.67142e-05
72 *331:80 *2467:S 0
73 *331:80 *2473:A1 0.000148189
74 *331:80 *2512:A1 5.52302e-05
75 *331:80 *2567:A0 5.33882e-05
76 *331:80 *2572:A1 5.31719e-05
77 *331:80 *2624:RESET_B 1.78353e-05
78 *331:80 *2911:A 0.000197991
79 *331:80 *338:123 0.000161713
80 *331:80 *345:22 0
81 *331:80 *410:12 7.15687e-05
82 *331:80 *632:14 0.000200413
83 *331:80 *637:125 2.55165e-05
84 *331:80 *639:124 7.04947e-05
85 *331:80 *652:63 0.000431803
86 *331:94 *2511:A0 2.42516e-05
87 *331:94 *2511:A1 9.71197e-05
88 *331:94 *2575:A1 4.17014e-05
89 *331:102 *2445:S1 0.000173083
90 *331:102 *2447:S1 0.000189448
91 *331:102 *2514:A0 0
92 *331:102 *2575:S 1.90936e-05
93 *331:102 *2604:A0 0.000606632
94 *331:102 *333:108 7.88666e-05
95 *331:102 *333:122 5.38886e-05
96 *331:102 *633:22 1.05898e-05
97 *331:102 *637:62 0.00137195
98 *331:102 *639:59 7.35223e-05
99 *331:102 *642:37 0.000187466
100 *331:102 *650:22 0.000462113
101 *331:110 *2447:S1 5.41794e-05
102 *331:110 *2514:A0 0.000183713
103 *331:110 *2514:A1 0.000330013
104 *331:110 *2676:CLK 0.000140933
105 *331:110 *370:12 9.60699e-05
106 *2422:A0 *331:31 1.67276e-05
107 *2430:A0 *331:102 6.85303e-05
108 *2448:A0 *331:102 0
109 *2448:A3 *331:102 0.000266079
110 *2466:A2 *331:80 1.59935e-05
111 *2466:A3 *331:80 3.67257e-05
112 *2467:A1 *331:80 0.000393943
113 *2473:S *331:80 0.000377217
114 *2509:A *331:14 0.000195291
115 *2509:B *331:14 9.41642e-05
116 *2509:B *331:50 0.000117621
117 *2657:D *331:31 7.31369e-05
118 *2659:D *331:56 5.62995e-05
119 *2661:D *331:102 0
120 *2674:D *331:102 0.000222878
121 *2676:D *331:110 0.000187724
122 *2677:D *331:102 0.000153163
123 *2713:D *331:31 0.000174145
124 *264:18 *331:56 0.000101825
125 *325:26 *331:14 0.000220185
126 *325:83 *331:31 5.86416e-05
*RES
1 *2509:Y *331:4 9.3 
2 *331:4 *331:14 16.625 
3 *331:14 *2510:S 9.3 
4 *331:14 *331:31 45.6429 
5 *331:31 *2516:S 15.5679 
6 *331:4 *331:50 36.8571 
7 *331:50 *331:56 36 
8 *331:56 *331:80 42.1964 
9 *331:80 *2517:S 9.3 
10 *331:56 *2512:S 9.3 
11 *331:50 *331:94 3.42857 
12 *331:94 *331:102 49 
13 *331:102 *331:110 37.375 
14 *331:110 *2513:S 16.05 
15 *331:110 *2515:S 42.425 
16 *331:102 *2514:S 14.3357 
17 *331:94 *2511:S 9.3 
*END

*D_NET *332 0.0433307
*CONN
*I *2520:S I *D sky130_fd_sc_hd__mux2_1
*I *2519:S I *D sky130_fd_sc_hd__mux2_1
*I *2525:S I *D sky130_fd_sc_hd__mux2_1
*I *2521:S I *D sky130_fd_sc_hd__mux2_1
*I *2526:S I *D sky130_fd_sc_hd__mux2_1
*I *2524:S I *D sky130_fd_sc_hd__mux2_1
*I *2523:S I *D sky130_fd_sc_hd__mux2_1
*I *2522:S I *D sky130_fd_sc_hd__mux2_1
*I *2518:Y O *D sky130_fd_sc_hd__nor2_4
*CAP
1 *2520:S 0
2 *2519:S 0
3 *2525:S 0
4 *2521:S 3.03939e-05
5 *2526:S 5.7216e-05
6 *2524:S 5.09055e-05
7 *2523:S 0.00137522
8 *2522:S 0
9 *2518:Y 0.00119002
10 *332:155 0.0014514
11 *332:92 0.00309952
12 *332:80 0.00391071
13 *332:70 0.0032073
14 *332:52 0.00238622
15 *332:42 0.00153089
16 *332:38 0.00276222
17 *332:18 0.00282476
18 *332:12 0.0028936
19 *2521:S *2521:A0 2.89114e-05
20 *2521:S *2521:A1 1.04232e-05
21 *2521:S *662:40 2.28598e-05
22 *2523:S *2522:A1 0.000158981
23 *2523:S *2523:A0 5.52238e-05
24 *2523:S *2523:A1 1.74352e-05
25 *2523:S *2612:A0 2.05612e-05
26 *2523:S *2612:A1 0.0002688
27 *2523:S *342:83 0.000707557
28 *2523:S *659:33 9.47028e-05
29 *2524:S *2524:A0 9.99853e-05
30 *2526:S *2526:A0 5.71472e-05
31 *332:12 *2421:A0 0.000146523
32 *332:12 *2421:A2 0.000205658
33 *332:12 *2500:A1 0.000148942
34 *332:18 *2500:A1 0.000139907
35 *332:18 *359:123 0
36 *332:18 *667:30 9.40041e-05
37 *332:38 *2458:S0 3.10499e-05
38 *332:38 *2470:A0 5.52302e-05
39 *332:38 *2476:A0 0.000916754
40 *332:38 *2490:A0 0.000273269
41 *332:38 *2519:A1 0.000315158
42 *332:38 *2615:A0 5.52238e-05
43 *332:38 *2687:CLK 0.000227532
44 *332:38 *2960:A 5.61411e-05
45 *332:38 *342:26 0.000310836
46 *332:38 *359:123 0
47 *332:38 *643:157 6.41063e-05
48 *332:38 *653:105 9.60939e-05
49 *332:38 *653:112 0.00036329
50 *332:38 *667:51 2.14757e-05
51 *332:42 *2687:CLK 3.57366e-05
52 *332:42 *653:6 0.000125057
53 *332:52 *2521:A0 2.59355e-05
54 *332:52 *2525:A0 1.74352e-05
55 *332:52 *2525:A1 2.89016e-05
56 *332:52 *2549:A0 0.000148714
57 *332:52 *2549:A1 0
58 *332:52 *2553:A0 0.00029324
59 *332:52 *2671:CLK 0
60 *332:52 *336:71 0.000213802
61 *332:52 *336:81 0.000398287
62 *332:52 *357:34 0
63 *332:52 *357:43 0
64 *332:52 *653:6 2.28598e-05
65 *332:52 *653:19 0.000125613
66 *332:52 *653:25 0.000329742
67 *332:52 *662:25 2.59355e-05
68 *332:52 *662:40 6.05161e-06
69 *332:52 *662:120 0.000317609
70 *332:70 *2502:A0 0.000396762
71 *332:70 *2502:A1 0
72 *332:70 *2507:A1 0.000128154
73 *332:70 *2554:A0 3.92757e-05
74 *332:70 *2561:S 0
75 *332:70 *2563:A0 0.000346639
76 *332:70 *2853:A 0
77 *332:70 *336:81 0.000981405
78 *332:70 *337:107 0
79 *332:70 *651:71 6.37464e-05
80 *332:70 *662:21 0.000201127
81 *332:70 *662:120 8.08022e-05
82 *332:80 *2561:A0 2.79092e-05
83 *332:80 *2561:A1 0
84 *332:80 *2561:S 0
85 *332:80 *2702:CLK 0
86 *332:80 *2794:CLK 0.000184392
87 *332:80 *2906:A 0.00012401
88 *332:80 *346:37 5.64115e-05
89 *332:80 *390:10 0.00020112
90 *332:80 *651:71 1.31516e-05
91 *332:92 *2453:A2 1.00442e-05
92 *332:92 *2453:A3 6.444e-05
93 *332:92 *2453:S0 0.00118166
94 *332:92 *2522:A1 5.71472e-05
95 *332:92 *2524:A0 0.000312792
96 *332:92 *2524:A1 0.000228931
97 *332:92 *2614:A0 8.90314e-05
98 *332:92 *2968:A 2.89114e-05
99 *332:155 *2520:A0 0.000270236
100 *332:155 *2565:A0 3.92854e-05
101 *332:155 *2565:S 0.000102666
102 *332:155 *2592:A0 0
103 *332:155 *2788:CLK 4.1331e-06
104 *332:155 *2873:A 2.26327e-05
105 *332:155 *337:26 0
106 *332:155 *337:28 0
107 *332:155 *359:66 0
108 *332:155 *359:123 9.77024e-05
109 *332:155 *375:10 6.32633e-05
110 *332:155 *666:86 0
111 *2422:A1 *332:12 3.96269e-05
112 *2422:A3 *332:155 0
113 *2500:S *332:155 0
114 *2507:S *332:70 0.000765387
115 *2641:D *332:18 3.25247e-05
116 *2649:D *332:12 5.52238e-05
117 *2650:D *332:155 0
118 *2656:D *332:80 0
119 *2669:D *2523:S 0.000123902
120 *2670:D *332:80 2.89114e-05
121 *2671:D *332:52 5.57914e-05
122 *2687:D *332:38 2.75856e-05
123 *2691:D *332:52 0.000153054
124 *2694:D *332:80 0.000175519
125 *2695:D *332:52 5.33882e-05
126 *2702:D *332:80 0.000153047
127 *2703:D *332:52 3.57163e-05
128 *2705:D *332:155 7.80714e-06
129 *2793:D *332:38 0.000143375
130 *322:18 *332:12 0
131 *323:64 *332:18 0.000227539
132 *323:86 *332:38 0.000147734
133 *323:102 *332:38 0.00106951
134 *329:36 *332:155 0
135 *329:48 *332:52 0
136 *329:48 *332:70 0
137 *329:96 *332:155 0.000668143
*RES
1 *2518:Y *332:12 25.5857 
2 *332:12 *332:18 10.2679 
3 *332:18 *332:38 49.0357 
4 *332:38 *332:42 4.03571 
5 *332:42 *332:52 45.5357 
6 *332:52 *332:70 39.8683 
7 *332:70 *332:80 46.7857 
8 *332:80 *332:92 33.375 
9 *332:92 *2522:S 9.3 
10 *332:92 *2523:S 35.4607 
11 *332:80 *2524:S 10.6571 
12 *332:70 *2526:S 14.8714 
13 *332:52 *2521:S 10.2643 
14 *332:42 *2525:S 9.3 
15 *332:18 *2519:S 13.8 
16 *332:12 *332:155 41.3036 
17 *332:155 *2520:S 9.3 
*END

*D_NET *333 0.0417768
*CONN
*I *2529:S I *D sky130_fd_sc_hd__mux2_1
*I *2532:S I *D sky130_fd_sc_hd__mux2_1
*I *2531:S I *D sky130_fd_sc_hd__mux2_1
*I *2533:S I *D sky130_fd_sc_hd__mux2_1
*I *2530:S I *D sky130_fd_sc_hd__mux2_1
*I *2535:S I *D sky130_fd_sc_hd__mux2_1
*I *2528:S I *D sky130_fd_sc_hd__mux2_1
*I *2534:S I *D sky130_fd_sc_hd__mux2_1
*I *2527:Y O *D sky130_fd_sc_hd__nor2_4
*CAP
1 *2529:S 1.23328e-05
2 *2532:S 5.47118e-05
3 *2531:S 0
4 *2533:S 0.00166751
5 *2530:S 0
6 *2535:S 0.000760385
7 *2528:S 3.82418e-05
8 *2534:S 0.00242437
9 *2527:Y 0
10 *333:122 0.00339145
11 *333:108 0.00291665
12 *333:98 0.00200949
13 *333:74 0.00207556
14 *333:58 0.00288412
15 *333:46 0.00304543
16 *333:12 0.00333965
17 *333:4 0.00149436
18 *2529:S *2529:A1 1.02504e-05
19 *2529:S *2881:A 6.95627e-05
20 *2532:S *2532:A0 0.00010096
21 *2532:S *2532:A1 6.12434e-05
22 *2532:S *427:10 0.000224583
23 *2533:S *2439:A2 0.000442363
24 *2533:S *2533:A0 0.000153273
25 *2533:S *2708:CLK 0.000323203
26 *2533:S *2943:A 5.52302e-05
27 *2533:S *3031:A 0
28 *2533:S *426:8 1.58163e-05
29 *2534:S *2418:A0 0.000389077
30 *2534:S *2418:A2 1.13406e-05
31 *2534:S *2419:S0 7.97597e-05
32 *2534:S *2697:CLK 1.58163e-05
33 *2534:S *2900:A 6.09242e-05
34 *2534:S *337:24 1.02821e-05
35 *2534:S *340:10 4.70078e-05
36 *2534:S *358:61 0.000109832
37 *2534:S *648:117 9.68025e-06
38 *2535:S *2535:A1 0
39 *2535:S *2782:CLK 6.97685e-05
40 *2535:S *355:75 1.21258e-05
41 *333:12 *2510:A0 9.2923e-05
42 *333:12 *341:103 9.84204e-06
43 *333:12 *349:14 5.6696e-05
44 *333:12 *349:16 6.04162e-05
45 *333:12 *648:117 0
46 *333:12 *666:106 0.000354116
47 *333:46 *2427:A3 0.000434069
48 *333:46 *2427:S0 0.000153003
49 *333:46 *2481:A0 8.00806e-05
50 *333:46 *2481:A1 9.67416e-05
51 *333:46 *2634:CLK 0.000168939
52 *333:46 *2871:A 3.75052e-05
53 *333:46 *345:152 0
54 *333:46 *648:78 3.17067e-05
55 *333:58 *2610:A0 0.000320917
56 *333:58 *2610:S 0.000393949
57 *333:58 *2634:CLK 2.89114e-05
58 *333:58 *345:152 6.75007e-05
59 *333:58 *648:78 0
60 *333:58 *648:86 1.74352e-05
61 *333:74 *2440:S0 0.000150618
62 *333:74 *2530:A0 0.000102545
63 *333:74 *2530:A1 6.05161e-06
64 *333:74 *3000:A 0
65 *333:74 *337:28 0.000277788
66 *333:74 *337:30 0.000188183
67 *333:74 *345:22 7.6644e-05
68 *333:74 *425:10 0
69 *333:74 *633:34 0.000130577
70 *333:74 *650:30 1.96874e-05
71 *333:74 *650:32 5.90443e-06
72 *333:74 *650:66 0.000494588
73 *333:98 *2425:A1 0
74 *333:98 *2429:S 0.000561385
75 *333:98 *2529:A1 0.000260297
76 *333:98 *2737:RESET_B 0
77 *333:98 *2910:A 0
78 *333:98 *633:22 0.00116613
79 *333:98 *644:27 1.03037e-05
80 *333:98 *648:78 0.0007299
81 *333:98 *648:86 3.67142e-05
82 *333:108 *2445:S0 0.000249728
83 *333:108 *2774:CLK 4.33352e-05
84 *333:108 *2814:A 0
85 *333:108 *2872:A 8.64227e-05
86 *333:108 *2881:A 6.54117e-05
87 *333:108 *2886:A 0.000196276
88 *333:108 *348:10 0
89 *333:108 *348:32 0
90 *333:108 *348:63 0
91 *333:108 *348:76 0
92 *333:108 *633:22 0.0004317
93 *333:108 *634:52 0
94 *333:108 *639:59 0.00077892
95 *333:108 *639:73 5.29554e-05
96 *333:108 *650:22 1.50087e-05
97 *333:122 *2531:A0 9.90431e-05
98 *333:122 *2677:CLK 0.00021262
99 *333:122 *2717:CLK 6.74765e-05
100 *333:122 *2886:A 0.000164554
101 *333:122 *2918:A 0.000390616
102 *333:122 *338:44 0.000200464
103 *333:122 *443:10 0.000162712
104 *333:122 *642:113 6.28241e-05
105 *2422:A0 *333:12 0
106 *2422:A2 *2534:S 0.000785316
107 *2426:A0 *333:98 5.66914e-05
108 *2429:A0 *333:98 8.25843e-06
109 *2430:A1 *333:58 0.000108622
110 *2431:A1 *333:98 3.22243e-05
111 *2448:A2 *333:108 0.000126439
112 *2448:A3 *333:108 2.04866e-05
113 *2527:A *333:12 5.71472e-05
114 *2527:A *333:46 9.90367e-05
115 *2527:B *333:46 4.46186e-06
116 *2634:D *333:46 7.03586e-05
117 *2644:D *333:74 0.000495664
118 *2657:D *2534:S 0.000141513
119 *2657:D *333:12 1.70184e-05
120 *2660:D *2533:S 0.000103301
121 *2677:D *333:122 0.000358543
122 *2698:D *333:74 0.000127446
123 *2708:D *2533:S 0.000101117
124 *2717:D *333:122 7.01199e-06
125 *2782:D *2535:S 0.00043983
126 *2782:D *333:74 7.83587e-05
127 *323:20 *333:46 0.000112307
128 *325:34 *333:46 4.36551e-06
129 *329:107 *2533:S 0
130 *331:102 *333:108 7.88666e-05
131 *331:102 *333:122 5.38886e-05
*RES
1 *2527:Y *333:4 9.3 
2 *333:4 *333:12 25.3571 
3 *333:12 *2534:S 42.4786 
4 *333:12 *2528:S 10.0321 
5 *333:4 *333:46 25.375 
6 *333:46 *333:58 35.5536 
7 *333:58 *333:74 47.6429 
8 *333:74 *2535:S 19.6214 
9 *333:58 *2530:S 9.3 
10 *333:46 *333:98 28.5268 
11 *333:98 *333:108 30.2411 
12 *333:108 *333:122 33.6964 
13 *333:122 *2533:S 49.2464 
14 *333:122 *2531:S 9.3 
15 *333:108 *2532:S 15.9786 
16 *333:98 *2529:S 14.6839 
*END

*D_NET *334 0.0400276
*CONN
*I *2537:S I *D sky130_fd_sc_hd__mux2_1
*I *2539:S I *D sky130_fd_sc_hd__mux2_1
*I *2544:S I *D sky130_fd_sc_hd__mux2_1
*I *2540:S I *D sky130_fd_sc_hd__mux2_1
*I *2541:S I *D sky130_fd_sc_hd__mux2_1
*I *2542:S I *D sky130_fd_sc_hd__mux2_1
*I *2543:S I *D sky130_fd_sc_hd__mux2_1
*I *2538:S I *D sky130_fd_sc_hd__mux2_1
*I *2536:Y O *D sky130_fd_sc_hd__nor2_4
*CAP
1 *2537:S 0
2 *2539:S 0
3 *2544:S 0.000569633
4 *2540:S 0
5 *2541:S 0.00133682
6 *2542:S 0
7 *2543:S 0.000391277
8 *2538:S 0.000836506
9 *2536:Y 8.46065e-05
10 *334:93 0.00305609
11 *334:80 0.00337151
12 *334:74 0.00311882
13 *334:66 0.00222319
14 *334:41 0.0037008
15 *334:31 0.0022543
16 *334:12 0.00148049
17 *334:6 0.000457565
18 *2538:S *2421:S1 0.000811038
19 *2538:S *2501:A0 9.22948e-05
20 *2538:S *340:16 0
21 *2538:S *644:82 0.00115323
22 *2538:S *664:54 5.83233e-05
23 *2541:S *2441:A0 2.51343e-06
24 *2541:S *2540:A0 0
25 *2541:S *2909:A 0.000130825
26 *2541:S *490:10 0.000172368
27 *2541:S *491:10 4.37999e-05
28 *2543:S *2631:CLK 3.14163e-05
29 *2543:S *357:106 6.5185e-05
30 *2543:S *653:65 0.000272321
31 *2543:S *653:71 0.000128154
32 *2544:S *2465:A1 1.83136e-05
33 *2544:S *2465:S0 7.71662e-05
34 *2544:S *2544:A0 6.55528e-06
35 *2544:S *2813:A 3.32631e-05
36 *2544:S *2888:A 1.84368e-05
37 *2544:S *2916:A 7.14923e-05
38 *2544:S *353:6 4.25569e-05
39 *334:12 *2421:A1 0
40 *334:12 *2421:S0 4.97825e-05
41 *334:12 *2421:S1 0.000400369
42 *334:12 *342:16 1.88048e-05
43 *334:12 *479:10 0
44 *334:31 *2422:S1 1.65169e-05
45 *334:31 *2460:S0 0.000201989
46 *334:31 *342:67 0.000193663
47 *334:41 *2600:A1 0.000178847
48 *334:41 *2606:A1 6.87574e-05
49 *334:41 *2895:A 9.90431e-05
50 *334:41 *413:10 0.000232399
51 *334:66 *2571:A0 0
52 *334:66 *2571:A1 0
53 *334:66 *2580:A0 0
54 *334:66 *341:53 0.0006922
55 *334:66 *341:59 0.00114452
56 *334:66 *342:36 0.000236167
57 *334:66 *356:10 0
58 *334:66 *356:12 0
59 *334:66 *356:14 0
60 *334:66 *356:20 0
61 *334:66 *356:24 0
62 *334:66 *357:12 0.000120785
63 *334:66 *646:16 0
64 *334:66 *662:74 0
65 *334:74 *2572:A0 0.000269529
66 *334:74 *2597:S 0.000323724
67 *334:74 *2599:A0 0
68 *334:74 *2599:A1 1.88048e-05
69 *334:74 *2901:A 2.11419e-05
70 *334:74 *338:123 0.00036496
71 *334:74 *340:110 0
72 *334:74 *341:59 0.000275674
73 *334:74 *353:80 6.07232e-05
74 *334:74 *353:95 0.000104002
75 *334:74 *356:39 4.88631e-05
76 *334:74 *489:12 0.000227736
77 *334:74 *651:23 7.04538e-05
78 *334:74 *651:29 5.85135e-05
79 *334:80 *2450:A1 0
80 *334:80 *2453:A2 6.47136e-05
81 *334:80 *2542:A0 1.39841e-05
82 *334:80 *2542:A1 5.62995e-05
83 *334:80 *2588:S 0
84 *334:80 *2597:A0 0.00015234
85 *334:80 *2597:S 0.000640862
86 *334:80 *2784:CLK 0.000115072
87 *334:80 *2971:A 2.04825e-05
88 *334:80 *2993:A 8.24047e-05
89 *334:80 *346:12 6.97972e-05
90 *334:80 *346:14 0.000202005
91 *334:80 *353:22 0.000100979
92 *334:80 *353:80 4.35131e-05
93 *334:80 *380:10 6.12813e-05
94 *334:80 *595:12 0.000793644
95 *334:80 *641:77 0
96 *334:80 *655:62 0
97 *334:93 *2540:A0 1.98839e-05
98 *334:93 *2540:A1 0.000654138
99 *334:93 *2542:A0 5.23057e-05
100 *334:93 *2542:A1 7.43578e-06
101 *334:93 *2790:CLK 0.000492333
102 *334:93 *490:10 0.000151061
103 *2422:A0 *2538:S 0.000384357
104 *2422:A0 *334:12 7.8327e-05
105 *2422:A1 *334:12 0.000107975
106 *2422:A3 *334:31 1.19191e-05
107 *2422:A3 *334:41 9.71197e-05
108 *2423:A1 *334:41 9.71197e-05
109 *2460:A1 *334:66 0
110 *2606:S *334:66 0.000106542
111 *2631:D *334:41 6.79924e-05
112 *2681:D *334:12 0
113 *2683:D *334:74 0
114 *2686:D *334:80 3.5707e-05
115 *2719:D *334:66 0
116 *2752:D *334:80 5.26184e-05
117 *2790:D *334:93 0.000149059
118 *2791:D *2541:S 1.76204e-05
119 *2794:D *2544:S 3.6337e-05
120 *260:12 *334:31 0.000646055
121 *323:64 *334:6 0.000607494
122 *323:64 *334:12 9.90431e-05
123 *327:26 *334:6 0.000620829
124 *327:26 *334:12 9.90431e-05
125 *329:36 *334:41 0.000267466
126 *329:38 *2543:S 4.80241e-05
127 *329:38 *334:41 0.000933755
128 *329:96 *334:31 5.98245e-05
*RES
1 *2536:Y *334:6 15.175 
2 *334:6 *334:12 14.6786 
3 *334:12 *2538:S 38.8179 
4 *334:12 *334:31 22.3393 
5 *334:31 *334:41 38.0893 
6 *334:41 *2543:S 25.5321 
7 *334:41 *334:66 42.2679 
8 *334:66 *334:74 29.4821 
9 *334:74 *334:80 46.1607 
10 *334:80 *2542:S 9.3 
11 *334:80 *334:93 35.1964 
12 *334:93 *2541:S 40.3 
13 *334:93 *2540:S 9.3 
14 *334:74 *2544:S 30.6214 
15 *334:66 *2539:S 9.3 
16 *334:6 *2537:S 9.3 
*END

*D_NET *335 0.00174589
*CONN
*I *2591:B I *D sky130_fd_sc_hd__nor2_4
*I *2555:B I *D sky130_fd_sc_hd__nor2_4
*I *2582:B I *D sky130_fd_sc_hd__nor2_4
*I *2545:Y O *D sky130_fd_sc_hd__nand2b_2
*CAP
1 *2591:B 0.000262205
2 *2555:B 0
3 *2582:B 0.000116528
4 *2545:Y 0
5 *335:19 0.000378613
6 *335:6 0.000232936
7 *2582:B *337:24 0.000250716
8 *2591:B *341:6 0.000313241
9 *2591:B *341:103 3.34295e-05
10 *335:19 *337:24 9.0573e-05
11 *335:19 *341:103 2.23987e-05
12 *2564:A *2582:B 0
13 *2564:A *335:19 0
14 *322:31 *2591:B 1.46624e-05
15 *322:31 *335:19 5.80706e-06
16 *325:26 *2591:B 2.47833e-05
*RES
1 *2545:Y *335:6 13.8 
2 *335:6 *2582:B 16.9607 
3 *335:6 *335:19 2.48214 
4 *335:19 *2555:B 13.8 
5 *335:19 *2591:B 19.0857 
*END

*D_NET *336 0.0377122
*CONN
*I *2547:S I *D sky130_fd_sc_hd__mux2_1
*I *2553:S I *D sky130_fd_sc_hd__mux2_1
*I *2549:S I *D sky130_fd_sc_hd__mux2_1
*I *2552:S I *D sky130_fd_sc_hd__mux2_1
*I *2554:S I *D sky130_fd_sc_hd__mux2_1
*I *2548:S I *D sky130_fd_sc_hd__mux2_1
*I *2551:S I *D sky130_fd_sc_hd__mux2_1
*I *2550:S I *D sky130_fd_sc_hd__mux2_1
*I *2546:Y O *D sky130_fd_sc_hd__nand2b_4
*CAP
1 *2547:S 0
2 *2553:S 8.89499e-06
3 *2549:S 0.000275967
4 *2552:S 0.000745593
5 *2554:S 0
6 *2548:S 0
7 *2551:S 0.000459384
8 *2550:S 0.00136798
9 *2546:Y 0.000812328
10 *336:81 0.00195943
11 *336:71 0.00181915
12 *336:65 0.00237794
13 *336:61 0.00275068
14 *336:51 0.00212761
15 *336:14 0.00230083
16 *336:10 0.00168567
17 *336:8 0.00344117
18 *2549:S *2549:A0 5.33433e-05
19 *2549:S *2549:A1 1.32552e-05
20 *2550:S *2438:A1 5.33433e-05
21 *2550:S *2725:CLK 1.92905e-05
22 *2550:S *2804:A 3.32631e-05
23 *2550:S *2954:A 0.000169383
24 *2550:S *342:75 0
25 *2550:S *659:116 7.07155e-06
26 *2550:S *661:60 2.32517e-05
27 *2551:S *2551:A1 3.18676e-05
28 *2552:S *2465:S1 0
29 *2552:S *2526:A0 0
30 *2552:S *2552:A1 0
31 *2552:S *2561:S 0.00136683
32 *2552:S *2916:A 0
33 *2552:S *632:26 0.000136951
34 *2553:S *2553:A1 5.71472e-05
35 *336:8 *2510:A0 0.00014285
36 *336:8 *2545:A_N 5.62995e-05
37 *336:8 *2545:B 3.1521e-05
38 *336:8 *2998:A 0.000304394
39 *336:8 *635:24 6.87574e-05
40 *336:10 *2419:A0 0.000237913
41 *336:10 *2419:S0 9.17026e-05
42 *336:10 *2501:A1 6.09476e-05
43 *336:10 *2574:A1 0.000103449
44 *336:10 *2574:S 2.11419e-05
45 *336:10 *2824:A 0.000106542
46 *336:10 *2957:A 8.26359e-05
47 *336:10 *342:67 0
48 *336:10 *342:75 0
49 *336:10 *360:10 9.0143e-05
50 *336:10 *360:12 0.000117144
51 *336:14 *2912:A 0.000197991
52 *336:14 *2920:A 0.000272665
53 *336:14 *342:75 7.89349e-05
54 *336:14 *360:12 0.000220441
55 *336:14 *360:14 5.83304e-05
56 *336:14 *360:22 0.000126439
57 *336:51 *341:8 0.000523818
58 *336:51 *341:40 0.000719887
59 *336:51 *342:67 0
60 *336:51 *666:69 2.44318e-05
61 *336:51 *666:86 1.21289e-05
62 *336:61 *2547:A1 2.06112e-05
63 *336:61 *2583:S 0.000206347
64 *336:61 *337:83 0.00055779
65 *336:61 *337:95 0.000700639
66 *336:61 *338:109 1.90936e-05
67 *336:61 *340:73 7.47883e-05
68 *336:61 *358:61 0
69 *336:61 *359:14 2.44318e-05
70 *336:61 *666:28 7.75093e-05
71 *336:65 *2553:A1 5.23057e-05
72 *336:65 *2571:A1 1.32552e-05
73 *336:65 *2571:S 5.62995e-05
74 *336:65 *2589:A0 4.43915e-05
75 *336:65 *2589:A1 2.44836e-05
76 *336:65 *2589:S 9.69693e-05
77 *336:65 *2663:CLK 1.72894e-05
78 *336:65 *2905:A 6.11337e-05
79 *336:65 *359:14 8.09791e-05
80 *336:81 *2502:A0 0.000141897
81 *336:81 *2554:A0 4.53889e-05
82 *336:81 *2554:A1 1.92789e-05
83 *336:81 *2691:CLK 0
84 *336:81 *2704:CLK 0
85 *336:81 *353:39 0
86 *336:81 *618:14 0.000176234
87 *336:81 *632:26 0.000268403
88 *336:81 *662:21 7.39637e-05
89 *336:81 *662:120 1.5942e-05
90 *2422:A2 *336:10 0.000148911
91 *2422:A2 *336:51 0.000298281
92 *2651:D *336:81 7.71321e-05
93 *2663:D *336:65 5.05456e-05
94 *2667:D *336:81 0.000320031
95 *2688:D *2552:S 0
96 *2689:D *336:61 0
97 *2696:D *336:81 0.000153047
98 *2725:D *2550:S 0.00012715
99 *2788:D *336:10 0.000651554
100 *264:20 *336:10 0.000321742
101 *320:22 *2552:S 7.83587e-05
102 *327:53 *336:61 0
103 *329:107 *2550:S 0.000185587
104 *329:107 *336:10 0.00152653
105 *329:107 *336:14 0.000463805
106 *331:31 *336:61 0.000998507
107 *332:52 *336:71 0.000213802
108 *332:52 *336:81 0.000398287
109 *332:70 *336:81 0.000981405
*RES
1 *2546:Y *336:8 27.0679 
2 *336:8 *336:10 35.9464 
3 *336:10 *336:14 15.2321 
4 *336:14 *2550:S 32.9964 
5 *336:14 *2551:S 21.3179 
6 *336:10 *2548:S 13.8 
7 *336:8 *336:51 25.9643 
8 *336:51 *336:61 29.8929 
9 *336:61 *336:65 25.2946 
10 *336:65 *336:71 11.4554 
11 *336:71 *336:81 39.1429 
12 *336:81 *2554:S 9.3 
13 *336:81 *2552:S 37.0857 
14 *336:71 *2549:S 18.6036 
15 *336:65 *2553:S 10.0411 
16 *336:51 *2547:S 9.3 
*END

*D_NET *337 0.0377434
*CONN
*I *2556:S I *D sky130_fd_sc_hd__mux2_1
*I *2562:S I *D sky130_fd_sc_hd__mux2_1
*I *2558:S I *D sky130_fd_sc_hd__mux2_1
*I *2561:S I *D sky130_fd_sc_hd__mux2_1
*I *2563:S I *D sky130_fd_sc_hd__mux2_1
*I *2557:S I *D sky130_fd_sc_hd__mux2_1
*I *2560:S I *D sky130_fd_sc_hd__mux2_1
*I *2559:S I *D sky130_fd_sc_hd__mux2_1
*I *2555:Y O *D sky130_fd_sc_hd__nor2_4
*CAP
1 *2556:S 0
2 *2562:S 0.000599443
3 *2558:S 0
4 *2561:S 0.00114713
5 *2563:S 8.90486e-05
6 *2557:S 9.20937e-05
7 *2560:S 0.000550551
8 *2559:S 0.00045305
9 *2555:Y 0.00119893
10 *337:107 0.00229312
11 *337:97 0.00148643
12 *337:95 0.00297225
13 *337:83 0.00264732
14 *337:30 0.00215619
15 *337:28 0.00272723
16 *337:26 0.00245912
17 *337:24 0.0014715
18 *2557:S *2557:A0 5.62995e-05
19 *2559:S *2438:A3 0
20 *2559:S *637:90 5.36441e-05
21 *2559:S *637:98 0.000618451
22 *2559:S *639:105 1.31525e-05
23 *2559:S *645:162 5.53719e-05
24 *2559:S *659:116 1.97253e-05
25 *2560:S *2443:A0 0.000618899
26 *2560:S *2551:A0 1.5424e-05
27 *2560:S *2560:A0 0.00010096
28 *2560:S *2595:S 4.88637e-05
29 *2560:S *634:78 0.000565605
30 *2560:S *634:98 0.000538631
31 *2561:S *2462:A1 0
32 *2561:S *2462:A2 8.32171e-05
33 *2561:S *2462:A3 4.31104e-05
34 *2561:S *2465:S1 0
35 *2561:S *2561:A1 0.00031914
36 *2561:S *2563:A1 8.15095e-05
37 *2561:S *2794:CLK 0
38 *2561:S *2899:A 0.000437941
39 *2561:S *2944:A 0
40 *2561:S *346:37 0
41 *2561:S *346:63 0
42 *2562:S *2456:A2 7.48091e-05
43 *2562:S *2562:A0 5.52238e-05
44 *2562:S *357:26 8.32242e-05
45 *2562:S *453:12 0
46 *2562:S *469:10 5.35423e-05
47 *2563:S *2462:A3 4.58194e-05
48 *2563:S *2563:A1 4.884e-05
49 *337:24 *2419:S0 0.000175892
50 *337:24 *2900:A 0.000227539
51 *337:24 *2998:A 2.04825e-05
52 *337:24 *338:84 0.000156299
53 *337:24 *340:63 0.000382997
54 *337:24 *341:6 4.35452e-05
55 *337:24 *341:103 0.000354332
56 *337:24 *423:8 0.000306311
57 *337:24 *637:30 7.69776e-06
58 *337:26 *2565:S 0.000104621
59 *337:26 *447:10 0
60 *337:26 *666:86 0
61 *337:28 *2548:A1 0
62 *337:28 *2788:CLK 0
63 *337:28 *425:10 0
64 *337:28 *447:10 0
65 *337:30 *2438:A1 0.000108848
66 *337:30 *2440:A1 8.96049e-05
67 *337:30 *2440:S0 0
68 *337:30 *2557:A0 0
69 *337:30 *2991:A 4.29179e-05
70 *337:30 *342:75 0
71 *337:30 *394:12 0
72 *337:30 *450:12 0
73 *337:30 *637:90 5.33882e-05
74 *337:30 *645:162 0.000108304
75 *337:83 *2619:RESET_B 0.000219044
76 *337:83 *2809:A 0.000522439
77 *337:83 *2823:A 0.00010096
78 *337:83 *345:94 8.46829e-05
79 *337:83 *359:14 0.000163529
80 *337:83 *359:38 3.97677e-05
81 *337:83 *666:86 0.000186662
82 *337:95 *2434:S0 9.2539e-06
83 *337:95 *2571:S 0.000769601
84 *337:95 *2946:A 0.00010096
85 *337:95 *359:14 0.000363661
86 *337:97 *2558:A0 0.000461128
87 *337:97 *2885:A 0.000138015
88 *337:97 *2950:A 0
89 *337:97 *473:10 3.69697e-05
90 *337:107 *2462:A0 0
91 *337:107 *2462:A2 0.00010948
92 *337:107 *2462:A3 7.02611e-05
93 *337:107 *2789:CLK 7.39637e-05
94 *337:107 *2884:A 0.000317609
95 *337:107 *2904:A 2.39779e-05
96 *337:107 *2979:A 0.000118349
97 *337:107 *662:48 0
98 *2422:A2 *337:24 0.000250588
99 *2507:S *2561:S 0
100 *2507:S *337:107 0
101 *2534:S *337:24 1.02821e-05
102 *2552:S *2561:S 0.00136683
103 *2564:A *337:24 7.43578e-06
104 *2582:B *337:24 0.000250716
105 *2620:D *2560:S 5.33433e-05
106 *2644:D *337:30 0.000153172
107 *2666:D *337:28 8.16036e-05
108 *2690:D *337:28 0
109 *2698:D *337:30 6.42338e-05
110 *2705:D *337:28 0.000103253
111 *2705:D *337:83 9.90367e-05
112 *2724:D *337:97 0
113 *2724:D *337:107 0
114 *2728:D *2562:S 5.24274e-05
115 *2747:D *337:83 0.000107849
116 *2750:D *337:30 3.06406e-05
117 *2789:D *337:107 0
118 *297:24 *2560:S 0.000266479
119 *299:16 *337:30 0
120 *329:48 *2562:S 0
121 *329:48 *337:97 0
122 *329:48 *337:107 0.000343943
123 *331:31 *337:83 0.000218632
124 *332:70 *2561:S 0
125 *332:70 *337:107 0
126 *332:80 *2561:S 0
127 *332:155 *337:26 0
128 *332:155 *337:28 0
129 *333:74 *337:28 0.000277788
130 *333:74 *337:30 0.000188183
131 *335:19 *337:24 9.0573e-05
132 *336:61 *337:83 0.00055779
133 *336:61 *337:95 0.000700639
*RES
1 *2555:Y *337:24 45.8749 
2 *337:24 *337:26 4.98214 
3 *337:26 *337:28 28.6607 
4 *337:28 *337:30 25.3214 
5 *337:30 *2559:S 23.6753 
6 *337:30 *2560:S 29.175 
7 *337:28 *2557:S 15.5679 
8 *337:26 *337:83 32.625 
9 *337:83 *337:95 22.2471 
10 *337:95 *337:97 10.2946 
11 *337:97 *337:107 28.6071 
12 *337:107 *2563:S 11.0679 
13 *337:107 *2561:S 48.2286 
14 *337:97 *2558:S 13.8 
15 *337:95 *2562:S 25.2911 
16 *337:83 *2556:S 9.3 
*END

*D_NET *338 0.0441534
*CONN
*I *2565:S I *D sky130_fd_sc_hd__mux2_1
*I *2567:S I *D sky130_fd_sc_hd__mux2_1
*I *2572:S I *D sky130_fd_sc_hd__mux2_1
*I *2571:S I *D sky130_fd_sc_hd__mux2_1
*I *2566:S I *D sky130_fd_sc_hd__mux2_1
*I *2569:S I *D sky130_fd_sc_hd__mux2_1
*I *2570:S I *D sky130_fd_sc_hd__mux2_1
*I *2568:S I *D sky130_fd_sc_hd__mux2_1
*I *2564:Y O *D sky130_fd_sc_hd__nor2_4
*CAP
1 *2565:S 0.000140922
2 *2567:S 0
3 *2572:S 0
4 *2571:S 0.00156202
5 *2566:S 0
6 *2569:S 0
7 *2570:S 0.000767477
8 *2568:S 5.35713e-05
9 *2564:Y 0.000230908
10 *338:123 0.00190282
11 *338:109 0.00304381
12 *338:90 0.00335249
13 *338:84 0.00230103
14 *338:44 0.00310495
15 *338:32 0.00338437
16 *338:22 0.00213591
17 *338:10 0.00277699
18 *2565:S *666:86 5.71472e-05
19 *2565:S *666:93 2.14658e-05
20 *2568:S *2577:S 5.12878e-05
21 *2570:S *2451:A0 0.000402784
22 *2570:S *2515:A0 1.98839e-05
23 *2570:S *2515:A1 0.000125724
24 *2570:S *2533:A0 1.98839e-05
25 *2570:S *2570:A1 5.33005e-05
26 *2570:S *354:38 0
27 *2570:S *436:8 9.41642e-05
28 *2570:S *656:32 0.000614033
29 *2571:S *2571:A1 2.89114e-05
30 *2571:S *339:18 0.000214084
31 *2571:S *357:12 0
32 *338:10 *2756:D 3.37448e-05
33 *338:10 *2800:A 3.69697e-05
34 *338:22 *2424:S0 4.27935e-05
35 *338:22 *2425:A3 8.99146e-05
36 *338:22 *2427:S1 0.000248486
37 *338:22 *2566:A1 2.64856e-05
38 *338:22 *2756:D 0
39 *338:22 *2958:A 5.33005e-05
40 *338:22 *339:134 0.000443226
41 *338:22 *349:56 8.17615e-05
42 *338:22 *349:58 9.11365e-06
43 *338:22 *644:27 7.6644e-05
44 *338:22 *665:12 8.51637e-06
45 *338:22 *665:46 0.000114557
46 *338:22 *665:57 0
47 *338:32 *2424:S0 0.00026353
48 *338:32 *2569:A1 4.43256e-05
49 *338:32 *2661:CLK 0.000225609
50 *338:32 *2850:A 0.000570314
51 *338:32 *2958:A 8.17274e-05
52 *338:32 *339:142 0.00100649
53 *338:32 *345:128 0.000516482
54 *338:32 *432:6 0.000181803
55 *338:32 *657:82 5.41794e-05
56 *338:32 *657:104 0.00130563
57 *338:44 *2439:A1 0.000100625
58 *338:44 *2439:A2 1.66955e-05
59 *338:44 *2439:S1 0.00019867
60 *338:44 *2447:S0 0.000117144
61 *338:44 *2531:A0 0.000120519
62 *338:44 *2531:A1 7.65719e-05
63 *338:44 *2568:A0 5.71472e-05
64 *338:44 *2568:A1 0.00053128
65 *338:44 *2577:A0 0.000142856
66 *338:44 *2577:S 0.00015424
67 *338:44 *2717:CLK 0.000182694
68 *338:44 *347:49 0.000103041
69 *338:44 *347:51 6.19181e-05
70 *338:84 *339:14 0.000481664
71 *338:84 *339:18 0.000163679
72 *338:84 *339:134 6.63274e-05
73 *338:84 *340:63 0.00068812
74 *338:90 *339:18 0.000416657
75 *338:90 *340:63 0.000542999
76 *338:109 *2433:A2 9.45575e-05
77 *338:109 *2433:A3 0.000146474
78 *338:109 *2433:S1 0
79 *338:109 *2437:A0 0.000177941
80 *338:109 *2911:A 4.79842e-05
81 *338:109 *340:73 2.68023e-05
82 *338:109 *345:72 0
83 *338:109 *358:22 0.000134389
84 *338:109 *358:26 0.000263635
85 *338:109 *358:61 0.000112404
86 *338:109 *633:129 0
87 *338:109 *663:37 0.000135549
88 *338:109 *663:43 0.000117144
89 *338:123 *2517:A0 0.000318107
90 *338:123 *2572:A0 0.000312222
91 *338:123 *2624:CLK 2.92869e-05
92 *338:123 *2911:A 7.17603e-05
93 *338:123 *2932:A 6.05161e-06
94 *338:123 *2935:A 9.90367e-05
95 *338:123 *339:40 0
96 *338:123 *353:95 0.000202835
97 *338:123 *642:78 0.000374315
98 *338:123 *651:29 8.89385e-05
99 *338:123 *663:43 4.46186e-06
100 *2442:A0 *338:44 5.71472e-05
101 *2515:S *2568:S 1.64329e-05
102 *2515:S *2570:S 5.74499e-06
103 *2564:A *338:10 0.00022459
104 *2637:D *338:32 0.000150618
105 *2658:D *338:22 0.000100831
106 *2717:D *338:44 0.000101545
107 *323:20 *338:10 0
108 *323:20 *338:22 0.000278614
109 *323:114 *2571:S 4.64488e-06
110 *325:34 *338:22 0.000504737
111 *331:50 *338:22 0.00181053
112 *331:80 *338:123 0.000161713
113 *332:155 *2565:S 0.000102666
114 *333:122 *338:44 0.000200464
115 *334:74 *338:123 0.00036496
116 *336:61 *338:109 1.90936e-05
117 *336:65 *2571:S 5.62995e-05
118 *337:24 *338:84 0.000156299
119 *337:26 *2565:S 0.000104621
120 *337:95 *2571:S 0.000769601
*RES
1 *2564:Y *338:10 17.4696 
2 *338:10 *338:22 38.0804 
3 *338:22 *338:32 46.5893 
4 *338:32 *338:44 46.1964 
5 *338:44 *2568:S 10.9786 
6 *338:44 *2570:S 32.0143 
7 *338:32 *2569:S 9.3 
8 *338:22 *2566:S 9.3 
9 *338:10 *338:84 7.92513 
10 *338:84 *338:90 2.33747 
11 *338:90 *2571:S 21.6511 
12 *338:90 *338:109 29.7939 
13 *338:109 *338:123 46.0893 
14 *338:123 *2572:S 13.8 
15 *338:109 *2567:S 13.8 
16 *338:84 *2565:S 20.8618 
*END

*D_NET *339 0.0442347
*CONN
*I *2575:S I *D sky130_fd_sc_hd__mux2_1
*I *2578:S I *D sky130_fd_sc_hd__mux2_1
*I *2574:S I *D sky130_fd_sc_hd__mux2_1
*I *2580:S I *D sky130_fd_sc_hd__mux2_1
*I *2576:S I *D sky130_fd_sc_hd__mux2_1
*I *2581:S I *D sky130_fd_sc_hd__mux2_1
*I *2577:S I *D sky130_fd_sc_hd__mux2_1
*I *2579:S I *D sky130_fd_sc_hd__mux2_1
*I *2573:X O *D sky130_fd_sc_hd__or3b_4
*CAP
1 *2575:S 0.000334746
2 *2578:S 0
3 *2574:S 8.38477e-06
4 *2580:S 0.00106522
5 *2576:S 0.000236112
6 *2581:S 4.10923e-05
7 *2577:S 0.00144712
8 *2579:S 6.30235e-05
9 *2573:X 0.000398867
10 *339:142 0.00131165
11 *339:134 0.00450898
12 *339:44 0.00239532
13 *339:40 0.00278715
14 *339:32 0.00298298
15 *339:18 0.00351944
16 *339:14 0.00266983
17 *339:12 0.00435465
18 *2575:S *2566:A0 1.92905e-05
19 *2575:S *2855:A 0.000473611
20 *2575:S *2958:A 5.33005e-05
21 *2575:S *633:22 4.19624e-06
22 *2575:S *642:37 2.83129e-05
23 *2576:S *2433:A3 9.47712e-05
24 *2576:S *2576:A1 0.000264421
25 *2576:S *361:26 0
26 *2577:S *2451:A0 1.74352e-05
27 *2577:S *2451:A2 2.22958e-05
28 *2577:S *2451:S0 3.52867e-05
29 *2577:S *2515:A0 2.95641e-05
30 *2577:S *2515:A1 0.000194662
31 *2577:S *2568:A1 0.00053128
32 *2580:S *2457:A2 1.00442e-05
33 *2580:S *2457:S0 3.23206e-05
34 *2580:S *2457:S1 5.33433e-05
35 *2580:S *2460:S1 0.000171011
36 *2580:S *2534:A0 0.000181796
37 *2580:S *2556:A1 0.000292693
38 *2580:S *2915:A 6.42095e-05
39 *2580:S *341:40 9.60939e-05
40 *2580:S *373:12 5.33433e-05
41 *2580:S *646:82 9.02977e-05
42 *2581:S *2463:S1 4.56437e-05
43 *2581:S *2581:A0 2.59355e-05
44 *2581:S *645:72 5.33005e-05
45 *339:12 *350:19 5.66157e-05
46 *339:12 *350:30 0.000202842
47 *339:12 *350:43 0.000173083
48 *339:12 *635:14 5.52238e-05
49 *339:32 *2460:S1 9.50083e-05
50 *339:32 *2492:A0 0.000147474
51 *339:32 *358:26 0
52 *339:32 *637:125 7.51597e-05
53 *339:32 *663:16 0.00016971
54 *339:32 *663:33 0.000367396
55 *339:40 *2467:S 0
56 *339:40 *2581:A0 3.30526e-05
57 *339:40 *2624:CLK 0
58 *339:40 *2680:CLK 0.000128886
59 *339:40 *2908:A 0.000112707
60 *339:40 *355:90 3.14078e-05
61 *339:40 *358:26 0
62 *339:40 *374:6 1.18881e-05
63 *339:40 *637:125 0.00156114
64 *339:40 *645:72 0.000178847
65 *339:40 *663:37 0
66 *339:40 *663:43 0
67 *339:44 *2450:S0 0.000193125
68 *339:44 *2452:A0 0
69 *339:44 *2452:A1 0
70 *339:44 *2463:S1 0.000150632
71 *339:44 *2570:A0 0.000150632
72 *339:44 *2880:A 5.29554e-05
73 *339:44 *2883:A 2.49484e-05
74 *339:44 *2937:A 0
75 *339:44 *633:50 4.53031e-05
76 *339:44 *641:42 0
77 *339:44 *645:55 0.000189448
78 *339:44 *645:68 0.00058272
79 *339:134 *2601:A0 0.000123067
80 *339:142 *2425:A2 0.000108742
81 *339:142 *2425:S1 6.0038e-05
82 *339:142 *2484:A0 0.000359387
83 *339:142 *2578:A1 0.000314465
84 *339:142 *2587:A0 0.000267814
85 *339:142 *2850:A 0.000739012
86 *339:142 *2855:A 0.000228312
87 *339:142 *345:128 0
88 *339:142 *647:67 0
89 *339:142 *647:78 0
90 *2436:A2 *339:32 0.000115365
91 *2448:A1 *339:142 0.00022124
92 *2454:A0 *2577:S 5.93594e-05
93 *2454:A0 *2579:S 3.69047e-06
94 *2454:A0 *339:44 0
95 *2454:A1 *339:44 0.000335975
96 *2460:A0 *2580:S 6.03797e-05
97 *2466:A1 *2581:S 5.41794e-05
98 *2466:A1 *339:44 7.83587e-05
99 *2467:A1 *339:40 2.56694e-05
100 *2475:S *339:44 0
101 *2484:S *339:142 0.000136178
102 *2515:S *2577:S 0.000136951
103 *2527:A *339:12 0.000157217
104 *2568:S *2577:S 5.12878e-05
105 *2571:S *339:18 0.000214084
106 *2628:D *339:40 0
107 *2638:D *339:44 0.000153054
108 *2643:D *339:32 0.000127439
109 *2680:D *339:40 7.01199e-06
110 *2707:D *339:40 8.15939e-05
111 *2715:D *2576:S 0.000140933
112 *2715:D *339:40 8.91726e-05
113 *2784:D *339:44 0
114 *252:12 *339:12 9.97648e-05
115 *252:36 *339:12 2.89016e-05
116 *264:18 *2575:S 0
117 *264:18 *339:142 0
118 *264:20 *2574:S 1.01912e-05
119 *325:34 *339:134 0.000125441
120 *325:34 *339:142 6.57431e-05
121 *327:53 *2580:S 0
122 *327:53 *339:32 8.21115e-05
123 *327:99 *339:134 0.000188844
124 *330:10 *339:12 0.000200623
125 *330:12 *339:12 0.00011739
126 *331:50 *339:134 0.000239977
127 *331:102 *2575:S 1.90936e-05
128 *336:10 *2574:S 2.11419e-05
129 *338:22 *339:134 0.000443226
130 *338:32 *339:142 0.00100649
131 *338:44 *2577:S 0.00015424
132 *338:84 *339:14 0.000481664
133 *338:84 *339:18 0.000163679
134 *338:84 *339:134 6.63274e-05
135 *338:90 *339:18 0.000416657
136 *338:123 *339:40 0
*RES
1 *2573:X *339:12 29.5582 
2 *339:12 *339:14 2.92967 
3 *339:14 *339:18 7.42067 
4 *339:18 *339:32 21.0982 
5 *339:32 *339:40 44.9286 
6 *339:40 *339:44 28.3036 
7 *339:44 *2579:S 10.2464 
8 *339:44 *2577:S 33.6036 
9 *339:40 *2581:S 15.0679 
10 *339:32 *2576:S 18.8714 
11 *339:18 *2580:S 33.8982 
12 *339:14 *2574:S 17.4868 
13 *339:12 *339:134 12.424 
14 *339:134 *339:142 42.5581 
15 *339:142 *2578:S 9.3 
16 *339:134 *2575:S 18.8262 
*END

*D_NET *340 0.034501
*CONN
*I *2583:S I *D sky130_fd_sc_hd__mux2_1
*I *2585:S I *D sky130_fd_sc_hd__mux2_1
*I *2588:S I *D sky130_fd_sc_hd__mux2_1
*I *2590:S I *D sky130_fd_sc_hd__mux2_1
*I *2589:S I *D sky130_fd_sc_hd__mux2_1
*I *2584:S I *D sky130_fd_sc_hd__mux2_1
*I *2587:S I *D sky130_fd_sc_hd__mux2_1
*I *2586:S I *D sky130_fd_sc_hd__mux2_1
*I *2582:Y O *D sky130_fd_sc_hd__nor2_4
*CAP
1 *2583:S 0.000181536
2 *2585:S 3.56682e-05
3 *2588:S 0.000907652
4 *2590:S 5.18997e-05
5 *2589:S 0.000332288
6 *2584:S 2.70769e-05
7 *2587:S 0.000670162
8 *2586:S 0.000353891
9 *2582:Y 0.000163534
10 *340:110 0.00219458
11 *340:100 0.00163988
12 *340:73 0.00255361
13 *340:63 0.00349878
14 *340:24 0.00223524
15 *340:16 0.00230764
16 *340:10 0.00269803
17 *2583:S *2939:A 0.000459929
18 *2583:S *341:40 9.60939e-05
19 *2583:S *633:129 2.95746e-06
20 *2583:S *666:28 7.75093e-05
21 *2583:S *666:60 3.94443e-05
22 *2584:S *2584:A0 2.44318e-05
23 *2584:S *345:12 8.46829e-05
24 *2585:S *2585:A0 0.000183022
25 *2585:S *3030:A 0.000183022
26 *2586:S *2551:A0 7.08001e-05
27 *2586:S *2595:A0 9.90431e-05
28 *2586:S *2907:A 9.25014e-06
29 *2586:S *2913:A 0.000352962
30 *2586:S *459:10 0.00021192
31 *2586:S *634:78 8.50152e-05
32 *2587:S *2444:A3 1.39726e-05
33 *2587:S *2551:A1 5.71472e-05
34 *2587:S *2587:A1 3.18676e-05
35 *2587:S *347:10 0.000361066
36 *2587:S *347:12 7.02611e-05
37 *2588:S *2465:S1 0
38 *2588:S *2588:A0 7.83659e-05
39 *2588:S *2590:A0 5.79582e-06
40 *2588:S *2616:A0 0.000147725
41 *2588:S *2616:A1 7.65336e-06
42 *2588:S *2890:A 0.000196269
43 *2588:S *2917:A 0
44 *2588:S *2955:A 0.000242806
45 *2588:S *346:12 6.39901e-05
46 *2588:S *346:14 5.45041e-05
47 *2588:S *346:33 2.59355e-05
48 *2588:S *353:22 8.56812e-05
49 *2588:S *353:95 0.000148457
50 *2588:S *645:101 0.000295844
51 *2588:S *651:29 5.83304e-05
52 *2588:S *651:44 0.000163911
53 *2588:S *655:83 2.89114e-05
54 *2589:S *2456:S1 0.000147718
55 *2589:S *2589:A0 0.000100685
56 *2589:S *2589:A1 2.60984e-05
57 *2589:S *356:10 2.59355e-05
58 *2590:S *2590:A0 0.000140088
59 *2590:S *2590:A1 4.48647e-05
60 *2590:S *632:26 0.000224348
61 *2590:S *651:29 6.05161e-06
62 *340:10 *2657:CLK 0.000392026
63 *340:10 *648:117 6.89152e-05
64 *340:16 *2501:A0 7.80714e-06
65 *340:16 *2538:A0 3.92757e-05
66 *340:16 *345:12 0.000139907
67 *340:16 *361:10 0.000607346
68 *340:16 *637:28 4.038e-06
69 *340:16 *648:117 0.000663569
70 *340:16 *664:43 0.000124342
71 *340:16 *664:54 0.000120219
72 *340:24 *2424:A0 0.000106091
73 *340:24 *2551:A0 0.000114642
74 *340:24 *2551:A1 2.09495e-05
75 *340:24 *2726:CLK 9.24491e-05
76 *340:24 *2855:A 0.000137829
77 *340:24 *2931:A 3.10821e-05
78 *340:24 *2990:A 0
79 *340:24 *341:105 0
80 *340:24 *345:12 1.36251e-05
81 *340:24 *361:10 7.88298e-05
82 *340:24 *456:10 0
83 *340:24 *459:10 0.000101545
84 *340:24 *664:10 0
85 *340:63 *2547:A1 0
86 *340:73 *2516:A0 1.74352e-05
87 *340:73 *2516:A1 0.000525388
88 *340:73 *2806:A 9.93135e-05
89 *340:73 *345:76 0.000416126
90 *340:73 *356:10 0.00027501
91 *340:73 *633:129 7.35817e-05
92 *340:100 *2585:A0 0.000125731
93 *340:100 *2594:A0 1.91512e-05
94 *340:100 *2994:A 0.000191881
95 *340:100 *341:59 0
96 *340:100 *342:36 0
97 *340:100 *449:10 0.000125724
98 *340:100 *457:10 7.79154e-05
99 *340:100 *646:27 8.81025e-05
100 *340:100 *646:42 0.000271502
101 *340:110 *2462:A2 0
102 *340:110 *2539:A1 0
103 *340:110 *2585:A0 3.17148e-05
104 *340:110 *2590:A0 5.93614e-05
105 *340:110 *2599:A0 7.6997e-05
106 *340:110 *2599:A1 2.21728e-05
107 *340:110 *2616:S 0
108 *340:110 *2901:A 9.15186e-06
109 *340:110 *2923:A 0.000162832
110 *340:110 *481:10 0.000150618
111 *340:110 *489:12 0.000114642
112 *340:110 *646:27 0.000260431
113 *340:110 *651:23 9.31534e-05
114 *340:110 *651:29 0.00015049
115 *2422:A0 *340:10 7.44945e-07
116 *2422:A0 *340:16 2.86754e-05
117 *2534:S *340:10 4.70078e-05
118 *2538:S *340:16 0
119 *2657:D *340:10 0.000137983
120 *2673:D *340:10 1.90936e-05
121 *2673:D *340:16 0.000322606
122 *2682:D *340:16 0.000311021
123 *2723:D *340:24 8.85786e-05
124 *2726:D *2587:S 9.60875e-05
125 *2748:D *340:24 0
126 *2749:D *340:100 0.000163584
127 *331:56 *2584:S 0.000139913
128 *331:56 *340:16 0.000137983
129 *334:74 *340:110 0
130 *334:80 *2588:S 0
131 *336:61 *2583:S 0.000206347
132 *336:61 *340:73 7.47883e-05
133 *336:65 *2589:S 9.69693e-05
134 *337:24 *340:63 0.000382997
135 *338:84 *340:63 0.00068812
136 *338:90 *340:63 0.000542999
137 *338:109 *340:73 2.68023e-05
*RES
1 *2582:Y *340:10 18.5054 
2 *340:10 *340:16 34.0625 
3 *340:16 *340:24 29.2679 
4 *340:24 *2586:S 23.0857 
5 *340:24 *2587:S 25.4429 
6 *340:16 *2584:S 10.6571 
7 *340:10 *340:63 10.6865 
8 *340:63 *340:73 33.9554 
9 *340:73 *2589:S 24.6036 
10 *340:73 *340:100 15.9643 
11 *340:100 *340:110 25.7321 
12 *340:110 *2590:S 15.9786 
13 *340:110 *2588:S 35.425 
14 *340:100 *2585:S 15.5679 
15 *340:63 *2583:S 20.7911 
*END

*D_NET *341 0.0344609
*CONN
*I *2593:S I *D sky130_fd_sc_hd__mux2_1
*I *2596:S I *D sky130_fd_sc_hd__mux2_1
*I *2595:S I *D sky130_fd_sc_hd__mux2_1
*I *2592:S I *D sky130_fd_sc_hd__mux2_1
*I *2594:S I *D sky130_fd_sc_hd__mux2_1
*I *2599:S I *D sky130_fd_sc_hd__mux2_1
*I *2597:S I *D sky130_fd_sc_hd__mux2_1
*I *2598:S I *D sky130_fd_sc_hd__mux2_1
*I *2591:Y O *D sky130_fd_sc_hd__nor2_4
*CAP
1 *2593:S 0.000103103
2 *2596:S 0.000236121
3 *2595:S 0.000354168
4 *2592:S 0
5 *2594:S 0
6 *2599:S 4.60953e-05
7 *2597:S 0.00125793
8 *2598:S 8.91604e-05
9 *2591:Y 0.000104459
10 *341:105 0.00170376
11 *341:103 0.00332862
12 *341:59 0.00216734
13 *341:53 0.0010859
14 *341:42 0.000613058
15 *341:40 0.00141278
16 *341:8 0.00205816
17 *341:6 0.0031632
18 *2593:S *2593:A1 9.60939e-05
19 *2595:S *2560:A0 1.21289e-05
20 *2595:S *2595:A0 5.33005e-05
21 *2595:S *2907:A 0.00014183
22 *2595:S *2913:A 2.59355e-05
23 *2595:S *342:75 0.000148189
24 *2595:S *347:34 9.87983e-06
25 *2595:S *634:78 0.000576118
26 *2595:S *634:98 0.000358971
27 *2595:S *637:90 0.00117478
28 *2596:S *2443:A0 0
29 *2596:S *2596:A0 9.90431e-05
30 *2596:S *2596:A1 0.000155149
31 *2596:S *347:34 5.96379e-05
32 *2596:S *658:10 4.18845e-05
33 *2596:S *669:40 0.000183726
34 *2596:S *678:12 4.72818e-05
35 *2597:S *2485:A1 0
36 *2597:S *2572:A0 0.00013905
37 *2597:S *2597:A0 3.34366e-05
38 *2597:S *2803:A 0.000247064
39 *2597:S *353:106 0
40 *2597:S *655:62 1.52978e-05
41 *2597:S *655:75 0
42 *2597:S *655:112 0
43 *2598:S *2753:CLK 5.52238e-05
44 *2599:S *2754:CLK 0.00018372
45 *2599:S *2844:A 6.62868e-05
46 *341:8 *2875:A 8.53409e-05
47 *341:8 *666:86 0.000126566
48 *341:40 *2457:A2 0
49 *341:40 *2556:A1 0.00044366
50 *341:40 *2580:A1 0.000290265
51 *341:40 *2933:A 9.60939e-05
52 *341:40 *2986:A 0.000367746
53 *341:40 *359:66 2.31704e-05
54 *341:40 *437:12 0.000400867
55 *341:40 *445:6 0.000271345
56 *341:40 *643:126 4.98117e-05
57 *341:40 *666:30 6.57815e-05
58 *341:40 *666:60 8.35951e-05
59 *341:40 *666:69 0.000434813
60 *341:40 *666:86 5.71472e-05
61 *341:42 *2580:A0 5.33005e-05
62 *341:53 *342:36 0.000757529
63 *341:59 *2539:A1 0.000457248
64 *341:59 *2585:A0 0
65 *341:59 *2607:A0 0
66 *341:59 *2607:A1 5.24274e-05
67 *341:59 *2994:A 3.75052e-05
68 *341:59 *342:36 0.000245364
69 *341:59 *353:128 0
70 *341:59 *489:12 3.19109e-05
71 *341:59 *646:16 0
72 *341:103 *2444:S1 0
73 *341:103 *2510:A0 0.000260621
74 *341:103 *2510:A1 2.34204e-05
75 *341:103 *2593:A0 5.59013e-05
76 *341:103 *2610:A0 0
77 *341:103 *2626:CLK 0.000225307
78 *341:103 *2706:CLK 0.000213861
79 *341:103 *2987:A 0
80 *341:103 *2990:A 0.000181588
81 *341:103 *345:12 0
82 *341:103 *349:14 0.000172827
83 *341:103 *349:16 0.000559266
84 *341:103 *456:10 1.32511e-05
85 *341:103 *637:28 0
86 *341:103 *642:37 0
87 *341:105 *2444:A3 0
88 *341:105 *2444:S0 0
89 *341:105 *2444:S1 0
90 *341:105 *2474:A0 0
91 *341:105 *2551:A1 0.000104267
92 *341:105 *2593:A0 0.00010326
93 *341:105 *2706:CLK 0.000153054
94 *341:105 *2826:A 0
95 *341:105 *347:34 0.000111997
96 *341:105 *459:10 0
97 *341:105 *658:10 1.21955e-05
98 *2460:A0 *341:40 6.05161e-06
99 *2460:A2 *341:40 9.47712e-05
100 *2475:S *2597:S 0
101 *2560:S *2595:S 4.88637e-05
102 *2564:A *341:6 0.000140933
103 *2564:A *341:103 0
104 *2580:S *341:40 9.60939e-05
105 *2583:S *341:40 9.60939e-05
106 *2591:B *341:6 0.000313241
107 *2591:B *341:103 3.34295e-05
108 *2629:D *341:105 0.000175519
109 *2630:D *2597:S 6.75007e-05
110 *2712:D *2597:S 5.33882e-05
111 *2719:D *341:42 2.27416e-05
112 *2720:D *2597:S 0
113 *2748:D *341:105 1.37292e-05
114 *2751:D *2596:S 7.8327e-05
115 *2780:D *341:103 0
116 *323:114 *341:40 0.000195555
117 *325:26 *341:6 3.69047e-06
118 *329:107 *2595:S 0
119 *333:12 *341:103 9.84204e-06
120 *334:66 *341:53 0.0006922
121 *334:66 *341:59 0.00114452
122 *334:74 *2597:S 0.000323724
123 *334:74 *341:59 0.000275674
124 *334:80 *2597:S 0.000640862
125 *335:19 *341:103 2.23987e-05
126 *336:51 *341:8 0.000523818
127 *336:51 *341:40 0.000719887
128 *337:24 *341:6 4.35452e-05
129 *337:24 *341:103 0.000354332
130 *340:24 *341:105 0
131 *340:100 *341:59 0
*RES
1 *2591:Y *341:6 12.7107 
2 *341:6 *341:8 18.6071 
3 *341:8 *341:40 49.8214 
4 *341:40 *341:42 5.05357 
5 *341:42 *2598:S 10.6571 
6 *341:42 *341:53 14.3393 
7 *341:53 *341:59 25.0714 
8 *341:59 *2597:S 44.2643 
9 *341:59 *2599:S 15.5679 
10 *341:53 *2594:S 13.8 
11 *341:8 *2592:S 9.3 
12 *341:6 *341:103 47.1786 
13 *341:103 *341:105 21.2232 
14 *341:105 *2595:S 37.3089 
15 *341:105 *2596:S 20.7018 
16 *341:103 *2593:S 15.5857 
*END

*D_NET *342 0.0459311
*CONN
*I *2609:S I *D sky130_fd_sc_hd__mux2_1
*I *2610:S I *D sky130_fd_sc_hd__mux2_1
*I *2613:S I *D sky130_fd_sc_hd__mux2_1
*I *2612:S I *D sky130_fd_sc_hd__mux2_1
*I *2614:S I *D sky130_fd_sc_hd__mux2_1
*I *2615:S I *D sky130_fd_sc_hd__mux2_1
*I *2611:S I *D sky130_fd_sc_hd__mux2_1
*I *2616:S I *D sky130_fd_sc_hd__mux2_1
*I *2608:Y O *D sky130_fd_sc_hd__nor2_4
*CAP
1 *2609:S 0.000192153
2 *2610:S 0.000143361
3 *2613:S 0.00039924
4 *2612:S 0
5 *2614:S 0.00170198
6 *2615:S 1.69531e-05
7 *2611:S 0
8 *2616:S 0.00129609
9 *2608:Y 0.000811982
10 *342:83 0.00209091
11 *342:77 0.000998683
12 *342:75 0.00228214
13 *342:67 0.00404544
14 *342:36 0.00290413
15 *342:26 0.00498162
16 *342:20 0.00558797
17 *342:16 0.00140502
18 *2609:S *2421:A1 0
19 *2609:S *2421:A3 4.06087e-07
20 *2609:S *2537:A0 0
21 *2609:S *2609:A1 0.000127446
22 *2609:S *2929:A 0
23 *2609:S *667:14 0.000221821
24 *2610:S *2610:A0 9.90431e-05
25 *2613:S *2523:A1 6.4443e-05
26 *2613:S *2531:A1 5.33433e-05
27 *2613:S *2613:A0 9.90431e-05
28 *2614:S *2441:A2 0.000441446
29 *2614:S *2441:S0 5.03787e-05
30 *2614:S *2668:CLK 9.90431e-05
31 *2614:S *2852:A 0.000117543
32 *2614:S *2891:A 0.000150625
33 *2614:S *659:8 2.59355e-05
34 *2615:S *2458:S0 5.33005e-05
35 *2615:S *653:112 5.33005e-05
36 *2616:S *2435:A2 0.00012401
37 *2616:S *2462:A2 3.17163e-05
38 *2616:S *2616:A0 9.74665e-05
39 *2616:S *2888:A 0.000232458
40 *2616:S *2934:A 6.24558e-05
41 *2616:S *643:58 0.000247778
42 *2616:S *645:101 0.000631782
43 *2616:S *651:44 0
44 *2616:S *651:59 0.000183477
45 *342:16 *2421:A1 0
46 *342:16 *2421:A3 2.54135e-05
47 *342:26 *2459:S1 0.000191325
48 *342:26 *357:119 3.42042e-05
49 *342:26 *653:112 0.000106944
50 *342:36 *2432:S0 3.16617e-05
51 *342:36 *2456:S1 6.73939e-05
52 *342:36 *2459:S1 0
53 *342:36 *2589:A1 0
54 *342:36 *2594:A0 0.000154762
55 *342:36 *2951:A 9.0145e-05
56 *342:36 *2994:A 4.25619e-05
57 *342:36 *357:16 8.15095e-05
58 *342:36 *357:71 0.000101545
59 *342:36 *357:84 0.000223592
60 *342:36 *357:95 0.000390568
61 *342:36 *357:106 0.000198698
62 *342:36 *357:119 0.000385717
63 *342:36 *457:10 2.39779e-05
64 *342:36 *643:58 0.000457255
65 *342:36 *646:42 0
66 *342:36 *662:48 3.63281e-05
67 *342:67 *2419:A0 2.60202e-05
68 *342:67 *2422:S1 0
69 *342:67 *2520:A0 0
70 *342:67 *2574:A1 0.000494308
71 *342:67 *2957:A 0.000629089
72 *342:67 *439:16 0.000100831
73 *342:67 *667:24 0.000250594
74 *342:75 *2439:A1 0.000193589
75 *342:75 *2439:S0 0.000119267
76 *342:75 *2440:A1 0
77 *342:75 *2548:A1 0.000320038
78 *342:75 *2557:A0 0.000100152
79 *342:75 *2824:A 0.000103041
80 *342:75 *2912:A 9.0651e-05
81 *342:75 *2991:A 0
82 *342:75 *2992:A 0.000126439
83 *342:75 *360:10 8.79872e-05
84 *342:75 *360:12 0.000228715
85 *342:75 *360:14 2.72545e-05
86 *342:75 *360:22 6.5185e-05
87 *342:75 *394:12 0
88 *342:75 *637:90 0
89 *342:75 *661:31 0.000183364
90 *342:77 *2439:A1 3.26628e-05
91 *342:77 *2513:A0 0.000121516
92 *342:77 *2531:A1 0.000111581
93 *342:77 *370:12 0.000129868
94 *342:83 *2612:A0 5.33433e-05
95 *2422:A2 *342:67 0
96 *2422:A3 *342:67 9.44268e-05
97 *2423:A1 *342:67 0.000274825
98 *2504:S *2613:S 0.00113685
99 *2513:S *342:77 0
100 *2513:S *342:83 0
101 *2523:S *342:83 0.000707557
102 *2550:S *342:75 0
103 *2595:S *342:75 0.000148189
104 *2606:S *342:36 0
105 *2620:D *342:75 0.000319316
106 *2631:D *342:36 0
107 *2650:D *342:67 0.000180999
108 *2660:D *2613:S 0.000116749
109 *2668:D *2614:S 0.000105246
110 *2681:D *342:16 5.80706e-06
111 *2713:D *342:67 2.42103e-05
112 *2724:D *342:36 0.000263656
113 *2725:D *342:75 5.33882e-05
114 *2729:D *2616:S 0.000151333
115 *2788:D *342:67 0.000108305
116 *2788:D *342:75 3.2006e-05
117 *264:20 *342:67 0
118 *292:16 *342:36 1.51476e-05
119 *297:24 *342:75 0
120 *299:16 *342:75 0
121 *300:14 *2614:S 1.53439e-06
122 *322:18 *342:16 3.34672e-05
123 *323:64 *342:16 0.00104333
124 *323:102 *342:26 0.000160191
125 *325:67 *342:16 0.000125724
126 *326:29 *342:16 0
127 *329:96 *342:67 0
128 *329:107 *342:75 0
129 *329:107 *342:77 0
130 *329:111 *2613:S 0.000228558
131 *332:38 *342:26 0.000310836
132 *333:58 *2610:S 0.000393949
133 *334:12 *342:16 1.88048e-05
134 *334:31 *342:67 0.000193663
135 *334:66 *342:36 0.000236167
136 *336:10 *342:67 0
137 *336:10 *342:75 0
138 *336:14 *342:75 7.89349e-05
139 *336:51 *342:67 0
140 *337:30 *342:75 0
141 *340:100 *342:36 0
142 *340:110 *2616:S 0
143 *341:53 *342:36 0.000757529
144 *341:59 *342:36 0.000245364
*RES
1 *2608:Y *342:16 35.6125 
2 *342:16 *342:20 4.24973 
3 *342:20 *342:26 10.7396 
4 *342:26 *342:36 48.3036 
5 *342:36 *2616:S 42.5143 
6 *342:36 *2611:S 13.8 
7 *342:26 *2615:S 14.3357 
8 *342:20 *342:67 44.9725 
9 *342:67 *342:75 46.7054 
10 *342:75 *342:77 6.04464 
11 *342:77 *342:83 13.4464 
12 *342:83 *2614:S 48.925 
13 *342:83 *2612:S 9.3 
14 *342:77 *2613:S 27.0679 
15 *342:67 *2610:S 17.6214 
16 *342:16 *2609:S 18.3268 
*END

*D_NET *343 0.000738011
*CONN
*I *2730:D I *D sky130_fd_sc_hd__dfstp_1
*I *2363:Y O *D sky130_fd_sc_hd__a21oi_1
*CAP
1 *2730:D 0.000210924
2 *2363:Y 0.000210924
3 *2730:D *669:14 0.000128154
4 *2363:B1 *2730:D 0.000120519
5 *231:12 *2730:D 6.74911e-05
*RES
1 *2363:Y *2730:D 31.4214 
*END

*D_NET *344 0.000707914
*CONN
*I *2741:D I *D sky130_fd_sc_hd__dfrtp_1
*I *2329:X O *D sky130_fd_sc_hd__and2_1
*CAP
1 *2741:D 0.000278427
2 *2329:X 0.000278427
3 *177:10 *2741:D 0.000151061
*RES
1 *2329:X *2741:D 31.8321 
*END

*D_NET *345 0.0404483
*CONN
*I *2802:A I *D sky130_fd_sc_hd__clkbuf_8
*I *2801:A I *D sky130_fd_sc_hd__clkbuf_8
*I *2800:A I *D sky130_fd_sc_hd__clkbuf_8
*I *2799:A I *D sky130_fd_sc_hd__clkbuf_8
*I *2798:A I *D sky130_fd_sc_hd__clkbuf_8
*I *2797:A I *D sky130_fd_sc_hd__clkbuf_8
*I *2811:A I *D sky130_fd_sc_hd__clkbuf_8
*I *2810:A I *D sky130_fd_sc_hd__clkbuf_8
*I *2808:A I *D sky130_fd_sc_hd__clkbuf_8
*I *2809:A I *D sky130_fd_sc_hd__clkbuf_8
*I *2807:A I *D sky130_fd_sc_hd__clkbuf_8
*I *2806:A I *D sky130_fd_sc_hd__clkbuf_8
*I *2796:A I *D sky130_fd_sc_hd__clkbuf_8
*I *2803:A I *D sky130_fd_sc_hd__clkbuf_8
*I *2805:A I *D sky130_fd_sc_hd__clkbuf_8
*I *2804:A I *D sky130_fd_sc_hd__clkbuf_8
*I *2795:X O *D sky130_fd_sc_hd__clkbuf_16
*CAP
1 *2802:A 0.000313729
2 *2801:A 0.000175098
3 *2800:A 6.96438e-05
4 *2799:A 0
5 *2798:A 0.000788022
6 *2797:A 0.000110495
7 *2811:A 0.000126478
8 *2810:A 0
9 *2808:A 0
10 *2809:A 0.000101428
11 *2807:A 0
12 *2806:A 0.000230303
13 *2796:A 0
14 *2803:A 0.000180063
15 *2805:A 6.66566e-05
16 *2804:A 0.000281446
17 *2795:X 0
18 *345:174 0.00246682
19 *345:161 0.00238008
20 *345:152 0.00113882
21 *345:128 0.00172964
22 *345:126 0.0021782
23 *345:94 0.000221005
24 *345:76 0.00137518
25 *345:72 0.00226132
26 *345:52 0.00186777
27 *345:24 0.000397095
28 *345:22 0.00256821
29 *345:20 0.00263992
30 *345:14 0.000866209
31 *345:12 0.000500364
32 *345:4 0.000859922
33 *2797:A *2444:S1 0
34 *2797:A *657:104 0.000270236
35 *2798:A *2446:A1 0.000262124
36 *2798:A *2446:A2 1.66856e-05
37 *2798:A *2826:A 6.05161e-06
38 *2800:A *2756:D 0
39 *2801:A *670:29 1.00073e-05
40 *2801:A *733:8 5.71472e-05
41 *2802:A *2758:D 0
42 *2802:A *677:25 1.92789e-05
43 *2802:A *733:25 0
44 *2804:A *2550:A0 9.71197e-05
45 *2804:A *2624:RESET_B 0.000103647
46 *2804:A *661:60 0.000272349
47 *2806:A *356:10 0.000230475
48 *2809:A *359:14 0.000398822
49 *2809:A *359:38 0.000126566
50 *2811:A *2424:A3 0
51 *2811:A *2965:A 0
52 *2811:A *664:28 0
53 *345:12 *2584:A0 5.71472e-05
54 *345:12 *2584:A1 0.000244495
55 *345:12 *2990:A 1.89507e-06
56 *345:12 *360:8 0.000228558
57 *345:12 *361:10 0
58 *345:12 *637:28 6.5163e-05
59 *345:14 *360:8 0.000140933
60 *345:20 *2512:A0 0.000274294
61 *345:20 *3000:A 7.77652e-05
62 *345:20 *360:8 0.000105569
63 *345:22 *2493:A1 0.000146395
64 *345:22 *2567:A0 3.34672e-05
65 *345:22 *2624:RESET_B 0.000355271
66 *345:22 *641:10 0
67 *345:22 *659:116 0
68 *345:22 *661:60 0.000162963
69 *345:24 *2624:RESET_B 3.15645e-05
70 *345:24 *661:60 5.10822e-05
71 *345:52 *2463:S1 0.000353073
72 *345:52 *2820:A 0.000146523
73 *345:72 *2433:A2 0
74 *345:72 *2433:S1 0
75 *345:72 *2619:RESET_B 0.000414762
76 *345:72 *2666:CLK 0
77 *345:72 *2675:CLK 0.000187977
78 *345:72 *2911:A 0
79 *345:72 *3000:A 0
80 *345:72 *633:129 0.000217006
81 *345:72 *643:23 0
82 *345:72 *643:116 0
83 *345:72 *670:76 0.000179072
84 *345:76 *2516:A0 0.000273269
85 *345:76 *2516:A1 9.93135e-05
86 *345:94 *2619:RESET_B 0.000239364
87 *345:94 *359:38 9.71197e-05
88 *345:94 *670:76 0.000113536
89 *345:128 *2444:S1 0
90 *345:128 *2897:A 5.90581e-05
91 *345:128 *657:104 0.000150625
92 *345:152 *2427:A3 4.19577e-05
93 *345:152 *2634:CLK 4.21301e-05
94 *345:152 *2871:A 0.000121573
95 *345:152 *648:78 0
96 *345:161 *349:6 0.000137558
97 *345:161 *349:52 5.30637e-06
98 *345:174 *2415:A 7.77652e-05
99 *345:174 *2415:B 1.92905e-05
100 *345:174 *2746:D 0.000180537
101 *345:174 *2757:CLK 6.09773e-05
102 *345:174 *2757:D 0.000118592
103 *345:174 *2761:D 9.20581e-06
104 *345:174 *349:52 6.09804e-05
105 *2430:A1 *345:152 0
106 *2437:A1 *345:72 4.25716e-05
107 *2475:S *2803:A 0
108 *2516:S *345:76 2.44318e-05
109 *2527:A *345:152 0.000385259
110 *2527:B *345:152 0
111 *2550:S *2804:A 3.32631e-05
112 *2584:S *345:12 8.46829e-05
113 *2597:S *2803:A 0.000247064
114 *2619:D *345:72 2.15363e-05
115 *2634:D *345:152 0.000548828
116 *2636:D *345:22 4.48206e-05
117 *2637:D *345:128 0.000152333
118 *2659:D *345:72 0.000528793
119 *2692:D *2804:A 3.18676e-05
120 *2726:D *2797:A 0.000126439
121 *2782:D *345:22 1.08359e-05
122 *264:20 *2811:A 4.19624e-06
123 *285:24 *345:128 0.000128154
124 *320:22 *2803:A 3.67257e-05
125 *320:22 *345:52 0.000256231
126 *323:20 *2800:A 5.01213e-05
127 *323:32 *345:128 0.000820441
128 *323:32 *345:152 0.000488007
129 *325:26 *345:152 0.00083227
130 *325:34 *345:128 0
131 *325:34 *345:152 0
132 *331:56 *345:12 6.42877e-05
133 *331:56 *345:20 0.000363882
134 *331:80 *345:22 0
135 *333:46 *345:152 0
136 *333:58 *345:152 6.75007e-05
137 *333:74 *345:22 7.6644e-05
138 *337:83 *2809:A 0.000522439
139 *337:83 *345:94 8.46829e-05
140 *338:10 *2800:A 3.69697e-05
141 *338:32 *345:128 0.000516482
142 *338:109 *345:72 0
143 *339:142 *345:128 0
144 *340:16 *345:12 0.000139907
145 *340:24 *345:12 1.36251e-05
146 *340:73 *2806:A 9.93135e-05
147 *340:73 *345:76 0.000416126
148 *341:103 *345:12 0
*RES
1 *2795:X *345:4 9.3 
2 *345:4 *345:12 17.625 
3 *345:12 *345:14 1.35714 
4 *345:14 *345:20 19.8393 
5 *345:20 *345:22 19.8571 
6 *345:22 *345:24 1.33929 
7 *345:24 *2804:A 21.1929 
8 *345:24 *2805:A 14.7464 
9 *345:22 *345:52 29.8214 
10 *345:52 *2803:A 22.4071 
11 *345:52 *2796:A 9.3 
12 *345:20 *345:72 24.4107 
13 *345:72 *345:76 25.1607 
14 *345:76 *2806:A 13.9429 
15 *345:76 *2807:A 9.3 
16 *345:72 *345:94 8.60714 
17 *345:94 *2809:A 14.3536 
18 *345:94 *2808:A 9.3 
19 *345:14 *2810:A 9.3 
20 *345:12 *2811:A 20.2464 
21 *345:4 *345:126 12.4286 
22 *345:126 *345:128 24.1071 
23 *345:128 *2797:A 17.2643 
24 *345:128 *2798:A 23.3893 
25 *345:126 *345:152 28.9107 
26 *345:152 *2799:A 9.3 
27 *345:152 *345:161 4.25 
28 *345:161 *2800:A 19.6393 
29 *345:161 *345:174 23.9464 
30 *345:174 *2801:A 12.3179 
31 *345:174 *2802:A 23.2107 
*END

*D_NET *346 0.0145572
*CONN
*I *2812:A I *D sky130_fd_sc_hd__clkbuf_4
*I *2630:CLK I *D sky130_fd_sc_hd__dfxtp_1
*I *2794:CLK I *D sky130_fd_sc_hd__dfxtp_1
*I *2727:CLK I *D sky130_fd_sc_hd__dfxtp_1
*I *2752:CLK I *D sky130_fd_sc_hd__dfxtp_1
*I *2710:CLK I *D sky130_fd_sc_hd__dfxtp_1
*I *2670:CLK I *D sky130_fd_sc_hd__dfxtp_1
*I *2718:CLK I *D sky130_fd_sc_hd__dfxtp_1
*I *2654:CLK I *D sky130_fd_sc_hd__dfxtp_1
*I *2792:CLK I *D sky130_fd_sc_hd__dfxtp_1
*I *2686:CLK I *D sky130_fd_sc_hd__dfxtp_1
*I *2694:CLK I *D sky130_fd_sc_hd__dfxtp_1
*I *2702:CLK I *D sky130_fd_sc_hd__dfxtp_1
*I *2784:CLK I *D sky130_fd_sc_hd__dfxtp_1
*I *2796:X O *D sky130_fd_sc_hd__clkbuf_8
*CAP
1 *2812:A 0
2 *2630:CLK 2.22847e-05
3 *2794:CLK 0.000173334
4 *2727:CLK 0
5 *2752:CLK 0
6 *2710:CLK 0.000614294
7 *2670:CLK 0
8 *2718:CLK 0.000705135
9 *2654:CLK 0.000129894
10 *2792:CLK 0.000200306
11 *2686:CLK 0.000451043
12 *2694:CLK 0
13 *2702:CLK 0.000213659
14 *2784:CLK 0.000216118
15 *2796:X 9.58524e-05
16 *346:104 0.000705135
17 *346:71 0.000935354
18 *346:69 0.000535667
19 *346:67 0.000395826
20 *346:65 0.0011226
21 *346:63 0.000457267
22 *346:59 0.000471125
23 *346:39 0.000398701
24 *346:37 0.000507266
25 *346:33 0.000565078
26 *346:29 0.000509181
27 *346:14 0.000521364
28 *346:12 0.000231828
29 *2718:CLK *380:10 0.000139202
30 *2718:CLK *641:50 0.000303931
31 *2784:CLK *2450:A1 3.17067e-05
32 *2784:CLK *2917:A 8.68569e-05
33 *346:12 *353:22 5.71472e-05
34 *346:14 *2917:A 7.71417e-05
35 *346:29 *2588:A0 1.32056e-05
36 *346:29 *655:83 2.95848e-05
37 *346:33 *2552:A1 0.000315158
38 *346:33 *2561:A1 5.52302e-05
39 *346:33 *2588:A0 0.00022511
40 *346:33 *655:83 4.25396e-05
41 *346:33 *655:92 0.000659725
42 *346:37 *2561:A1 0.000123912
43 *346:59 *476:8 0.000126629
44 *346:63 *2465:S1 5.66157e-05
45 *346:63 *2944:A 8.98897e-05
46 *346:63 *641:77 0
47 *346:65 *2944:A 0.000112106
48 *346:71 *2524:A1 0
49 *2561:S *2794:CLK 0
50 *2561:S *346:37 0
51 *2561:S *346:63 0
52 *2588:S *346:12 6.39901e-05
53 *2588:S *346:14 5.45041e-05
54 *2588:S *346:33 2.59355e-05
55 *2630:D *346:29 0.000230656
56 *2654:D *2654:CLK 5.95099e-05
57 *2670:D *2718:CLK 8.41467e-05
58 *2670:D *346:69 0.000128161
59 *2670:D *346:71 0.000173797
60 *2694:D *346:37 0.000153054
61 *2694:D *346:39 0.000231812
62 *2702:D *2702:CLK 0
63 *332:80 *2702:CLK 0
64 *332:80 *2794:CLK 0.000184392
65 *332:80 *346:37 5.64115e-05
66 *334:80 *2784:CLK 0.000115072
67 *334:80 *346:12 6.97972e-05
68 *334:80 *346:14 0.000202005
*RES
1 *2796:X *346:12 16.4071 
2 *346:12 *346:14 4.67857 
3 *346:14 *2784:CLK 18.425 
4 *346:14 *346:29 7.91071 
5 *346:29 *346:33 13.6607 
6 *346:33 *346:37 7.66071 
7 *346:37 *346:39 3.82143 
8 *346:39 *2702:CLK 21.9071 
9 *346:39 *2694:CLK 9.3 
10 *346:37 *346:59 4.64286 
11 *346:59 *346:63 9.17857 
12 *346:63 *346:65 4.98214 
13 *346:65 *346:67 4.98214 
14 *346:67 *346:69 2.25 
15 *346:69 *346:71 5.28571 
16 *346:71 *2686:CLK 21.4071 
17 *346:71 *2792:CLK 16.8 
18 *346:69 *2654:CLK 15.9964 
19 *346:67 *346:104 4.5 
20 *346:104 *2718:CLK 22.7286 
21 *346:104 *2670:CLK 9.3 
22 *346:65 *2710:CLK 23.3714 
23 *346:63 *2752:CLK 13.8 
24 *346:59 *2727:CLK 9.3 
25 *346:33 *2794:CLK 18.175 
26 *346:29 *2630:CLK 9.72857 
27 *346:12 *2812:A 13.8 
*END

*D_NET *347 0.0151204
*CONN
*I *2826:A I *D sky130_fd_sc_hd__clkbuf_8
*I *2661:CLK I *D sky130_fd_sc_hd__dfxtp_1
*I *2709:CLK I *D sky130_fd_sc_hd__dfxtp_1
*I *2660:CLK I *D sky130_fd_sc_hd__dfxtp_1
*I *2677:CLK I *D sky130_fd_sc_hd__dfxtp_1
*I *2717:CLK I *D sky130_fd_sc_hd__dfxtp_1
*I *2685:CLK I *D sky130_fd_sc_hd__dfxtp_1
*I *2653:CLK I *D sky130_fd_sc_hd__dfxtp_1
*I *2791:CLK I *D sky130_fd_sc_hd__dfxtp_1
*I *2669:CLK I *D sky130_fd_sc_hd__dfxtp_1
*I *2751:CLK I *D sky130_fd_sc_hd__dfxtp_1
*I *2693:CLK I *D sky130_fd_sc_hd__dfxtp_1
*I *2701:CLK I *D sky130_fd_sc_hd__dfxtp_1
*I *2797:X O *D sky130_fd_sc_hd__clkbuf_8
*CAP
1 *2826:A 0.000314518
2 *2661:CLK 0.000103388
3 *2709:CLK 0
4 *2660:CLK 0.000308997
5 *2677:CLK 0.000233827
6 *2717:CLK 0.000114703
7 *2685:CLK 5.87343e-05
8 *2653:CLK 0
9 *2791:CLK 6.93751e-05
10 *2669:CLK 0.000401414
11 *2751:CLK 0
12 *2693:CLK 0
13 *2701:CLK 0.000364927
14 *2797:X 0
15 *347:129 0.000639824
16 *347:107 0.00034853
17 *347:67 0.000536863
18 *347:65 0.000410562
19 *347:55 0.000866545
20 *347:51 0.000576051
21 *347:49 0.000570409
22 *347:47 0.000666883
23 *347:34 0.00076295
24 *347:12 0.000736651
25 *347:10 0.000791653
26 *347:4 0.000408139
27 *2661:CLK *2532:A1 0.000163455
28 *2661:CLK *2569:A1 0.000184745
29 *2661:CLK *2876:A 1.58163e-05
30 *2677:CLK *443:10 0.000102207
31 *2685:CLK *2447:A3 1.39726e-05
32 *2685:CLK *2896:A 1.58163e-05
33 *2701:CLK *2586:A0 7.83659e-05
34 *2791:CLK *3031:A 0.0001098
35 *2826:A *2444:S1 0
36 *347:10 *2444:A3 0.000105163
37 *347:10 *2902:A 3.99614e-06
38 *347:10 *475:8 0.000155364
39 *347:12 *475:8 9.71197e-05
40 *347:34 *2443:A0 0
41 *347:34 *2907:A 0.000103266
42 *347:34 *459:10 8.68665e-05
43 *347:47 *2444:A0 8.07879e-05
44 *347:47 *2447:S0 0
45 *347:47 *2596:A0 7.83462e-05
46 *347:47 *467:10 0.000614046
47 *347:47 *639:73 0.00024946
48 *347:47 *657:104 0
49 *347:49 *2447:S0 0
50 *347:49 *657:82 0
51 *347:51 *657:71 0
52 *347:55 *2447:A3 0.000175519
53 *347:55 *2447:S0 0
54 *347:55 *491:10 0
55 *347:55 *657:32 0.000437941
56 *347:55 *657:60 0
57 *347:55 *657:71 0
58 *347:65 *2447:A3 1.92905e-05
59 *347:65 *379:10 0.000171299
60 *347:67 *379:10 5.33334e-05
61 *347:129 *435:6 6.05161e-06
62 *2443:A1 *2701:CLK 7.83659e-05
63 *2587:S *347:10 0.000361066
64 *2587:S *347:12 7.02611e-05
65 *2595:S *347:34 9.87983e-06
66 *2596:S *347:34 5.96379e-05
67 *2653:D *347:65 1.64343e-05
68 *2669:D *2669:CLK 1.64343e-05
69 *2693:D *2701:CLK 0
70 *2693:D *347:12 0.000190948
71 *2701:D *2701:CLK 0
72 *2709:D *347:129 0.000147136
73 *2717:D *2717:CLK 1.64343e-05
74 *2717:D *347:51 4.038e-06
75 *2717:D *347:55 9.69119e-06
76 *2717:D *347:129 0.000137983
77 *2726:D *2826:A 0.000313241
78 *2751:D *347:34 1.02504e-05
79 *2751:D *347:47 8.82363e-05
80 *2791:D *2791:CLK 7.58571e-05
81 *2798:A *2826:A 6.05161e-06
82 *329:107 *2701:CLK 0.000136091
83 *333:122 *2677:CLK 0.00021262
84 *333:122 *2717:CLK 6.74765e-05
85 *338:32 *2661:CLK 0.000225609
86 *338:44 *2717:CLK 0.000182694
87 *338:44 *347:49 0.000103041
88 *338:44 *347:51 6.19181e-05
89 *341:105 *2826:A 0
90 *341:105 *347:34 0.000111997
*RES
1 *2797:X *347:4 9.3 
2 *347:4 *347:10 4.375 
3 *347:10 *347:12 7.10714 
4 *347:12 *2701:CLK 25.4071 
5 *347:12 *2693:CLK 9.3 
6 *347:10 *347:34 16.1071 
7 *347:34 *2751:CLK 9.3 
8 *347:34 *347:47 16.0893 
9 *347:47 *347:49 2.85714 
10 *347:49 *347:51 1.94643 
11 *347:51 *347:55 14.6429 
12 *347:55 *347:65 6.98214 
13 *347:65 *347:67 1.35714 
14 *347:67 *2669:CLK 16.2821 
15 *347:67 *2791:CLK 20.8536 
16 *347:65 *2653:CLK 9.3 
17 *347:55 *2685:CLK 10.2464 
18 *347:51 *347:107 4.5 
19 *347:107 *2717:CLK 12.3179 
20 *347:107 *2677:CLK 15.1929 
21 *347:49 *347:129 10.7857 
22 *347:129 *2660:CLK 14.3536 
23 *347:129 *2709:CLK 9.3 
24 *347:47 *2661:CLK 17.2107 
25 *347:4 *2826:A 24.2643 
*END

*D_NET *348 0.0116054
*CONN
*I *2774:CLK I *D sky130_fd_sc_hd__dfrtp_1
*I *2769:CLK I *D sky130_fd_sc_hd__dfrtp_1
*I *2637:CLK I *D sky130_fd_sc_hd__dfxtp_1
*I *2783:CLK I *D sky130_fd_sc_hd__dfxtp_1
*I *2629:CLK I *D sky130_fd_sc_hd__dfxtp_1
*I *2726:CLK I *D sky130_fd_sc_hd__dfxtp_1
*I *2645:CLK I *D sky130_fd_sc_hd__dfxtp_1
*I *2814:A I *D sky130_fd_sc_hd__inv_6
*I *2798:X O *D sky130_fd_sc_hd__clkbuf_8
*CAP
1 *2774:CLK 0.00110028
2 *2769:CLK 0
3 *2637:CLK 0.000674747
4 *2783:CLK 0
5 *2629:CLK 0
6 *2726:CLK 8.88177e-05
7 *2645:CLK 4.05809e-05
8 *2814:A 0.000257528
9 *2798:X 6.82519e-05
10 *348:76 0.0012064
11 *348:63 0.00092082
12 *348:38 0.000731215
13 *348:36 0.000992282
14 *348:32 0.000573523
15 *348:10 0.000401021
16 *348:8 0.000254855
17 *2637:CLK *2474:A1 0.000348213
18 *2637:CLK *2604:A1 0.000178847
19 *2637:CLK *2872:A 5.03772e-05
20 *2637:CLK *633:34 0.000322999
21 *2637:CLK *639:49 3.22663e-05
22 *2645:CLK *2494:A1 9.90367e-05
23 *2726:CLK *2551:A1 0.00015134
24 *2774:CLK *363:8 5.41609e-05
25 *2774:CLK *634:52 0
26 *2814:A *2964:A 0.00022459
27 *2814:A *634:60 0.000171368
28 *2814:A *634:78 0.000522439
29 *2814:A *639:59 0.000181796
30 *2814:A *669:40 1.08359e-05
31 *348:8 *634:60 2.59355e-05
32 *348:10 *634:60 0.000177948
33 *348:10 *669:40 2.58997e-05
34 *348:32 *2872:A 2.61337e-05
35 *348:32 *669:40 7.60306e-05
36 *348:36 *2446:A3 0.000155395
37 *348:36 *411:12 3.67142e-05
38 *348:36 *650:22 0.000351162
39 *348:38 *2551:A1 5.33005e-05
40 *348:38 *411:12 0.000173476
41 *348:38 *657:104 0.000221641
42 *348:63 *2872:A 9.97744e-05
43 *348:63 *634:52 0
44 *348:63 *669:40 3.17163e-05
45 *348:76 *2769:D 3.79467e-05
46 *348:76 *634:52 0
47 *2448:A2 *2814:A 8.43535e-06
48 *2494:S *2774:CLK 0.000119125
49 *2629:D *348:38 0.000100374
50 *2637:D *2637:CLK 1.64343e-05
51 *2726:D *2726:CLK 5.71472e-05
52 *2783:D *348:36 1.64343e-05
53 *333:108 *2774:CLK 4.33352e-05
54 *333:108 *2814:A 0
55 *333:108 *348:10 0
56 *333:108 *348:32 0
57 *333:108 *348:63 0
58 *333:108 *348:76 0
59 *340:24 *2726:CLK 9.24491e-05
*RES
1 *2798:X *348:8 14.7464 
2 *348:8 *348:10 2.85714 
3 *348:10 *2814:A 21.4071 
4 *348:10 *2645:CLK 14.7464 
5 *348:8 *348:32 1.94643 
6 *348:32 *348:36 11.6071 
7 *348:36 *348:38 12.0357 
8 *348:38 *2726:CLK 21.0857 
9 *348:38 *2629:CLK 9.3 
10 *348:36 *2783:CLK 9.3 
11 *348:32 *348:63 3.16071 
12 *348:63 *2637:CLK 26.675 
13 *348:63 *348:76 2.25 
14 *348:76 *2769:CLK 13.8 
15 *348:76 *2774:CLK 30.0857 
*END

*D_NET *349 0.00938387
*CONN
*I *2757:CLK I *D sky130_fd_sc_hd__dfrtp_1
*I *2756:CLK I *D sky130_fd_sc_hd__dfrtp_1
*I *2755:CLK I *D sky130_fd_sc_hd__dfrtp_1
*I *2770:CLK I *D sky130_fd_sc_hd__dfrtp_1
*I *2815:A I *D sky130_fd_sc_hd__inv_6
*I *2673:CLK I *D sky130_fd_sc_hd__dfxtp_1
*I *2780:CLK I *D sky130_fd_sc_hd__dfxtp_1
*I *2626:CLK I *D sky130_fd_sc_hd__dfxtp_1
*I *2799:X O *D sky130_fd_sc_hd__clkbuf_8
*CAP
1 *2757:CLK 9.63609e-05
2 *2756:CLK 8.74327e-05
3 *2755:CLK 0
4 *2770:CLK 0.00037711
5 *2815:A 2.30855e-05
6 *2673:CLK 9.36853e-05
7 *2780:CLK 0
8 *2626:CLK 0.000193757
9 *2799:X 0
10 *349:58 0.000556623
11 *349:56 0.000335752
12 *349:52 0.000252306
13 *349:16 0.000443229
14 *349:14 0.000735984
15 *349:6 0.000652616
16 *349:4 0.000323843
17 *2626:CLK *634:176 0.000103004
18 *2626:CLK *637:28 0
19 *2673:CLK *2528:A0 1.92789e-05
20 *2673:CLK *2940:A 9.02232e-05
21 *2673:CLK *666:106 5.52238e-05
22 *2770:CLK *2430:S 0.000117553
23 *2770:CLK *2601:A0 0.000573188
24 *2770:CLK *2878:A 0.000414748
25 *2770:CLK *400:10 0.000126439
26 *2770:CLK *665:57 0.000382573
27 *349:16 *637:28 0
28 *349:16 *648:117 0
29 *349:56 *2756:D 0.000177941
30 *349:58 *2601:A0 0.000197977
31 *349:58 *2878:A 0.000165262
32 *2430:A0 *2770:CLK 0.000120519
33 *2626:D *2626:CLK 0.000149059
34 *327:99 *349:56 2.59093e-05
35 *327:99 *349:58 0.000177867
36 *331:14 *349:14 0.000358965
37 *331:31 *349:14 0.000114655
38 *331:50 *2756:CLK 1.24368e-05
39 *331:50 *2770:CLK 0.000223508
40 *331:50 *349:58 0.000175552
41 *333:12 *349:14 5.6696e-05
42 *333:12 *349:16 6.04162e-05
43 *338:22 *349:56 8.17615e-05
44 *338:22 *349:58 9.11365e-06
45 *341:103 *2626:CLK 0.000225307
46 *341:103 *349:14 0.000172827
47 *341:103 *349:16 0.000559266
48 *345:161 *349:6 0.000137558
49 *345:161 *349:52 5.30637e-06
50 *345:174 *2757:CLK 6.09773e-05
51 *345:174 *349:52 6.09804e-05
*RES
1 *2799:X *349:4 9.3 
2 *349:4 *349:6 4.23214 
3 *349:6 *349:14 13.0536 
4 *349:14 *349:16 7.10714 
5 *349:16 *2626:CLK 19.2464 
6 *349:16 *2780:CLK 13.8 
7 *349:14 *2673:CLK 15.9786 
8 *349:6 *2815:A 9.72857 
9 *349:4 *349:52 1.76786 
10 *349:52 *349:56 7.35714 
11 *349:56 *349:58 6.80357 
12 *349:58 *2770:CLK 28.2464 
13 *349:58 *2755:CLK 13.8 
14 *349:56 *2756:CLK 15.175 
15 *349:52 *2757:CLK 11.0679 
*END

*D_NET *350 0.015614
*CONN
*I *2740:CLK I *D sky130_fd_sc_hd__dfrtp_1
*I *2742:CLK I *D sky130_fd_sc_hd__dfrtp_1
*I *2743:CLK I *D sky130_fd_sc_hd__dfrtp_1
*I *2681:CLK I *D sky130_fd_sc_hd__dfxtp_1
*I *2816:A I *D sky130_fd_sc_hd__inv_6
*I *2744:CLK I *D sky130_fd_sc_hd__dfrtp_1
*I *2775:CLK I *D sky130_fd_sc_hd__dfrtp_1
*I *2657:CLK I *D sky130_fd_sc_hd__dfxtp_1
*I *2800:X O *D sky130_fd_sc_hd__clkbuf_8
*CAP
1 *2740:CLK 0.00013696
2 *2742:CLK 0
3 *2743:CLK 0.000645503
4 *2681:CLK 0.0012377
5 *2816:A 0
6 *2744:CLK 0
7 *2775:CLK 0.000517836
8 *2657:CLK 0.00043585
9 *2800:X 0
10 *350:77 0.00070623
11 *350:71 0.000787847
12 *350:54 0.00215879
13 *350:43 0.000487712
14 *350:30 0.000208053
15 *350:19 0.00062292
16 *350:4 0.000489664
17 *2657:CLK *2510:A1 0.000307343
18 *2657:CLK *648:117 1.24368e-05
19 *2681:CLK *2384:B 5.42755e-05
20 *2681:CLK *2421:S1 3.02415e-05
21 *2681:CLK *479:10 3.05446e-05
22 *2681:CLK *636:46 0.00022266
23 *2681:CLK *636:82 1.65169e-05
24 *2740:CLK *2366:A 2.39876e-05
25 *2743:CLK *2617:RESET_B 9.67834e-05
26 *2743:CLK *2742:D 0.000198952
27 *2743:CLK *2743:RESET_B 0.00014374
28 *2775:CLK *2744:RESET_B 3.69047e-06
29 *350:54 *2545:B 8.15095e-05
30 *350:54 *2744:D 0.000150625
31 *350:54 *2756:D 0
32 *350:54 *636:8 1.58163e-05
33 *350:54 *636:23 0.000144038
34 *350:54 *636:34 0.00019384
35 *350:54 *636:38 5.51406e-05
36 *350:54 *636:70 1.52978e-05
37 *350:71 *2368:B 3.34783e-05
38 *350:71 *2756:D 0
39 *350:71 *636:70 5.31541e-05
40 *350:71 *636:104 6.42242e-05
41 *350:71 *636:117 0.000117378
42 *350:71 *744:12 0
43 *350:71 *745:10 0
44 *350:77 *2617:RESET_B 0
45 *350:77 *2742:D 6.12335e-05
46 *350:77 *2742:RESET_B 0
47 *350:77 *2743:RESET_B 0.000142717
48 *2366:B *2740:CLK 0.000104054
49 *2367:A *2740:CLK 0.000184947
50 *2367:A *350:71 1.69115e-05
51 *2374:B *350:43 0.00022266
52 *2374:B *350:54 8.36572e-05
53 *2377:B *350:54 2.1527e-05
54 *2379:B *350:71 0.000435497
55 *2382:B *350:71 4.53031e-05
56 *2478:B *350:71 0.000150625
57 *2527:A *350:19 5.83304e-05
58 *2527:A *350:30 0.000102713
59 *2546:B *350:30 1.02504e-05
60 *2546:B *350:43 0.000140368
61 *2564:A *2657:CLK 0.000356035
62 *2564:A *2775:CLK 0.000121499
63 *2564:A *350:19 8.46829e-05
64 *2564:B *2775:CLK 0.000315158
65 *2582:A *2657:CLK 0.000186662
66 *2657:D *2657:CLK 2.99572e-05
67 *2673:D *2657:CLK 5.33005e-05
68 *2681:D *2681:CLK 2.44472e-05
69 *248:19 *2740:CLK 8.98585e-05
70 *248:19 *350:71 0.000266106
71 *250:10 *350:71 0.000188748
72 *251:10 *350:54 4.43698e-05
73 *252:12 *350:43 3.34366e-05
74 *259:8 *2681:CLK 0.000695767
75 *323:10 *350:71 1.78353e-05
76 *326:12 *350:71 0
77 *339:12 *350:19 5.66157e-05
78 *339:12 *350:30 0.000202842
79 *339:12 *350:43 0.000173083
80 *340:10 *2657:CLK 0.000392026
*RES
1 *2800:X *350:4 9.3 
2 *350:4 *2657:CLK 20.1214 
3 *350:4 *350:19 6.17857 
4 *350:19 *2775:CLK 23.3714 
5 *350:19 *350:30 2.55357 
6 *350:30 *2744:CLK 13.8 
7 *350:30 *350:43 8.92857 
8 *350:43 *2816:A 9.3 
9 *350:43 *350:54 12.5536 
10 *350:54 *2681:CLK 34.1036 
11 *350:54 *350:71 15.6071 
12 *350:71 *350:77 6.28571 
13 *350:77 *2743:CLK 28.4786 
14 *350:77 *2742:CLK 9.3 
15 *350:71 *2740:CLK 17.5143 
*END

*D_NET *351 0.00812575
*CONN
*I *2758:CLK I *D sky130_fd_sc_hd__dfrtp_1
*I *2746:CLK I *D sky130_fd_sc_hd__dfrtp_4
*I *2817:A I *D sky130_fd_sc_hd__inv_8
*I *2771:CLK I *D sky130_fd_sc_hd__dfrtp_1
*I *2773:CLK I *D sky130_fd_sc_hd__dfrtp_1
*I *2642:CLK I *D sky130_fd_sc_hd__dfxtp_1
*I *2801:X O *D sky130_fd_sc_hd__clkbuf_8
*CAP
1 *2758:CLK 2.23854e-05
2 *2746:CLK 0.000121438
3 *2817:A 5.75638e-05
4 *2771:CLK 0
5 *2773:CLK 0.000586842
6 *2642:CLK 0.000725871
7 *2801:X 0.000315591
8 *351:26 0.00161008
9 *351:24 0.000417117
10 *351:22 0.000299066
11 *351:20 0.000885861
12 *351:14 0.000980649
13 *2642:CLK *2738:D 0
14 *2642:CLK *2980:A 0.000312215
15 *2642:CLK *674:22 0
16 *2746:CLK *2746:D 8.07873e-05
17 *2758:CLK *2818:A 0
18 *2773:CLK *2738:RESET_B 2.51837e-05
19 *2773:CLK *2771:D 0.000100625
20 *2773:CLK *2773:D 0.000102207
21 *2773:CLK *2773:RESET_B 0.000301383
22 *2773:CLK *670:41 5.33433e-05
23 *2817:A *2761:RESET_B 0.000227539
24 *2817:A *670:35 0.000142856
25 *351:14 *2818:A 0.000100625
26 *351:14 *2925:A 0
27 *351:14 *670:29 5.70551e-05
28 *351:14 *733:25 4.57445e-05
29 *351:20 *2415:A 0
30 *351:20 *2746:RESET_B 0
31 *351:20 *2818:A 0.000149489
32 *351:22 *2746:RESET_B 0
33 *351:22 *670:35 1.76135e-05
34 *351:24 *670:35 0.000106533
35 *351:26 *670:35 0.000198494
36 *351:26 *670:41 8.15939e-05
37 *351:26 *674:22 0
*RES
1 *2801:X *351:14 24.3 
2 *351:14 *351:20 14.875 
3 *351:20 *351:22 1.94643 
4 *351:22 *351:24 2.55357 
5 *351:24 *351:26 7.10714 
6 *351:26 *2642:CLK 26.3357 
7 *351:26 *2773:CLK 27.0679 
8 *351:24 *2771:CLK 13.8 
9 *351:22 *2817:A 15.9786 
10 *351:20 *2746:CLK 16.0143 
11 *351:14 *2758:CLK 9.72857 
*END

*D_NET *352 0.00914922
*CONN
*I *2741:CLK I *D sky130_fd_sc_hd__dfrtp_1
*I *2776:CLK I *D sky130_fd_sc_hd__dfrtp_1
*I *2745:CLK I *D sky130_fd_sc_hd__dfrtp_1
*I *2777:CLK I *D sky130_fd_sc_hd__dfrtp_1
*I *2778:CLK I *D sky130_fd_sc_hd__dfrtp_2
*I *2772:CLK I *D sky130_fd_sc_hd__dfrtp_1
*I *2818:A I *D sky130_fd_sc_hd__inv_6
*I *2802:X O *D sky130_fd_sc_hd__clkbuf_8
*CAP
1 *2741:CLK 0.000894292
2 *2776:CLK 2.23854e-05
3 *2745:CLK 0.000673872
4 *2777:CLK 0.000185757
5 *2778:CLK 0
6 *2772:CLK 0
7 *2818:A 0.000310799
8 *2802:X 0
9 *352:64 0.00088421
10 *352:60 0.00116005
11 *352:40 0.000311394
12 *352:29 0.00076327
13 *352:25 0.00102395
14 *352:4 0.00061931
15 *2741:CLK *2299:A 6.26466e-05
16 *2741:CLK *2758:RESET_B 0.000189448
17 *2741:CLK *2914:A 0
18 *2745:CLK *2776:D 1.40306e-05
19 *2745:CLK *2776:RESET_B 9.69072e-05
20 *2745:CLK *732:25 5.33334e-05
21 *2777:CLK *676:23 0.000145114
22 *2818:A *2758:D 4.92269e-05
23 *2818:A *2758:RESET_B 0
24 *2818:A *2925:A 0
25 *2818:A *733:25 0.000222878
26 *352:25 *2758:RESET_B 0.000177948
27 *352:25 *2776:D 5.71472e-05
28 *352:25 *675:96 4.57538e-05
29 *352:25 *677:25 0.000136622
30 *352:29 *2772:D 6.86693e-05
31 *352:29 *2772:RESET_B 2.51935e-05
32 *352:29 *675:96 0.000196968
33 *352:40 *676:23 9.57064e-05
34 *352:60 *2758:RESET_B 0.000142797
35 *352:60 *2914:A 0
36 *352:64 *2314:A 0.000269422
37 *2758:CLK *2818:A 0
38 *198:8 *2741:CLK 0
39 *198:27 *2741:CLK 0
40 *351:14 *2818:A 0.000100625
41 *351:20 *2818:A 0.000149489
*RES
1 *2802:X *352:4 9.3 
2 *352:4 *2818:A 25.8179 
3 *352:4 *352:25 11.3929 
4 *352:25 *352:29 16.125 
5 *352:29 *2772:CLK 9.3 
6 *352:29 *352:40 7.28571 
7 *352:40 *2778:CLK 13.8 
8 *352:40 *2777:CLK 17.7107 
9 *352:25 *352:60 1.94643 
10 *352:60 *352:64 7.91071 
11 *352:64 *2745:CLK 18.925 
12 *352:64 *2776:CLK 9.72857 
13 *352:60 *2741:CLK 30.1929 
*END

*D_NET *353 0.0142656
*CONN
*I *2813:A I *D sky130_fd_sc_hd__clkbuf_4
*I *2664:CLK I *D sky130_fd_sc_hd__dfxtp_1
*I *2648:CLK I *D sky130_fd_sc_hd__dfxtp_1
*I *2632:CLK I *D sky130_fd_sc_hd__dfxtp_1
*I *2786:CLK I *D sky130_fd_sc_hd__dfxtp_1
*I *2754:CLK I *D sky130_fd_sc_hd__dfxtp_1
*I *2712:CLK I *D sky130_fd_sc_hd__dfxtp_1
*I *2720:CLK I *D sky130_fd_sc_hd__dfxtp_1
*I *2688:CLK I *D sky130_fd_sc_hd__dfxtp_1
*I *2656:CLK I *D sky130_fd_sc_hd__dfxtp_1
*I *2704:CLK I *D sky130_fd_sc_hd__dfxtp_1
*I *2729:CLK I *D sky130_fd_sc_hd__dfxtp_1
*I *2696:CLK I *D sky130_fd_sc_hd__dfxtp_1
*I *2672:CLK I *D sky130_fd_sc_hd__dfxtp_1
*I *2803:X O *D sky130_fd_sc_hd__clkbuf_8
*CAP
1 *2813:A 0.000180733
2 *2664:CLK 0.000126379
3 *2648:CLK 0.000140636
4 *2632:CLK 0.000132073
5 *2786:CLK 0
6 *2754:CLK 0.000322958
7 *2712:CLK 0
8 *2720:CLK 4.11274e-05
9 *2688:CLK 0
10 *2656:CLK 0
11 *2704:CLK 0.000314057
12 *2729:CLK 0.000628569
13 *2696:CLK 0
14 *2672:CLK 0
15 *2803:X 5.28669e-05
16 *353:128 0.00037639
17 *353:108 0.000322958
18 *353:106 0.000548962
19 *353:102 0.000719249
20 *353:95 0.000296801
21 *353:80 0.000256015
22 *353:41 0.000628569
23 *353:39 0.000880957
24 *353:30 0.000695288
25 *353:26 0.000676402
26 *353:22 0.00110684
27 *353:8 0.000624506
28 *353:6 0.0002336
29 *2648:CLK *2464:S0 9.9322e-05
30 *2648:CLK *2607:A0 0.000356035
31 *2664:CLK *632:26 0.000148177
32 *2704:CLK *618:14 0
33 *2720:CLK *645:101 3.69047e-06
34 *2729:CLK *478:8 2.89016e-05
35 *2754:CLK *2844:A 0.000212505
36 *2754:CLK *651:21 0.000269801
37 *2813:A *645:72 0.000428274
38 *353:6 *2465:S0 9.58126e-05
39 *353:6 *645:72 5.33005e-05
40 *353:22 *645:101 3.17148e-05
41 *353:26 *390:10 8.71847e-05
42 *353:39 *2554:A0 0
43 *353:39 *651:71 0
44 *353:80 *645:101 0.000189448
45 *353:95 *632:26 2.59355e-05
46 *353:95 *645:101 7.22594e-05
47 *353:95 *651:29 3.34366e-05
48 *353:102 *632:26 0.000124319
49 *353:128 *2607:A0 1.08359e-05
50 rd_data[7] *353:39 1.77247e-05
51 *2473:S *2664:CLK 0.000208158
52 *2544:S *2813:A 3.32631e-05
53 *2544:S *353:6 4.25569e-05
54 *2588:S *353:22 8.56812e-05
55 *2588:S *353:95 0.000148457
56 *2597:S *353:106 0
57 *2599:S *2754:CLK 0.00018372
58 *2632:D *2632:CLK 0.000147136
59 *2632:D *2648:CLK 4.08637e-05
60 *2632:D *353:106 0.000127446
61 *2632:D *353:128 0.000175512
62 *2656:D *353:26 0.000103323
63 *2656:D *353:30 0
64 *2656:D *353:39 0
65 *2688:D *353:22 9.51716e-06
66 *2696:D *2704:CLK 0
67 *2696:D *2729:CLK 0.000234761
68 *2696:D *353:39 0
69 *2704:D *2704:CLK 0
70 *2712:D *353:102 0.000144193
71 *320:22 *353:22 0.000324743
72 *320:22 *353:26 9.24825e-05
73 *323:120 *353:106 0
74 *323:126 *353:106 0
75 *334:74 *353:80 6.07232e-05
76 *334:74 *353:95 0.000104002
77 *334:80 *353:22 0.000100979
78 *334:80 *353:80 4.35131e-05
79 *336:81 *2704:CLK 0
80 *336:81 *353:39 0
81 *338:123 *353:95 0.000202835
82 *341:59 *353:128 0
83 *346:12 *353:22 5.71472e-05
*RES
1 *2803:X *353:6 10.6571 
2 *353:6 *353:8 4.5 
3 *353:8 *353:22 16.6964 
4 *353:22 *353:26 10.4107 
5 *353:26 *353:30 6.75 
6 *353:30 *2672:CLK 13.8 
7 *353:30 *353:39 9.83929 
8 *353:39 *353:41 4.5 
9 *353:41 *2696:CLK 9.3 
10 *353:41 *2729:CLK 19.7464 
11 *353:39 *2704:CLK 18.7821 
12 *353:26 *2656:CLK 9.3 
13 *353:22 *2688:CLK 9.3 
14 *353:8 *353:80 2.55357 
15 *353:80 *2720:CLK 14.3357 
16 *353:80 *353:95 10.0179 
17 *353:95 *2712:CLK 9.3 
18 *353:95 *353:102 3.41071 
19 *353:102 *353:106 11.9107 
20 *353:106 *353:108 4.5 
21 *353:108 *2754:CLK 16.8536 
22 *353:108 *2786:CLK 9.3 
23 *353:106 *353:128 7.05357 
24 *353:128 *2632:CLK 11.8893 
25 *353:128 *2648:CLK 13.5321 
26 *353:102 *2664:CLK 13.1214 
27 *353:6 *2813:A 13.9607 
*END

*D_NET *354 0.0137505
*CONN
*I *2700:CLK I *D sky130_fd_sc_hd__dfxtp_1
*I *2819:A I *D sky130_fd_sc_hd__clkbuf_8
*I *2708:CLK I *D sky130_fd_sc_hd__dfxtp_1
*I *2716:CLK I *D sky130_fd_sc_hd__dfxtp_1
*I *2676:CLK I *D sky130_fd_sc_hd__dfxtp_1
*I *2678:CLK I *D sky130_fd_sc_hd__dfxtp_1
*I *2662:CLK I *D sky130_fd_sc_hd__dfxtp_1
*I *2668:CLK I *D sky130_fd_sc_hd__dfxtp_1
*I *2652:CLK I *D sky130_fd_sc_hd__dfxtp_1
*I *2684:CLK I *D sky130_fd_sc_hd__dfxtp_1
*I *2790:CLK I *D sky130_fd_sc_hd__dfxtp_1
*I *2646:CLK I *D sky130_fd_sc_hd__dfxtp_1
*I *2638:CLK I *D sky130_fd_sc_hd__dfxtp_1
*I *2804:X O *D sky130_fd_sc_hd__clkbuf_8
*CAP
1 *2700:CLK 4.30587e-05
2 *2819:A 0
3 *2708:CLK 0.000190489
4 *2716:CLK 0
5 *2676:CLK 0.000559639
6 *2678:CLK 0.000222281
7 *2662:CLK 6.30707e-05
8 *2668:CLK 4.05636e-05
9 *2652:CLK 0
10 *2684:CLK 0.000453741
11 *2790:CLK 0.000353826
12 *2646:CLK 0
13 *2638:CLK 0.000148718
14 *2804:X 0.000350265
15 *354:108 0.000782527
16 *354:95 0.000445169
17 *354:48 0.00122252
18 *354:42 0.000746963
19 *354:40 0.000461989
20 *354:38 0.000457517
21 *354:32 0.000929314
22 *354:30 0.000486138
23 *354:26 0.0003175
24 *354:19 0.000386702
25 *354:6 0.000708603
26 *2676:CLK *2974:A 5.7661e-06
27 *2678:CLK *2974:A 0.000137983
28 *2684:CLK *386:14 5.23142e-05
29 *2700:CLK *633:50 3.30352e-05
30 *2708:CLK *2943:A 5.52302e-05
31 *2790:CLK *573:12 0
32 *354:19 *637:104 0.000133437
33 *354:19 *639:111 0
34 *354:26 *2495:A0 5.62995e-05
35 *354:26 *3001:A 9.80173e-05
36 *354:26 *633:50 0.000142847
37 *354:26 *641:40 0.000137437
38 *354:30 *2455:S 0
39 *354:30 *2467:S 0
40 *354:30 *2624:CLK 0.000162832
41 *354:32 *2455:S 0
42 *354:32 *2624:CLK 0.000219592
43 *354:32 *645:121 0
44 *354:38 *2451:A1 0
45 *354:38 *2515:A1 0
46 *354:38 *2943:A 0
47 *354:38 *372:8 0
48 *354:40 *2453:S0 0
49 *354:42 *2453:S0 0
50 *354:108 *2974:A 0.000457312
51 *2454:A3 *354:19 0.000125731
52 *2455:A1 *354:32 0
53 *2505:S *2662:CLK 8.90199e-05
54 *2515:S *2676:CLK 0.000566278
55 *2515:S *354:108 0.000198352
56 *2533:S *2708:CLK 0.000323203
57 *2570:S *354:38 0
58 *2614:S *2668:CLK 9.90431e-05
59 *2622:D *354:32 0
60 *2646:D *354:26 2.14658e-05
61 *2652:D *2684:CLK 0.000147136
62 *2652:D *2790:CLK 0
63 *2662:D *2662:CLK 0.000144773
64 *2662:D *354:38 5.90354e-05
65 *2662:D *354:40 7.60306e-05
66 *2668:D *354:42 0
67 *2678:D *2678:CLK 1.64343e-05
68 *2678:D *354:38 0
69 *2716:D *2676:CLK 0.000188006
70 *331:110 *2676:CLK 0.000140933
71 *334:93 *2790:CLK 0.000492333
*RES
1 *2804:X *354:6 14.7643 
2 *354:6 *2638:CLK 11.4786 
3 *354:6 *354:19 13.6786 
4 *354:19 *2646:CLK 9.3 
5 *354:19 *354:26 5.05357 
6 *354:26 *354:30 6.75 
7 *354:30 *354:32 7.71429 
8 *354:32 *354:38 5.94643 
9 *354:38 *354:40 2.25 
10 *354:40 *354:42 4.98214 
11 *354:42 *354:48 11.2857 
12 *354:48 *2790:CLK 25.4964 
13 *354:48 *2684:CLK 17.2464 
14 *354:48 *2652:CLK 9.3 
15 *354:42 *2668:CLK 14.7464 
16 *354:40 *2662:CLK 15.9786 
17 *354:38 *354:95 4.5 
18 *354:95 *2678:CLK 13.1214 
19 *354:95 *354:108 7.25 
20 *354:108 *2676:CLK 22.5857 
21 *354:108 *2716:CLK 9.3 
22 *354:32 *2708:CLK 18.4429 
23 *354:30 *2819:A 13.8 
24 *354:26 *2700:CLK 10.2464 
*END

*D_NET *355 0.00940678
*CONN
*I *2636:CLK I *D sky130_fd_sc_hd__dfxtp_1
*I *2628:CLK I *D sky130_fd_sc_hd__dfxtp_1
*I *2680:CLK I *D sky130_fd_sc_hd__dfxtp_1
*I *2782:CLK I *D sky130_fd_sc_hd__dfxtp_1
*I *2644:CLK I *D sky130_fd_sc_hd__dfxtp_1
*I *2820:A I *D sky130_fd_sc_hd__clkinv_4
*I *2725:CLK I *D sky130_fd_sc_hd__dfxtp_1
*I *2692:CLK I *D sky130_fd_sc_hd__dfxtp_1
*I *2750:CLK I *D sky130_fd_sc_hd__dfxtp_1
*I *2805:X O *D sky130_fd_sc_hd__clkbuf_8
*CAP
1 *2636:CLK 0.000263436
2 *2628:CLK 0
3 *2680:CLK 0.000127254
4 *2782:CLK 0.00014151
5 *2644:CLK 2.52056e-05
6 *2820:A 0.000282719
7 *2725:CLK 2.91597e-05
8 *2692:CLK 0.000750794
9 *2750:CLK 9.28579e-05
10 *2805:X 0
11 *355:90 0.000509484
12 *355:75 0.000792797
13 *355:67 0.000618853
14 *355:56 0.000167974
15 *355:45 0.00039396
16 *355:10 0.000894472
17 *355:8 0.000139747
18 *355:6 0.0001146
19 *2636:CLK *2440:A2 0.000213363
20 *2636:CLK *2493:A1 4.02207e-05
21 *2636:CLK *659:116 0.000211913
22 *2644:CLK *633:34 5.52302e-05
23 *2680:CLK *2535:A0 0.000144951
24 *2680:CLK *2908:A 5.52302e-05
25 *2692:CLK *2438:A3 7.84126e-05
26 *2692:CLK *2983:A 1.00073e-05
27 *2692:CLK *641:40 0.000230066
28 *2750:CLK *2438:A2 4.5785e-05
29 *2750:CLK *2438:A3 2.06178e-05
30 *2750:CLK *633:50 6.33028e-05
31 *2750:CLK *641:12 4.78056e-06
32 *2750:CLK *641:18 7.15987e-05
33 *2750:CLK *641:143 1.91418e-05
34 *2820:A *2603:A1 1.92905e-05
35 *355:8 *641:12 0.000106542
36 *355:8 *659:116 0.00019187
37 *355:10 *633:50 2.8046e-05
38 *355:10 *641:12 6.5185e-05
39 *355:10 *659:116 5.83304e-05
40 *355:45 *641:12 0.0001098
41 *355:45 *659:116 0.000192585
42 *355:56 *641:12 0.000107503
43 *355:56 *659:116 0.000193592
44 *355:67 *2440:A2 2.8266e-06
45 *355:67 *2440:S1 7.05143e-06
46 *355:67 *641:10 0
47 *355:67 *641:12 9.29571e-05
48 *355:67 *659:116 0.000210198
49 *355:75 *418:10 0.000139019
50 *355:90 *2467:S 0
51 *355:90 *2624:RESET_B 0
52 *355:90 *410:12 3.93893e-05
53 *2535:S *2782:CLK 6.97685e-05
54 *2535:S *355:75 1.21258e-05
55 *2550:S *2725:CLK 1.92905e-05
56 *2628:D *355:90 0.000192872
57 *2636:D *2636:CLK 1.64343e-05
58 *2692:D *2692:CLK 1.64343e-05
59 *2782:D *2782:CLK 0.000229607
60 *2782:D *355:75 0.000168264
61 *297:24 *2750:CLK 0.000123126
62 *299:16 *355:75 7.84126e-05
63 *339:40 *2680:CLK 0.000128886
64 *339:40 *355:90 3.14078e-05
65 *345:52 *2820:A 0.000146523
*RES
1 *2805:X *355:6 13.8 
2 *355:6 *355:8 2.55357 
3 *355:8 *355:10 1.64286 
4 *355:10 *2750:CLK 16.9607 
5 *355:10 *2692:CLK 25.175 
6 *355:8 *2725:CLK 14.3357 
7 *355:6 *355:45 2.55357 
8 *355:45 *2820:A 18.8536 
9 *355:45 *355:56 2.55357 
10 *355:56 *2644:CLK 14.3357 
11 *355:56 *355:67 2.85714 
12 *355:67 *355:75 10.5179 
13 *355:75 *2782:CLK 12.7107 
14 *355:75 *355:90 16.3036 
15 *355:90 *2680:CLK 13.1214 
16 *355:90 *2628:CLK 9.3 
17 *355:67 *2636:CLK 19.675 
*END

*D_NET *356 0.016186
*CONN
*I *2724:CLK I *D sky130_fd_sc_hd__dfxtp_1
*I *2821:A I *D sky130_fd_sc_hd__clkbuf_8
*I *2627:CLK I *D sky130_fd_sc_hd__dfxtp_1
*I *2749:CLK I *D sky130_fd_sc_hd__dfxtp_1
*I *2691:CLK I *D sky130_fd_sc_hd__dfxtp_1
*I *2699:CLK I *D sky130_fd_sc_hd__dfxtp_1
*I *2781:CLK I *D sky130_fd_sc_hd__dfxtp_1
*I *2635:CLK I *D sky130_fd_sc_hd__dfxtp_1
*I *2683:CLK I *D sky130_fd_sc_hd__dfxtp_1
*I *2789:CLK I *D sky130_fd_sc_hd__dfxtp_1
*I *2667:CLK I *D sky130_fd_sc_hd__dfxtp_1
*I *2651:CLK I *D sky130_fd_sc_hd__dfxtp_1
*I *2640:CLK I *D sky130_fd_sc_hd__dfxtp_1
*I *2806:X O *D sky130_fd_sc_hd__clkbuf_8
*CAP
1 *2724:CLK 0.000726724
2 *2821:A 0
3 *2627:CLK 2.89512e-05
4 *2749:CLK 2.22847e-05
5 *2691:CLK 0.000112636
6 *2699:CLK 0.00012723
7 *2781:CLK 0
8 *2635:CLK 5.62431e-05
9 *2683:CLK 0
10 *2789:CLK 9.71265e-05
11 *2667:CLK 8.28635e-05
12 *2651:CLK 0.000181575
13 *2640:CLK 0.000113516
14 *2806:X 0.000346558
15 *356:157 0.000767587
16 *356:117 0.000807282
17 *356:107 0.0012066
18 *356:98 0.000616898
19 *356:71 0.000119512
20 *356:41 0.000761116
21 *356:39 0.00114514
22 *356:24 0.000991348
23 *356:20 0.00047815
24 *356:14 0.000282512
25 *356:12 0.000297201
26 *356:10 0.000543311
27 *2635:CLK *2472:A1 5.71472e-05
28 *2635:CLK *3030:A 0.000111699
29 *2635:CLK *562:29 0.000256992
30 *2640:CLK *2607:S 2.89114e-05
31 *2640:CLK *646:16 0.000120636
32 *2640:CLK *650:84 6.05161e-06
33 *2724:CLK *2432:A3 9.75314e-05
34 *2724:CLK *2594:A1 9.05414e-05
35 *2724:CLK *457:10 6.28356e-05
36 *2789:CLK *2904:A 1.02504e-05
37 *356:12 *2594:A1 6.04162e-05
38 *356:14 *2594:A1 7.79781e-06
39 *356:20 *3030:A 7.02611e-05
40 *356:20 *562:29 0.0001399
41 *356:20 *662:74 2.39923e-05
42 *356:20 *662:76 7.47029e-06
43 *356:24 *2472:A0 0.00027438
44 *356:24 *646:16 8.56716e-05
45 *356:24 *662:74 5.41794e-05
46 *356:39 *2435:A2 0.00035878
47 *356:39 *2539:A0 9.80173e-05
48 *356:39 *481:10 9.77423e-05
49 *356:41 *2435:A2 0.000128496
50 *356:41 *377:6 0.000314139
51 *356:107 *2432:S1 0.000266846
52 *356:107 *2994:A 0.00022459
53 *356:117 *2558:A0 0.000185643
54 *356:117 *2558:A1 5.56855e-05
55 *356:157 *2594:A1 5.33334e-05
56 *2589:S *356:10 2.59355e-05
57 *2627:D *356:14 8.06427e-05
58 *2627:D *356:20 8.15939e-05
59 *2651:D *2651:CLK 0
60 *2667:D *2651:CLK 0
61 *2667:D *356:41 0.000187999
62 *2683:D *356:39 0.000577776
63 *2699:D *2699:CLK 6.14332e-05
64 *2699:D *356:117 0.000440253
65 *2724:D *2724:CLK 8.89117e-05
66 *2749:D *356:107 0.000482995
67 *2789:D *2789:CLK 7.58571e-05
68 *2806:A *356:10 0.000230475
69 *292:16 *2627:CLK 2.14083e-05
70 *323:114 *356:10 0
71 *323:114 *356:12 0
72 *323:120 *2640:CLK 8.04913e-05
73 *323:120 *356:24 9.00967e-05
74 *334:66 *356:10 0
75 *334:66 *356:12 0
76 *334:66 *356:14 0
77 *334:66 *356:20 0
78 *334:66 *356:24 0
79 *334:74 *356:39 4.88631e-05
80 *336:81 *2691:CLK 0
81 *337:107 *2789:CLK 7.39637e-05
82 *340:73 *356:10 0.00027501
*RES
1 *2806:X *356:10 21.5143 
2 *356:10 *356:12 2.85714 
3 *356:12 *356:14 2.25 
4 *356:14 *356:20 8.71429 
5 *356:20 *356:24 11.3036 
6 *356:24 *2640:CLK 17.1929 
7 *356:24 *356:39 17.7679 
8 *356:39 *356:41 9.57143 
9 *356:41 *2651:CLK 21.3179 
10 *356:41 *2667:CLK 11.2286 
11 *356:39 *356:71 0.428571 
12 *356:71 *2789:CLK 21.3893 
13 *356:71 *2683:CLK 9.3 
14 *356:20 *2635:CLK 11.8893 
15 *356:14 *356:98 4.5 
16 *356:98 *2781:CLK 9.3 
17 *356:98 *356:107 11.6429 
18 *356:107 *356:117 10.6786 
19 *356:117 *2699:CLK 11.4964 
20 *356:117 *2691:CLK 20.2464 
21 *356:107 *2749:CLK 9.72857 
22 *356:12 *2627:CLK 14.3357 
23 *356:10 *356:157 5.44643 
24 *356:157 *2821:A 9.3 
25 *356:157 *2724:CLK 21.3714 
*END

*D_NET *357 0.0144691
*CONN
*I *2711:CLK I *D sky130_fd_sc_hd__dfxtp_1
*I *2647:CLK I *D sky130_fd_sc_hd__dfxtp_1
*I *2639:CLK I *D sky130_fd_sc_hd__dfxtp_1
*I *2793:CLK I *D sky130_fd_sc_hd__dfxtp_1
*I *2687:CLK I *D sky130_fd_sc_hd__dfxtp_1
*I *2785:CLK I *D sky130_fd_sc_hd__dfxtp_1
*I *2631:CLK I *D sky130_fd_sc_hd__dfxtp_1
*I *2719:CLK I *D sky130_fd_sc_hd__dfxtp_1
*I *2753:CLK I *D sky130_fd_sc_hd__dfxtp_1
*I *2728:CLK I *D sky130_fd_sc_hd__dfxtp_1
*I *2695:CLK I *D sky130_fd_sc_hd__dfxtp_1
*I *2671:CLK I *D sky130_fd_sc_hd__dfxtp_1
*I *2655:CLK I *D sky130_fd_sc_hd__dfxtp_1
*I *2703:CLK I *D sky130_fd_sc_hd__dfxtp_1
*I *2807:X O *D sky130_fd_sc_hd__clkbuf_8
*CAP
1 *2711:CLK 0
2 *2647:CLK 0.000214502
3 *2639:CLK 0.000155004
4 *2793:CLK 0
5 *2687:CLK 0.000472693
6 *2785:CLK 0.000200484
7 *2631:CLK 3.28144e-05
8 *2719:CLK 0.000135802
9 *2753:CLK 0.000274692
10 *2728:CLK 0
11 *2695:CLK 0
12 *2671:CLK 0.000122959
13 *2655:CLK 0
14 *2703:CLK 0
15 *2807:X 0.000345019
16 *357:147 0.000770053
17 *357:121 0.000614181
18 *357:119 0.000843256
19 *357:106 0.00056563
20 *357:95 0.000216147
21 *357:84 0.000324447
22 *357:71 0.000387886
23 *357:43 0.000655862
24 *357:34 0.000676144
25 *357:30 0.000655011
26 *357:26 0.00131351
27 *357:16 0.000869652
28 *357:12 0.00036897
29 *2647:CLK *2486:A1 0.000174239
30 *2687:CLK *2459:A1 5.26091e-05
31 *2753:CLK *2598:A1 1.40415e-05
32 *357:12 *2571:A1 0
33 *357:12 *646:48 6.06725e-05
34 *357:16 *2589:A1 3.2006e-05
35 *357:26 *2456:A3 0
36 *357:26 *461:8 5.49489e-05
37 *357:26 *477:8 3.41607e-05
38 *357:26 *646:48 1.72798e-05
39 *357:30 *477:8 0.000218246
40 *357:71 *2589:A1 3.06406e-05
41 *357:84 *2589:A1 5.28037e-05
42 *357:84 *653:71 6.74911e-05
43 *357:95 *653:71 0.000166935
44 *357:106 *653:71 2.59795e-05
45 *357:119 *2960:A 7.41454e-05
46 *357:119 *653:71 6.8646e-06
47 *357:119 *653:105 9.05381e-05
48 *357:121 *2960:A 0.000140933
49 *357:147 *2960:A 2.28598e-05
50 *2460:A2 *2719:CLK 9.58593e-05
51 *2543:S *2631:CLK 3.14163e-05
52 *2543:S *357:106 6.5185e-05
53 *2562:S *357:26 8.32242e-05
54 *2571:S *357:12 0
55 *2598:S *2753:CLK 5.52238e-05
56 *2639:D *2639:CLK 0
57 *2671:D *2671:CLK 0
58 *2687:D *2687:CLK 0.00010497
59 *2695:D *357:30 0.000234761
60 *2703:D *357:43 0
61 *2711:D *357:12 0.000195042
62 *2728:D *357:26 2.22418e-05
63 *2753:D *2753:CLK 2.07878e-05
64 *2793:D *2687:CLK 5.9199e-05
65 *323:102 *2647:CLK 5.31101e-05
66 *323:114 *357:12 0
67 *329:38 *2631:CLK 9.60939e-05
68 *332:38 *2687:CLK 0.000227532
69 *332:42 *2687:CLK 3.57366e-05
70 *332:52 *2671:CLK 0
71 *332:52 *357:34 0
72 *332:52 *357:43 0
73 *334:66 *357:12 0.000120785
74 *342:26 *357:119 3.42042e-05
75 *342:36 *357:16 8.15095e-05
76 *342:36 *357:71 0.000101545
77 *342:36 *357:84 0.000223592
78 *342:36 *357:95 0.000390568
79 *342:36 *357:106 0.000198698
80 *342:36 *357:119 0.000385717
*RES
1 *2807:X *357:12 25.5679 
2 *357:12 *357:16 5.53571 
3 *357:16 *357:26 23.2857 
4 *357:26 *357:30 10.4107 
5 *357:30 *357:34 7.05357 
6 *357:34 *2703:CLK 13.8 
7 *357:34 *357:43 9.83929 
8 *357:43 *2655:CLK 13.8 
9 *357:43 *2671:CLK 16.05 
10 *357:30 *2695:CLK 9.3 
11 *357:26 *2728:CLK 9.3 
12 *357:16 *357:71 1.33929 
13 *357:71 *2753:CLK 18.05 
14 *357:71 *357:84 2.85714 
15 *357:84 *2719:CLK 16.3893 
16 *357:84 *357:95 4.98214 
17 *357:95 *2631:CLK 14.7464 
18 *357:95 *357:106 2.55357 
19 *357:106 *2785:CLK 16.8 
20 *357:106 *357:119 11.9107 
21 *357:119 *357:121 2.58929 
22 *357:121 *2687:CLK 27.9071 
23 *357:121 *2793:CLK 9.3 
24 *357:119 *357:147 6.30357 
25 *357:147 *2639:CLK 21.1571 
26 *357:147 *2647:CLK 22.425 
27 *357:12 *2711:CLK 9.3 
*END

*D_NET *358 0.00924939
*CONN
*I *2713:CLK I *D sky130_fd_sc_hd__dfxtp_1
*I *2705:CLK I *D sky130_fd_sc_hd__dfxtp_1
*I *2747:CLK I *D sky130_fd_sc_hd__dfxtp_1
*I *2822:A I *D sky130_fd_sc_hd__clkinv_4
*I *2689:CLK I *D sky130_fd_sc_hd__dfxtp_1
*I *2697:CLK I *D sky130_fd_sc_hd__dfxtp_1
*I *2643:CLK I *D sky130_fd_sc_hd__dfxtp_1
*I *2715:CLK I *D sky130_fd_sc_hd__dfxtp_1
*I *2707:CLK I *D sky130_fd_sc_hd__dfxtp_1
*I *2808:X O *D sky130_fd_sc_hd__clkbuf_8
*CAP
1 *2713:CLK 9.59827e-05
2 *2705:CLK 0.000286688
3 *2747:CLK 0
4 *2822:A 0
5 *2689:CLK 5.6392e-05
6 *2697:CLK 3.34312e-05
7 *2643:CLK 0.000132658
8 *2715:CLK 0
9 *2707:CLK 0.000202969
10 *2808:X 0
11 *358:61 0.000605713
12 *358:26 0.000733718
13 *358:22 0.000794229
14 *358:20 0.00079002
15 *358:16 0.000279024
16 *358:14 0.000375833
17 *358:10 0.000656817
18 *358:4 0.000225994
19 *2643:CLK *2437:A0 0.000199009
20 *2643:CLK *643:31 3.8469e-05
21 *2689:CLK *2556:A0 0.000200413
22 *2689:CLK *2556:A1 0.000197984
23 *2707:CLK *2497:A0 9.25014e-06
24 *2707:CLK *441:12 2.61337e-05
25 *2707:CLK *637:125 3.97356e-05
26 *2707:CLK *650:84 0.000309542
27 *2713:CLK *359:38 0.000142506
28 *358:10 *643:116 0.000334532
29 *358:22 *2930:A 0.000202128
30 *358:22 *393:10 0.000125731
31 *358:26 *663:37 0.000263663
32 *2436:A0 *2707:CLK 0.000134095
33 *2436:A2 *358:22 7.33494e-06
34 *2436:A2 *358:26 0.000114121
35 *2534:S *2697:CLK 1.58163e-05
36 *2534:S *358:61 0.000109832
37 *2643:D *2643:CLK 0.000231825
38 *2697:D *358:61 0.000136081
39 *2715:D *2707:CLK 1.64343e-05
40 *2715:D *358:26 5.03694e-05
41 *2747:D *358:10 0.000170546
42 *2747:D *358:14 0.00014493
43 *327:53 *358:22 0
44 *327:53 *358:61 0
45 *327:65 *2707:CLK 8.55697e-05
46 *331:31 *2713:CLK 0.00016344
47 *336:61 *358:61 0
48 *338:109 *358:22 0.000134389
49 *338:109 *358:26 0.000263635
50 *338:109 *358:61 0.000112404
51 *339:32 *358:26 0
52 *339:40 *358:26 0
*RES
1 *2808:X *358:4 9.3 
2 *358:4 *358:10 13.375 
3 *358:10 *358:14 3.83929 
4 *358:14 *358:16 2.17857 
5 *358:16 *358:20 6.67857 
6 *358:20 *358:22 4.67857 
7 *358:22 *358:26 17.375 
8 *358:26 *2707:CLK 24.3714 
9 *358:26 *2715:CLK 9.3 
10 *358:22 *2643:CLK 17.6393 
11 *358:20 *358:61 14.6071 
12 *358:61 *2697:CLK 9.83571 
13 *358:61 *2689:CLK 20.8536 
14 *358:16 *2822:A 9.3 
15 *358:14 *2747:CLK 9.3 
16 *358:10 *2705:CLK 14.0857 
17 *358:4 *2713:CLK 12.3 
*END

*D_NET *359 0.0141589
*CONN
*I *2787:CLK I *D sky130_fd_sc_hd__dfxtp_1
*I *2649:CLK I *D sky130_fd_sc_hd__dfxtp_1
*I *2633:CLK I *D sky130_fd_sc_hd__dfxtp_1
*I *2625:CLK I *D sky130_fd_sc_hd__dfxtp_1
*I *2779:CLK I *D sky130_fd_sc_hd__dfxtp_1
*I *2665:CLK I *D sky130_fd_sc_hd__dfxtp_1
*I *2641:CLK I *D sky130_fd_sc_hd__dfxtp_1
*I *2722:CLK I *D sky130_fd_sc_hd__dfxtp_1
*I *2823:A I *D sky130_fd_sc_hd__bufinv_16
*I *2679:CLK I *D sky130_fd_sc_hd__dfxtp_1
*I *2663:CLK I *D sky130_fd_sc_hd__dfxtp_1
*I *2809:X O *D sky130_fd_sc_hd__clkbuf_8
*CAP
1 *2787:CLK 0.00040188
2 *2649:CLK 0
3 *2633:CLK 0.000480461
4 *2625:CLK 2.23854e-05
5 *2779:CLK 0.000188587
6 *2665:CLK 0
7 *2641:CLK 0
8 *2722:CLK 0
9 *2823:A 0.000181436
10 *2679:CLK 0.000100314
11 *2663:CLK 4.68836e-05
12 *2809:X 0
13 *359:123 0.00076783
14 *359:84 0.000270291
15 *359:82 0.00111511
16 *359:80 0.000963662
17 *359:73 4.39444e-05
18 *359:66 0.000571831
19 *359:55 0.000779733
20 *359:38 0.000810835
21 *359:14 0.000979284
22 *359:4 0.00123202
23 *2633:CLK *2420:A1 0
24 *2633:CLK *2619:RESET_B 0
25 *2633:CLK *666:20 0.0001339
26 *2633:CLK *666:28 8.30773e-05
27 *2679:CLK *644:55 0
28 *2779:CLK *643:157 0.000142856
29 *2787:CLK *2519:A0 2.56694e-05
30 *2787:CLK *2873:A 0
31 *2823:A *447:10 0.000239808
32 *2823:A *643:116 0
33 *359:14 *2556:A0 5.71472e-05
34 *359:14 *2946:A 9.90431e-05
35 *359:14 *429:8 0.000227526
36 *359:55 *447:10 0.000171877
37 *359:55 *643:116 0
38 *359:55 *643:126 0
39 *359:55 *666:86 0.00012271
40 *359:66 *2592:A0 0
41 *359:66 *643:126 0
42 *359:66 *666:86 0.000170654
43 *359:82 *391:10 0.000139907
44 *359:82 *643:157 0.000180777
45 *359:84 *643:157 0.000358965
46 *359:123 *2873:A 0
47 *2496:S *2779:CLK 4.37999e-05
48 *2496:S *359:84 3.31856e-05
49 *2500:S *359:66 0
50 *2500:S *359:123 8.91726e-05
51 *2625:D *2633:CLK 0.000292708
52 *2625:D *2779:CLK 0
53 *2625:D *359:84 0.000190948
54 *2641:D *359:66 2.8266e-06
55 *2641:D *359:82 1.64343e-05
56 *2649:D *2787:CLK 9.71259e-06
57 *2649:D *359:123 4.62739e-05
58 *2663:D *359:14 0.000144186
59 *2665:D *359:123 2.82701e-05
60 *2713:CLK *359:38 0.000142506
61 *2779:D *2633:CLK 0.00012401
62 *2809:A *359:14 0.000398822
63 *2809:A *359:38 0.000126566
64 *323:64 *359:123 4.78056e-05
65 *323:114 *2679:CLK 5.26291e-05
66 *325:83 *2779:CLK 0
67 *327:34 *359:82 0.000168894
68 *327:34 *359:84 1.32552e-05
69 *329:24 *359:123 2.72967e-05
70 *329:36 *359:66 0
71 *331:31 *359:38 4.05356e-05
72 *332:18 *359:123 0
73 *332:38 *359:123 0
74 *332:155 *359:66 0
75 *332:155 *359:123 9.77024e-05
76 *336:61 *359:14 2.44318e-05
77 *336:65 *2663:CLK 1.72894e-05
78 *336:65 *359:14 8.09791e-05
79 *337:83 *2823:A 0.00010096
80 *337:83 *359:14 0.000163529
81 *337:83 *359:38 3.97677e-05
82 *337:95 *359:14 0.000363661
83 *341:40 *359:66 2.31704e-05
84 *345:94 *359:38 9.71197e-05
*RES
1 *2809:X *359:4 9.3 
2 *359:4 *359:14 18.4821 
3 *359:14 *2663:CLK 10.2643 
4 *359:14 *2679:CLK 20.2464 
5 *359:4 *359:38 11.6071 
6 *359:38 *2823:A 17.9071 
7 *359:38 *359:55 5.33929 
8 *359:55 *2722:CLK 13.8 
9 *359:55 *359:66 14.3393 
10 *359:66 *2641:CLK 9.3 
11 *359:66 *359:73 0.535714 
12 *359:73 *2665:CLK 9.3 
13 *359:73 *359:80 0.428571 
14 *359:80 *359:82 10.3929 
15 *359:82 *359:84 3.41071 
16 *359:84 *2779:CLK 22.1393 
17 *359:84 *2625:CLK 9.72857 
18 *359:82 *2633:CLK 29.9607 
19 *359:80 *359:123 11.7679 
20 *359:123 *2649:CLK 13.8 
21 *359:123 *2787:CLK 20.1214 
*END

*D_NET *360 0.00920693
*CONN
*I *2824:A I *D sky130_fd_sc_hd__inv_6
*I *2690:CLK I *D sky130_fd_sc_hd__dfxtp_1
*I *2723:CLK I *D sky130_fd_sc_hd__dfxtp_1
*I *2698:CLK I *D sky130_fd_sc_hd__dfxtp_1
*I *2674:CLK I *D sky130_fd_sc_hd__dfxtp_1
*I *2706:CLK I *D sky130_fd_sc_hd__dfxtp_1
*I *2748:CLK I *D sky130_fd_sc_hd__dfxtp_1
*I *2810:X O *D sky130_fd_sc_hd__clkbuf_8
*CAP
1 *2824:A 6.81238e-05
2 *2690:CLK 0.000292711
3 *2723:CLK 0
4 *2698:CLK 0.000553553
5 *2674:CLK 0.000521428
6 *2706:CLK 0.000114526
7 *2748:CLK 0
8 *2810:X 0.000119231
9 *360:33 0.000969003
10 *360:22 0.000524444
11 *360:14 0.000757678
12 *360:12 0.00015811
13 *360:10 0.000505238
14 *360:8 0.000254501
15 *2674:CLK *2593:A0 0.000105163
16 *2698:CLK *642:64 0.000169163
17 *2706:CLK *2424:A0 4.19577e-05
18 *2706:CLK *456:10 0.000125243
19 *360:33 *2931:A 9.60939e-05
20 *360:33 *448:8 5.33334e-05
21 *2483:S *2674:CLK 0.000348325
22 *2483:S *360:22 7.65804e-05
23 *2483:S *360:33 8.83407e-05
24 *2690:D *2690:CLK 1.64343e-05
25 *2698:D *2698:CLK 3.40781e-05
26 *2748:D *2706:CLK 6.75007e-05
27 *2748:D *360:33 0.00050274
28 *331:56 *360:8 0.000570226
29 *336:10 *2824:A 0.000106542
30 *336:10 *360:10 9.0143e-05
31 *336:10 *360:12 0.000117144
32 *336:14 *360:12 0.000220441
33 *336:14 *360:14 5.83304e-05
34 *336:14 *360:22 0.000126439
35 *341:103 *2706:CLK 0.000213861
36 *341:105 *2706:CLK 0.000153054
37 *342:75 *2824:A 0.000103041
38 *342:75 *360:10 8.79872e-05
39 *342:75 *360:12 0.000228715
40 *342:75 *360:14 2.72545e-05
41 *342:75 *360:22 6.5185e-05
42 *345:12 *360:8 0.000228558
43 *345:14 *360:8 0.000140933
44 *345:20 *360:8 0.000105569
*RES
1 *2810:X *360:8 19.2643 
2 *360:8 *360:10 2.25 
3 *360:10 *360:12 5.58929 
4 *360:12 *360:14 0.732143 
5 *360:14 *360:22 8.75 
6 *360:22 *2748:CLK 9.3 
7 *360:22 *360:33 8.89286 
8 *360:33 *2706:CLK 22.9786 
9 *360:33 *2674:CLK 20.1036 
10 *360:14 *2698:CLK 21.2286 
11 *360:12 *2723:CLK 13.8 
12 *360:10 *2690:CLK 18.05 
13 *360:8 *2824:A 16.3536 
*END

*D_NET *361 0.0116761
*CONN
*I *2825:A I *D sky130_fd_sc_hd__clkinvlp_4
*I *2658:CLK I *D sky130_fd_sc_hd__dfxtp_1
*I *2714:CLK I *D sky130_fd_sc_hd__dfxtp_1
*I *2634:CLK I *D sky130_fd_sc_hd__dfxtp_1
*I *2682:CLK I *D sky130_fd_sc_hd__dfxtp_1
*I *2788:CLK I *D sky130_fd_sc_hd__dfxtp_1
*I *2650:CLK I *D sky130_fd_sc_hd__dfxtp_1
*I *2666:CLK I *D sky130_fd_sc_hd__dfxtp_1
*I *2659:CLK I *D sky130_fd_sc_hd__dfxtp_1
*I *2675:CLK I *D sky130_fd_sc_hd__dfxtp_1
*I *2811:X O *D sky130_fd_sc_hd__clkbuf_8
*CAP
1 *2825:A 0
2 *2658:CLK 0.000246491
3 *2714:CLK 0
4 *2634:CLK 0.000502261
5 *2682:CLK 0
6 *2788:CLK 0.000170339
7 *2650:CLK 0
8 *2666:CLK 0.000161536
9 *2659:CLK 0
10 *2675:CLK 0.000182915
11 *2811:X 0
12 *361:101 0.000391484
13 *361:97 0.000285636
14 *361:75 0.000537292
15 *361:26 0.000483303
16 *361:22 0.000737926
17 *361:16 0.000459058
18 *361:12 0.000829033
19 *361:10 0.000824481
20 *361:4 0.000454454
21 *2634:CLK *400:10 1.58163e-05
22 *2634:CLK *644:35 2.59355e-05
23 *2634:CLK *648:86 0.00106465
24 *2658:CLK *642:37 0.000396905
25 *2658:CLK *642:54 3.44348e-05
26 *2666:CLK *643:23 3.69047e-06
27 *2666:CLK *644:49 9.90431e-05
28 *2675:CLK *2433:A2 0
29 *2675:CLK *2433:S1 0.000105582
30 *361:10 *637:28 0.000272384
31 *361:10 *664:28 0
32 *361:10 *664:43 0
33 *361:12 *2428:S0 0.000348207
34 *361:12 *2953:A 0.000169366
35 *361:12 *384:10 9.35866e-05
36 *361:12 *480:6 5.52302e-05
37 *361:22 *425:10 7.15962e-05
38 *361:75 *2428:S0 5.52302e-05
39 *361:75 *648:86 1.04232e-05
40 *361:97 *642:54 7.45454e-05
41 *361:101 *642:54 9.9322e-05
42 *2576:S *361:26 0
43 *2634:D *2634:CLK 1.76135e-05
44 *2650:D *2788:CLK 0.000342495
45 *2650:D *361:12 4.18895e-05
46 *2650:D *361:16 0.000192872
47 *2659:D *361:26 1.64343e-05
48 *2682:D *361:12 1.64343e-05
49 *2714:D *2658:CLK 0.000529674
50 *2723:D *361:10 0.000104974
51 *285:24 *2658:CLK 3.3283e-05
52 *332:155 *2788:CLK 4.1331e-06
53 *333:46 *2634:CLK 0.000168939
54 *333:58 *2634:CLK 2.89114e-05
55 *337:28 *2788:CLK 0
56 *340:16 *361:10 0.000607346
57 *340:24 *361:10 7.88298e-05
58 *345:12 *361:10 0
59 *345:72 *2666:CLK 0
60 *345:72 *2675:CLK 0.000187977
61 *345:152 *2634:CLK 4.21301e-05
*RES
1 *2811:X *361:4 9.3 
2 *361:4 *361:10 18.8393 
3 *361:10 *361:12 9.57143 
4 *361:12 *361:16 3.42857 
5 *361:16 *361:22 5.19643 
6 *361:22 *361:26 4.55357 
7 *361:26 *2675:CLK 22.9786 
8 *361:26 *2659:CLK 9.3 
9 *361:22 *2666:CLK 21.1929 
10 *361:16 *2650:CLK 9.3 
11 *361:12 *2788:CLK 22.675 
12 *361:10 *361:75 0.964286 
13 *361:75 *2682:CLK 9.3 
14 *361:75 *2634:CLK 31.4786 
15 *361:4 *361:97 2.58929 
16 *361:97 *361:101 3.01786 
17 *361:101 *2714:CLK 9.3 
18 *361:101 *2658:CLK 16.8536 
19 *361:97 *2825:A 9.3 
*END

*D_NET *362 0.000458901
*CONN
*I *2721:D I *D sky130_fd_sc_hd__dfstp_1
*I *2413:X O *D sky130_fd_sc_hd__and3_1
*CAP
1 *2721:D 0.000229451
2 *2413:X 0.000229451
*RES
1 *2413:X *2721:D 22.3321 
*END

*D_NET *363 0.010739
*CONN
*I *2306:A I *D sky130_fd_sc_hd__xor2_1
*I *2383:A I *D sky130_fd_sc_hd__xnor2_1
*I *2774:Q O *D sky130_fd_sc_hd__dfrtp_1
*CAP
1 *2306:A 0.00055401
2 *2383:A 0.000309163
3 *2774:Q 0.000100269
4 *363:10 0.00318901
5 *363:8 0.00242611
6 *2306:A *2740:D 0
7 *2306:A *2740:RESET_B 0
8 *2306:A *677:31 0
9 *2383:A *2386:B 2.59355e-05
10 *2383:A *2755:D 5.57914e-05
11 *2383:A *677:31 5.35516e-05
12 *363:10 *2378:B 0.000188928
13 *363:10 *2394:B1 9.26125e-05
14 *363:10 *2733:CLK 0
15 *363:10 *2737:D 0
16 *363:10 *2740:RESET_B 0
17 *363:10 *2757:D 0
18 *363:10 *2759:D 0
19 *363:10 *2760:RESET_B 0
20 *363:10 *2761:D 6.74815e-05
21 *363:10 *2936:A 0.00120399
22 *363:10 *633:8 0
23 *363:10 *633:14 0
24 *363:10 *634:40 0.000121573
25 *363:10 *634:168 0.000176847
26 *363:10 *640:14 0
27 *363:10 *642:12 0.000176303
28 *363:10 *642:99 0
29 *363:10 *668:79 0
30 *363:10 *669:87 0.000425379
31 *363:10 *669:100 0.000208541
32 *363:10 *675:32 1.78447e-05
33 *363:10 *675:42 0
34 *363:10 *675:59 0
35 *363:10 *675:68 0
36 *363:10 *677:31 0
37 *2306:B *2306:A 5.52302e-05
38 *2307:A *2306:A 6.8646e-06
39 *2386:A *2383:A 0.000119125
40 *2387:B *2306:A 0.000125731
41 *2387:B *2383:A 5.33005e-05
42 *2388:C *2306:A 9.15804e-05
43 *2388:C *363:10 0.000196276
44 *2389:B *2306:A 0
45 *2399:A *363:10 0
46 *2774:CLK *363:8 5.41609e-05
47 *2827:A *363:10 0.000142307
48 *174:8 *2383:A 4.14591e-05
49 *176:6 *2306:A 9.90431e-05
50 *188:10 *2306:A 0.00013661
51 *188:16 *2306:A 7.83462e-05
52 *267:12 *363:10 0.000145609
*RES
1 *2774:Q *363:8 15.1571 
2 *363:8 *363:10 53.25 
3 *363:10 *2383:A 29.1036 
4 *363:10 *2306:A 26.4071 
*END

*D_NET *364 0.00295829
*CONN
*I *2304:A I *D sky130_fd_sc_hd__xnor2_2
*I *2290:A I *D sky130_fd_sc_hd__inv_2
*I *2775:Q O *D sky130_fd_sc_hd__dfrtp_1
*CAP
1 *2304:A 0.000225432
2 *2290:A 6.38979e-05
3 *2775:Q 0.00047803
4 *364:8 0.000767361
5 *2304:A *2303:A 9.90431e-05
6 *2304:A *2309:A 0
7 *2304:A *2740:RESET_B 0.000385469
8 *364:8 *2309:A 0
9 *364:8 *2415:A 0.00012564
10 *364:8 *2740:RESET_B 0.000389854
11 *364:8 *633:8 0.000197768
12 *364:8 *633:93 8.5896e-05
13 *2386:A *2290:A 0.0001399
14 *2827:A *364:8 0
*RES
1 *2775:Q *364:8 26.0679 
2 *364:8 *2290:A 15.1571 
3 *364:8 *2304:A 19.7286 
*END

*D_NET *365 0.00239046
*CONN
*I *2302:A I *D sky130_fd_sc_hd__xor2_2
*I *2378:A I *D sky130_fd_sc_hd__xor2_1
*I *2776:Q O *D sky130_fd_sc_hd__dfrtp_1
*CAP
1 *2302:A 0.000186924
2 *2378:A 0.000599435
3 *2776:Q 6.38808e-05
4 *365:8 0.000850241
5 *2302:A *2309:A 0
6 *2302:A *732:25 0.000198698
7 *2378:A *676:54 0.000140933
8 *365:8 *2309:A 0
9 *365:8 *676:54 3.34672e-05
10 *365:8 *732:25 0.000125724
11 *2386:A *2302:A 0.00018372
12 *2388:C *2378:A 7.43578e-06
*RES
1 *2776:Q *365:8 15.4429 
2 *365:8 *2378:A 23.7821 
3 *365:8 *2302:A 18.1214 
*END

*D_NET *366 0.00299713
*CONN
*I *2740:D I *D sky130_fd_sc_hd__dfrtp_1
*I *2389:Y O *D sky130_fd_sc_hd__nor2_1
*CAP
1 *2740:D 0.000819484
2 *2389:Y 0.000819484
3 *2740:D *2740:RESET_B 4.96155e-05
4 *2740:D *677:31 0.000972766
5 *2306:A *2740:D 0
6 *2307:A *2740:D 0.00021189
7 *246:8 *2740:D 0
8 *246:23 *2740:D 0.00012389
*RES
1 *2389:Y *2740:D 47.975 
*END

*D_NET *367 0.00329234
*CONN
*I *2940:A I *D sky130_fd_sc_hd__dlygate4sd3_1
*I *2419:A0 I *D sky130_fd_sc_hd__mux4_1
*I *2673:Q O *D sky130_fd_sc_hd__dfxtp_1
*CAP
1 *2940:A 0.000715433
2 *2419:A0 0.000249032
3 *2673:Q 0
4 *367:4 0.000964465
5 *2419:A0 *2419:A1 1.92789e-05
6 *2419:A0 *2574:A1 8.4532e-05
7 *2419:A0 *666:106 0.000181796
8 *2940:A *666:106 0.000694747
9 *2673:CLK *2940:A 9.02232e-05
10 *331:31 *2419:A0 2.89016e-05
11 *336:10 *2419:A0 0.000237913
12 *342:67 *2419:A0 2.60202e-05
*RES
1 *2673:Q *367:4 9.3 
2 *367:4 *2419:A0 23.7643 
3 *367:4 *2940:A 19.1929 
*END

*D_NET *368 0.00225669
*CONN
*I *2881:A I *D sky130_fd_sc_hd__dlygate4sd3_1
*I *2425:A0 I *D sky130_fd_sc_hd__mux4_1
*I *2674:Q O *D sky130_fd_sc_hd__dfxtp_1
*CAP
1 *2881:A 0.000204019
2 *2425:A0 0.000583849
3 *2674:Q 0
4 *368:4 0.000787869
5 *2425:A0 *2425:S1 2.59355e-05
6 *2425:A0 *2446:S1 7.6644e-05
7 *2425:A0 *647:78 0
8 *2425:A0 *647:89 0
9 *2425:A0 *705:12 2.59355e-05
10 *2881:A *2529:A0 9.90431e-05
11 *2881:A *634:52 0
12 *2881:A *705:12 0.00019243
13 *2426:A0 *2425:A0 3.32631e-05
14 *2529:S *2881:A 6.95627e-05
15 *2674:D *2425:A0 6.77822e-05
16 *327:103 *2425:A0 2.49484e-05
17 *333:108 *2881:A 6.54117e-05
*RES
1 *2674:Q *368:4 9.3 
2 *368:4 *2425:A0 25.9429 
3 *368:4 *2881:A 23.3536 
*END

*D_NET *369 0.00164013
*CONN
*I *2903:A I *D sky130_fd_sc_hd__dlygate4sd3_1
*I *2433:A0 I *D sky130_fd_sc_hd__mux4_1
*I *2675:Q O *D sky130_fd_sc_hd__dfxtp_1
*CAP
1 *2903:A 0.000180493
2 *2433:A0 0.000330203
3 *2675:Q 0
4 *369:4 0.000510696
5 *2433:A0 *2530:A1 0.000146474
6 *2433:A0 *3000:A 0.000266092
7 *2433:A0 *650:66 5.52238e-05
8 *2433:A0 *650:84 0
9 *2659:D *2433:A0 0
10 *2675:D *2433:A0 2.22999e-05
11 *28:17 *2433:A0 1.18881e-05
12 *28:17 *2903:A 0.000116757
*RES
1 *2675:Q *369:4 9.3 
2 *369:4 *2433:A0 24.4786 
3 *369:4 *2903:A 13.0321 
*END

*D_NET *370 0.0028094
*CONN
*I *2439:A0 I *D sky130_fd_sc_hd__mux4_1
*I *2918:A I *D sky130_fd_sc_hd__dlygate4sd3_1
*I *2676:Q O *D sky130_fd_sc_hd__dfxtp_1
*CAP
1 *2439:A0 0
2 *2918:A 0.000402316
3 *2676:Q 0.000420324
4 *370:12 0.00082264
5 *2918:A *2439:A1 1.98839e-05
6 *2918:A *2531:A0 3.98559e-05
7 *2918:A *2531:A1 0.000313241
8 *370:12 *2531:A1 0.000125731
9 *2676:D *370:12 4.88515e-05
10 *331:110 *370:12 9.60699e-05
11 *333:122 *2918:A 0.000390616
12 *342:77 *370:12 0.000129868
*RES
1 *2676:Q *370:12 24.5857 
2 *370:12 *2918:A 17.675 
3 *370:12 *2439:A0 9.3 
*END

*D_NET *371 0.00141266
*CONN
*I *2956:A I *D sky130_fd_sc_hd__dlygate4sd3_1
*I *2445:A0 I *D sky130_fd_sc_hd__mux4_1
*I *2677:Q O *D sky130_fd_sc_hd__dfxtp_1
*CAP
1 *2956:A 0.000253255
2 *2445:A0 0
3 *2677:Q 0.000201013
4 *371:10 0.000454268
5 *2956:A *2445:S0 0
6 *2956:A *2532:A0 5.52302e-05
7 *2956:A *2889:A 5.80706e-06
8 *2956:A *427:10 0.000172907
9 *371:10 *2445:S0 0
10 *371:10 *2889:A 8.15939e-05
11 *371:10 *443:10 0
12 *371:10 *642:113 0.000188586
*RES
1 *2677:Q *371:10 17.5143 
2 *371:10 *2445:A0 13.8 
3 *371:10 *2956:A 19.05 
*END

*D_NET *372 0.00188251
*CONN
*I *2943:A I *D sky130_fd_sc_hd__dlygate4sd3_1
*I *2451:A0 I *D sky130_fd_sc_hd__mux4_1
*I *2678:Q O *D sky130_fd_sc_hd__dfxtp_1
*CAP
1 *2943:A 0.000156922
2 *2451:A0 0.000128602
3 *2678:Q 0.00012857
4 *372:8 0.000414093
5 *2451:A0 *2515:A0 0.000186662
6 *2451:A0 *2515:A1 0.000188793
7 *2943:A *2568:A0 0
8 *372:8 *2515:A0 0.000148189
9 *2533:S *2943:A 5.52302e-05
10 *2570:S *2451:A0 0.000402784
11 *2577:S *2451:A0 1.74352e-05
12 *2708:CLK *2943:A 5.52302e-05
13 *354:38 *2943:A 0
14 *354:38 *372:8 0
*RES
1 *2678:Q *372:8 16.05 
2 *372:8 *2451:A0 18.8714 
3 *372:8 *2943:A 16.2821 
*END

*D_NET *373 0.000652634
*CONN
*I *2915:A I *D sky130_fd_sc_hd__dlygate4sd3_1
*I *2457:A0 I *D sky130_fd_sc_hd__mux4_1
*I *2679:Q O *D sky130_fd_sc_hd__dfxtp_1
*CAP
1 *2915:A 3.89568e-05
2 *2457:A0 0
3 *2679:Q 9.82259e-05
4 *373:12 0.000137183
5 *2915:A *646:82 7.61932e-05
6 *373:12 *646:61 6.09476e-05
7 *373:12 *646:82 7.09568e-05
8 *2580:S *2915:A 6.42095e-05
9 *2580:S *373:12 5.33433e-05
10 *325:83 *373:12 5.26184e-05
*RES
1 *2679:Q *373:12 21.1929 
2 *373:12 *2457:A0 9.3 
3 *373:12 *2915:A 10.6571 
*END

*D_NET *374 0.00173277
*CONN
*I *2463:A0 I *D sky130_fd_sc_hd__mux4_1
*I *2908:A I *D sky130_fd_sc_hd__dlygate4sd3_1
*I *2680:Q O *D sky130_fd_sc_hd__dfxtp_1
*CAP
1 *2463:A0 6.08119e-05
2 *2908:A 0.000195013
3 *2680:Q 0.000303752
4 *374:6 0.000559577
5 *2463:A0 *637:104 0.000128154
6 *2463:A0 *639:111 0
7 *374:6 *2581:A0 0.00026353
8 *2680:CLK *2908:A 5.52302e-05
9 *2680:D *2463:A0 2.56694e-05
10 *2680:D *2908:A 1.64343e-05
11 *339:40 *2908:A 0.000112707
12 *339:40 *374:6 1.18881e-05
*RES
1 *2680:Q *374:6 13.1214 
2 *374:6 *2908:A 13.5857 
3 *374:6 *2463:A0 19.9429 
*END

*D_NET *375 0.00234719
*CONN
*I *2873:A I *D sky130_fd_sc_hd__dlygate4sd3_1
*I *2421:A2 I *D sky130_fd_sc_hd__mux4_1
*I *2665:Q O *D sky130_fd_sc_hd__dfxtp_1
*CAP
1 *2873:A 0.000199186
2 *2421:A2 0.000153008
3 *2665:Q 0.000272228
4 *375:10 0.000624422
5 *2421:A2 *2500:A1 9.90431e-05
6 *2421:A2 *667:24 0.000184745
7 *2873:A *2500:A1 0.000180336
8 *2422:A1 *2421:A2 0.000114063
9 *2422:A3 *375:10 3.69697e-05
10 *2649:D *2873:A 0.000168769
11 *2787:CLK *2873:A 0
12 *329:20 *375:10 1.7473e-05
13 *329:24 *375:10 5.39166e-06
14 *332:12 *2421:A2 0.000205658
15 *332:155 *2873:A 2.26327e-05
16 *332:155 *375:10 6.32633e-05
17 *359:123 *2873:A 0
*RES
1 *2665:Q *375:10 17.6214 
2 *375:10 *2421:A2 19.2018 
3 *375:10 *2873:A 18.7821 
*END

*D_NET *376 0.00331748
*CONN
*I *2428:A2 I *D sky130_fd_sc_hd__mux4_1
*I *2957:A I *D sky130_fd_sc_hd__dlygate4sd3_1
*I *2666:Q O *D sky130_fd_sc_hd__dfxtp_1
*CAP
1 *2428:A2 0.000438029
2 *2957:A 0.000213404
3 *2666:Q 0.000191265
4 *376:6 0.000842698
5 *2428:A2 *2898:A 1.02504e-05
6 *2428:A2 *384:10 5.83304e-05
7 *2428:A2 *644:49 0.000285366
8 *2428:A2 *664:54 2.94103e-05
9 *2957:A *2501:A1 0.00012501
10 *376:6 *644:49 0.000265447
11 *2788:D *2957:A 0.000146545
12 *336:10 *2957:A 8.26359e-05
13 *342:67 *2957:A 0.000629089
*RES
1 *2666:Q *376:6 11.8893 
2 *376:6 *2957:A 26.3179 
3 *376:6 *2428:A2 24.3223 
*END

*D_NET *377 0.00293253
*CONN
*I *2435:A2 I *D sky130_fd_sc_hd__mux4_1
*I *2884:A I *D sky130_fd_sc_hd__dlygate4sd3_1
*I *2667:Q O *D sky130_fd_sc_hd__dfxtp_1
*CAP
1 *2435:A2 0.000396934
2 *2884:A 0.000129648
3 *2667:Q 0.000210336
4 *377:6 0.000736918
5 *2435:A2 *2435:A3 2.3541e-05
6 *2435:A2 *2435:S1 4.07853e-05
7 *2884:A *2904:A 0.000151333
8 *2616:S *2435:A2 0.00012401
9 *2789:D *2884:A 0
10 *337:107 *2884:A 0.000317609
11 *356:39 *2435:A2 0.00035878
12 *356:41 *2435:A2 0.000128496
13 *356:41 *377:6 0.000314139
*RES
1 *2667:Q *377:6 12.3 
2 *377:6 *2884:A 22.3714 
3 *377:6 *2435:A2 24.8223 
*END

*D_NET *378 0.00193734
*CONN
*I *2928:A I *D sky130_fd_sc_hd__dlygate4sd3_1
*I *2441:A2 I *D sky130_fd_sc_hd__mux4_1
*I *2668:Q O *D sky130_fd_sc_hd__dfxtp_1
*CAP
1 *2928:A 0.000145799
2 *2441:A2 0.000275954
3 *2668:Q 0
4 *378:6 0.000421753
5 *2441:A2 *3033:A 0
6 *2441:A2 *573:12 2.66026e-05
7 *2928:A *2852:A 0.000124732
8 *2928:A *3033:A 7.36248e-05
9 *2614:S *2441:A2 0.000441446
10 *2652:D *2441:A2 0.000104982
11 *2652:D *2928:A 6.98302e-05
12 *300:14 *2441:A2 0.00025262
*RES
1 *2668:Q *378:6 13.8 
2 *378:6 *2441:A2 21.7732 
3 *378:6 *2928:A 17.8714 
*END

*D_NET *379 0.00241712
*CONN
*I *2952:A I *D sky130_fd_sc_hd__dlygate4sd3_1
*I *2447:A2 I *D sky130_fd_sc_hd__mux4_1
*I *2669:Q O *D sky130_fd_sc_hd__dfxtp_1
*CAP
1 *2952:A 0.000239383
2 *2447:A2 0.000238232
3 *2669:Q 0.000342175
4 *379:10 0.00081979
5 *2447:A2 *2447:A0 7.32931e-05
6 *2447:A2 *2447:A1 0.000181796
7 *2952:A *2447:S0 0
8 *2952:A *2523:A0 0
9 *2952:A *2523:A1 0
10 *2952:A *3031:A 0
11 *379:10 *2523:A1 0
12 *2504:S *2952:A 0.000126446
13 *2504:S *379:10 0.000171368
14 *347:65 *379:10 0.000171299
15 *347:67 *379:10 5.33334e-05
*RES
1 *2669:Q *379:10 19.05 
2 *379:10 *2447:A2 18.2866 
3 *379:10 *2952:A 18.175 
*END

*D_NET *380 0.00275918
*CONN
*I *2971:A I *D sky130_fd_sc_hd__dlygate4sd3_1
*I *2453:A2 I *D sky130_fd_sc_hd__mux4_1
*I *2670:Q O *D sky130_fd_sc_hd__dfxtp_1
*CAP
1 *2971:A 0.000359752
2 *2453:A2 0.000140582
3 *2670:Q 0.000179749
4 *380:10 0.000680083
5 *2453:A2 *2453:S1 0.000105487
6 *2453:A2 *2524:A0 1.14548e-05
7 *2971:A *2848:A 0.000485543
8 *2971:A *655:10 0.000137983
9 *2971:A *655:36 8.46829e-05
10 *380:10 *2453:S1 0.000125992
11 *380:10 *641:77 7.90803e-05
12 *2718:CLK *380:10 0.000139202
13 *310:22 *2971:A 7.30642e-05
14 *332:92 *2453:A2 1.00442e-05
15 *334:80 *2453:A2 6.47136e-05
16 *334:80 *2971:A 2.04825e-05
17 *334:80 *380:10 6.12813e-05
*RES
1 *2670:Q *380:10 17.8625 
2 *380:10 *2453:A2 16.742 
3 *380:10 *2971:A 21.3268 
*END

*D_NET *381 0.00213737
*CONN
*I *2459:A2 I *D sky130_fd_sc_hd__mux4_1
*I *2978:A I *D sky130_fd_sc_hd__dlygate4sd3_1
*I *2671:Q O *D sky130_fd_sc_hd__dfxtp_1
*CAP
1 *2459:A2 0.000209408
2 *2978:A 0.000254492
3 *2671:Q 0.000113309
4 *381:6 0.000577209
5 *2459:A2 *2459:A0 0.000117594
6 *2459:A2 *2846:A 0.000558455
7 *2978:A *2459:A1 0.000120236
8 *2978:A *2846:A 0
9 *2978:A *607:10 0
10 *2978:A *653:19 0
11 *381:6 *2846:A 0.000186662
*RES
1 *2671:Q *381:6 11.8893 
2 *381:6 *2978:A 22.675 
3 *381:6 *2459:A2 15.8402 
*END

*D_NET *382 0.00215012
*CONN
*I *2916:A I *D sky130_fd_sc_hd__dlygate4sd3_1
*I *2465:A2 I *D sky130_fd_sc_hd__mux4_1
*I *2672:Q O *D sky130_fd_sc_hd__dfxtp_1
*CAP
1 *2916:A 0.00039927
2 *2465:A2 4.91051e-05
3 *2672:Q 0.000461076
4 *382:12 0.00090945
5 *2465:A2 *2465:A3 2.16087e-05
6 *2916:A *2465:A3 2.93215e-05
7 *2916:A *2526:A0 0
8 *2916:A *2888:A 0
9 *382:12 *2465:A3 8.62363e-05
10 *2544:S *2916:A 7.14923e-05
11 *2552:S *2916:A 0
12 *2688:D *2916:A 2.84009e-05
13 *320:22 *382:12 9.41642e-05
*RES
1 *2672:Q *382:12 16.4607 
2 *382:12 *2465:A2 10.7688 
3 *382:12 *2916:A 25.8357 
*END

*D_NET *383 0.0017667
*CONN
*I *2421:A3 I *D sky130_fd_sc_hd__mux4_1
*I *2877:A I *D sky130_fd_sc_hd__dlygate4sd3_1
*I *2649:Q O *D sky130_fd_sc_hd__dfxtp_1
*CAP
1 *2421:A3 0.000172157
2 *2877:A 0.000168596
3 *2649:Q 0
4 *383:4 0.000340754
5 *2421:A3 *667:14 1.36251e-05
6 *2421:A3 *667:24 8.27532e-05
7 *2877:A *2858:A 0.000224585
8 *2877:A *667:24 0.00010096
9 *2423:A1 *2877:A 8.89385e-05
10 *2609:S *2421:A3 4.06087e-07
11 *2681:D *2421:A3 0.000127439
12 *2787:D *2877:A 0.000151333
13 *264:20 *2421:A3 0.00023817
14 *264:20 *2877:A 3.15739e-05
15 *342:16 *2421:A3 2.54135e-05
*RES
1 *2649:Q *383:4 9.3 
2 *383:4 *2877:A 23.3179 
3 *383:4 *2421:A3 22.4071 
*END

*D_NET *384 0.00241626
*CONN
*I *2898:A I *D sky130_fd_sc_hd__dlygate4sd3_1
*I *2428:A3 I *D sky130_fd_sc_hd__mux4_1
*I *2650:Q O *D sky130_fd_sc_hd__dfxtp_1
*CAP
1 *2898:A 0.000288697
2 *2428:A3 0
3 *2650:Q 0.000387938
4 *384:10 0.000676636
5 *2898:A *2953:A 0.000197252
6 *2898:A *637:28 6.05161e-06
7 *2898:A *644:82 0.00050705
8 *2898:A *664:54 2.28159e-05
9 *384:10 *2428:S0 4.34472e-05
10 *384:10 *2953:A 5.97623e-05
11 *384:10 *664:54 6.44449e-05
12 *2428:A2 *2898:A 1.02504e-05
13 *2428:A2 *384:10 5.83304e-05
14 *264:20 *2898:A 0
15 *264:20 *384:10 0
16 *361:12 *384:10 9.35866e-05
*RES
1 *2650:Q *384:10 20.3714 
2 *384:10 *2428:A3 13.8 
3 *384:10 *2898:A 22.1571 
*END

*D_NET *385 0.00160262
*CONN
*I *2435:A3 I *D sky130_fd_sc_hd__mux4_1
*I *2904:A I *D sky130_fd_sc_hd__dlygate4sd3_1
*I *2651:Q O *D sky130_fd_sc_hd__dfxtp_1
*CAP
1 *2435:A3 0.000185456
2 *2904:A 0.000107682
3 *2651:Q 0.000249026
4 *385:8 0.000542164
5 *2435:A3 *2435:S1 3.69087e-05
6 *385:8 *662:8 3.18676e-05
7 *2435:A2 *2435:A3 2.3541e-05
8 *2789:CLK *2904:A 1.02504e-05
9 *2789:D *2904:A 0
10 *2884:A *2904:A 0.000151333
11 *295:16 *2435:A3 0.000240414
12 *337:107 *2904:A 2.39779e-05
*RES
1 *2651:Q *385:8 13.1393 
2 *385:8 *2904:A 20.8536 
3 *385:8 *2435:A3 13.9429 
*END

*D_NET *386 0.00199541
*CONN
*I *2891:A I *D sky130_fd_sc_hd__dlygate4sd3_1
*I *2441:A3 I *D sky130_fd_sc_hd__mux4_1
*I *2652:Q O *D sky130_fd_sc_hd__dfxtp_1
*CAP
1 *2891:A 0.000204953
2 *2441:A3 0
3 *2652:Q 0.000361326
4 *386:14 0.000566279
5 *2891:A *2441:S0 0
6 *2891:A *659:62 7.02611e-05
7 *386:14 *2441:A0 0
8 *386:14 *2441:S0 0
9 *2614:S *2891:A 0.000150625
10 *2684:CLK *386:14 5.23142e-05
11 *2684:D *386:14 1.85861e-05
12 *300:14 *2891:A 0.000349858
13 *300:14 *386:14 8.32242e-05
14 *329:111 *2891:A 0.000137983
*RES
1 *2652:Q *386:14 19.4071 
2 *386:14 *2441:A3 13.8 
3 *386:14 *2891:A 19.8357 
*END

*D_NET *387 0.00139418
*CONN
*I *2896:A I *D sky130_fd_sc_hd__dlygate4sd3_1
*I *2447:A3 I *D sky130_fd_sc_hd__mux4_1
*I *2653:Q O *D sky130_fd_sc_hd__dfxtp_1
*CAP
1 *2896:A 0.000210993
2 *2447:A3 0.000202557
3 *2653:Q 0
4 *387:4 0.000413551
5 *2447:A3 *491:10 0
6 *2447:A3 *657:32 3.90513e-05
7 *2896:A *2850:A 0
8 *2896:A *584:10 0
9 *2896:A *657:19 0.000151333
10 *2896:A *657:32 0.000126439
11 *2504:S *2896:A 0
12 *2685:CLK *2447:A3 1.39726e-05
13 *2685:CLK *2896:A 1.58163e-05
14 *2685:D *2896:A 2.56601e-05
15 *347:55 *2447:A3 0.000175519
16 *347:65 *2447:A3 1.92905e-05
*RES
1 *2653:Q *387:4 9.3 
2 *387:4 *2447:A3 22.4071 
3 *387:4 *2896:A 22.9071 
*END

*D_NET *388 0.00221111
*CONN
*I *2993:A I *D sky130_fd_sc_hd__dlygate4sd3_1
*I *2453:A3 I *D sky130_fd_sc_hd__mux4_1
*I *2654:Q O *D sky130_fd_sc_hd__dfxtp_1
*CAP
1 *2993:A 0.000113604
2 *2453:A3 0.000119675
3 *2654:Q 0.000376387
4 *388:8 0.000609665
5 *2453:A3 *2453:S0 5.33005e-05
6 *2453:A3 *2524:A0 6.71657e-05
7 *2453:A3 *595:12 0.000121573
8 *2453:A3 *655:38 5.86416e-05
9 *2993:A *595:12 6.73939e-05
10 *2993:A *655:38 5.86416e-05
11 *2993:A *655:62 5.97719e-05
12 *2505:S *388:8 0.000180764
13 *310:22 *388:8 0.000177679
14 *332:92 *2453:A3 6.444e-05
15 *334:80 *2993:A 8.24047e-05
*RES
1 *2654:Q *388:8 18.8536 
2 *388:8 *2453:A3 17.2107 
3 *388:8 *2993:A 16.9607 
*END

*D_NET *389 0.00253083
*CONN
*I *2459:A3 I *D sky130_fd_sc_hd__mux4_1
*I *2893:A I *D sky130_fd_sc_hd__dlygate4sd3_1
*I *2655:Q O *D sky130_fd_sc_hd__dfxtp_1
*CAP
1 *2459:A3 0.00016043
2 *2893:A 0.00012933
3 *2655:Q 0.00060432
4 *389:8 0.00089408
5 *2459:A3 *646:141 0.00024292
6 *2893:A *646:141 0.000126439
7 *389:8 *653:43 5.30209e-05
8 *389:8 *653:56 0.000183676
9 *2655:D *389:8 5.71472e-05
10 *329:38 *2893:A 7.94648e-05
*RES
1 *2655:Q *389:8 21.7286 
2 *389:8 *2893:A 16.8 
3 *389:8 *2459:A3 16.9607 
*END

*D_NET *390 0.0031262
*CONN
*I *2906:A I *D sky130_fd_sc_hd__dlygate4sd3_1
*I *2465:A3 I *D sky130_fd_sc_hd__mux4_1
*I *2656:Q O *D sky130_fd_sc_hd__dfxtp_1
*CAP
1 *2906:A 0.000293078
2 *2465:A3 0.000617833
3 *2656:Q 0.000254785
4 *390:10 0.0011657
5 *2906:A *2507:A1 6.62752e-05
6 *2906:A *651:71 8.50152e-05
7 *2465:A2 *2465:A3 2.16087e-05
8 *2656:D *2906:A 0
9 *2656:D *390:10 0
10 *2672:D *2906:A 2.37761e-05
11 *2672:D *390:10 1.19402e-05
12 *2688:D *2465:A3 5.83233e-05
13 *2916:A *2465:A3 2.93215e-05
14 *332:80 *2906:A 0.00012401
15 *332:80 *390:10 0.00020112
16 *353:26 *390:10 8.71847e-05
17 *382:12 *2465:A3 8.62363e-05
*RES
1 *2656:Q *390:10 18.5321 
2 *390:10 *2465:A3 30.6393 
3 *390:10 *2906:A 19.675 
*END

*D_NET *391 0.00217833
*CONN
*I *2976:A I *D sky130_fd_sc_hd__dlygate4sd3_1
*I *2420:A0 I *D sky130_fd_sc_hd__mux4_1
*I *2641:Q O *D sky130_fd_sc_hd__dfxtp_1
*CAP
1 *2976:A 0.000264061
2 *2420:A0 0
3 *2641:Q 0.000148291
4 *391:10 0.000412352
5 *2976:A *2420:A1 0.000375147
6 *2976:A *2619:RESET_B 1.17968e-05
7 *2976:A *2959:A 0.000481423
8 *2976:A *407:8 5.7616e-05
9 *391:10 *2420:A1 9.25014e-06
10 *391:10 *2600:A0 7.83587e-05
11 *391:10 *407:8 0.000150618
12 *391:10 *643:157 3.55407e-05
13 *323:86 *2976:A 1.39726e-05
14 *359:82 *391:10 0.000139907
*RES
1 *2641:Q *391:10 17.1036 
2 *391:10 *2420:A0 13.8 
3 *391:10 *2976:A 21.3714 
*END

*D_NET *392 0.00217168
*CONN
*I *2980:A I *D sky130_fd_sc_hd__dlygate4sd3_1
*I *2427:A0 I *D sky130_fd_sc_hd__mux4_1
*I *2642:Q O *D sky130_fd_sc_hd__dfxtp_1
*CAP
1 *2980:A 0.000685249
2 *2427:A0 0.000130404
3 *2642:Q 0
4 *392:4 0.000815653
5 *2427:A0 *2427:A1 5.33005e-05
6 *2980:A *2491:A0 2.59355e-05
7 *2642:CLK *2980:A 0.000312215
8 *2642:D *2980:A 0.000148923
*RES
1 *2642:Q *392:4 9.3 
2 *392:4 *2427:A0 11.3893 
3 *392:4 *2980:A 19.6214 
*END

*D_NET *393 0.00349533
*CONN
*I *2930:A I *D sky130_fd_sc_hd__dlygate4sd3_1
*I *2434:A0 I *D sky130_fd_sc_hd__mux4_1
*I *2643:Q O *D sky130_fd_sc_hd__dfxtp_1
*CAP
1 *2930:A 6.05055e-05
2 *2434:A0 0.000689483
3 *2643:Q 0.000284926
4 *393:10 0.00103491
5 *2434:A0 *2482:A1 0.000137983
6 *2434:A0 *2602:A1 1.00375e-05
7 *2434:A0 *626:20 5.38242e-05
8 *393:10 *643:31 2.02679e-05
9 *2436:A2 *2930:A 7.05375e-05
10 *2436:A2 *393:10 0.000125731
11 *2635:D *2434:A0 7.73758e-05
12 *2643:D *393:10 4.87953e-05
13 *292:16 *2434:A0 8.20284e-05
14 *325:83 *2434:A0 0.000116039
15 *325:93 *2434:A0 0.000192974
16 *327:53 *2434:A0 0.000119125
17 *327:53 *2930:A 4.29179e-05
18 *358:22 *2930:A 0.000202128
19 *358:22 *393:10 0.000125731
*RES
1 *2643:Q *393:10 18.0321 
2 *393:10 *2434:A0 35.8714 
3 *393:10 *2930:A 16.3536 
*END

*D_NET *394 0.00157602
*CONN
*I *2912:A I *D sky130_fd_sc_hd__dlygate4sd3_1
*I *2440:A0 I *D sky130_fd_sc_hd__mux4_1
*I *2644:Q O *D sky130_fd_sc_hd__dfxtp_1
*CAP
1 *2912:A 0.000219013
2 *2440:A0 3.72982e-05
3 *2644:Q 0.000126248
4 *394:12 0.00038256
5 *2440:A0 *650:30 0.000102197
6 *2912:A *650:30 0.00019243
7 *394:12 *633:34 2.89016e-05
8 *299:16 *2440:A0 0.000102197
9 *299:16 *2912:A 1.98839e-05
10 *299:16 *394:12 7.6644e-05
11 *336:14 *2912:A 0.000197991
12 *337:30 *394:12 0
13 *342:75 *2912:A 9.0651e-05
14 *342:75 *394:12 0
*RES
1 *2644:Q *394:12 20.4786 
2 *394:12 *2440:A0 11.0679 
3 *394:12 *2912:A 24.2643 
*END

*D_NET *395 0.00223848
*CONN
*I *2446:A0 I *D sky130_fd_sc_hd__mux4_1
*I *2964:A I *D sky130_fd_sc_hd__dlygate4sd3_1
*I *2645:Q O *D sky130_fd_sc_hd__dfxtp_1
*CAP
1 *2446:A0 0.000386436
2 *2964:A 0.000261916
3 *2645:Q 4.31953e-05
4 *395:8 0.000691547
5 *2446:A0 *2446:A1 0.000206293
6 *2446:A0 *647:67 0
7 *2964:A *634:78 9.02331e-05
8 *2964:A *637:62 0
9 *2964:A *647:67 0
10 *2964:A *658:51 0.000104246
11 *395:8 *2587:A1 1.92789e-05
12 *2448:A2 *2964:A 0.000210742
13 *2814:A *2964:A 0.00022459
*RES
1 *2645:Q *395:8 14.3357 
2 *395:8 *2964:A 21.0857 
3 *395:8 *2446:A0 19.3893 
*END

*D_NET *396 0.00185792
*CONN
*I *3001:A I *D sky130_fd_sc_hd__dlygate4sd3_1
*I *2452:A0 I *D sky130_fd_sc_hd__mux4_1
*I *2646:Q O *D sky130_fd_sc_hd__dfxtp_1
*CAP
1 *3001:A 0.000243907
2 *2452:A0 0.000198765
3 *2646:Q 2.23854e-05
4 *396:6 0.000465057
5 *2452:A0 *420:8 2.89114e-05
6 *2452:A0 *655:75 0
7 *2452:A0 *655:112 0
8 *3001:A *420:8 0.000106141
9 *3001:A *633:50 0.000109174
10 *3001:A *641:40 6.4443e-05
11 *3001:A *645:30 0.000307349
12 *2646:D *3001:A 0.00021377
13 *339:44 *2452:A0 0
14 *354:26 *3001:A 9.80173e-05
*RES
1 *2646:Q *396:6 9.72857 
2 *396:6 *2452:A0 21.0857 
3 *396:6 *3001:A 16.8357 
*END

*D_NET *397 0.00112446
*CONN
*I *2919:A I *D sky130_fd_sc_hd__dlygate4sd3_1
*I *2458:A0 I *D sky130_fd_sc_hd__mux4_1
*I *2647:Q O *D sky130_fd_sc_hd__dfxtp_1
*CAP
1 *2919:A 0.000147433
2 *2458:A0 0.00016923
3 *2647:Q 0
4 *397:4 0.000316663
5 *2458:A0 *2458:A1 7.8327e-05
6 *2458:A0 *2606:A0 3.34295e-05
7 *2647:D *2458:A0 0
8 *323:102 *2458:A0 6.42095e-05
9 *323:102 *2919:A 0.000315165
*RES
1 *2647:Q *397:4 9.3 
2 *397:4 *2458:A0 21.6036 
3 *397:4 *2919:A 12.7286 
*END

*D_NET *398 0.000605939
*CONN
*I *2464:A0 I *D sky130_fd_sc_hd__mux4_1
*I *2945:A I *D sky130_fd_sc_hd__dlygate4sd3_1
*I *2648:Q O *D sky130_fd_sc_hd__dfxtp_1
*CAP
1 *2464:A0 7.79925e-05
2 *2945:A 0.00011996
3 *2648:Q 0
4 *398:4 0.000197952
5 *2464:A0 *2497:A1 0
6 *2466:A3 *2464:A0 3.92757e-05
7 *2485:S *2464:A0 0
8 *2648:D *2464:A0 2.79092e-05
9 *2648:D *2945:A 0.00014285
*RES
1 *2648:Q *398:4 9.3 
2 *398:4 *2945:A 11.8 
3 *398:4 *2464:A0 19.9429 
*END

*D_NET *399 0.00295628
*CONN
*I *2981:A I *D sky130_fd_sc_hd__dlygate4sd3_1
*I *2420:A1 I *D sky130_fd_sc_hd__mux4_1
*I *2633:Q O *D sky130_fd_sc_hd__dfxtp_1
*CAP
1 *2981:A 0.000216686
2 *2420:A1 0.000701912
3 *2633:Q 0
4 *399:4 0.000918598
5 *2420:A1 *2470:A0 7.83659e-05
6 *2420:A1 *2600:A0 3.69047e-06
7 *2420:A1 *2619:RESET_B 0.000109229
8 *2420:A1 *415:10 5.33005e-05
9 *2420:A1 *643:157 0.000125731
10 *2420:A1 *666:20 0.000156679
11 *2420:A1 *666:28 2.58997e-05
12 *2633:CLK *2420:A1 0
13 *2633:D *2420:A1 0.000181796
14 *2976:A *2420:A1 0.000375147
15 *391:10 *2420:A1 9.25014e-06
*RES
1 *2633:Q *399:4 9.3 
2 *399:4 *2420:A1 31.9964 
3 *399:4 *2981:A 13.0321 
*END

*D_NET *400 0.00421788
*CONN
*I *2878:A I *D sky130_fd_sc_hd__dlygate4sd3_1
*I *2427:A1 I *D sky130_fd_sc_hd__mux4_1
*I *2634:Q O *D sky130_fd_sc_hd__dfxtp_1
*CAP
1 *2878:A 0.000220636
2 *2427:A1 3.04135e-05
3 *2634:Q 0.00088713
4 *400:10 0.00113818
5 *2878:A *2601:A0 9.41642e-05
6 *2878:A *2601:S 6.71755e-05
7 *2878:A *670:64 0.000221634
8 *400:10 *644:35 8.31747e-05
9 *2427:A0 *2427:A1 5.33005e-05
10 *2634:CLK *400:10 1.58163e-05
11 *2634:D *400:10 3.32132e-06
12 *2770:CLK *2878:A 0.000414748
13 *2770:CLK *400:10 0.000126439
14 *331:50 *2878:A 0.000568337
15 *331:50 *400:10 0.000128154
16 *349:58 *2878:A 0.000165262
*RES
1 *2634:Q *400:10 25.0143 
2 *400:10 *2427:A1 14.3357 
3 *400:10 *2878:A 23.3893 
*END

*D_NET *401 0.00233657
*CONN
*I *2434:A1 I *D sky130_fd_sc_hd__mux4_1
*I *2922:A I *D sky130_fd_sc_hd__dlygate4sd3_1
*I *2635:Q O *D sky130_fd_sc_hd__dfxtp_1
*CAP
1 *2434:A1 0.000211773
2 *2922:A 0.000129222
3 *2635:Q 9.51408e-05
4 *401:8 0.000436135
5 *2434:A1 *2434:A2 0.000112434
6 *2434:A1 *2434:S0 9.25014e-06
7 *2434:A1 *2482:A0 0.000210191
8 *2434:A1 *417:6 9.84034e-05
9 *2434:A1 *562:29 9.64979e-05
10 *2922:A *2482:A0 7.83659e-05
11 *2922:A *2602:A0 0.000359997
12 *2922:A *633:129 0.000361914
13 *401:8 *562:29 9.90431e-05
14 *401:8 *626:20 1.32552e-05
15 *325:93 *2922:A 2.49484e-05
*RES
1 *2635:Q *401:8 15.1571 
2 *401:8 *2922:A 18.8536 
3 *401:8 *2434:A1 19.6929 
*END

*D_NET *402 0.00112878
*CONN
*I *2991:A I *D sky130_fd_sc_hd__dlygate4sd3_1
*I *2440:A1 I *D sky130_fd_sc_hd__mux4_1
*I *2636:Q O *D sky130_fd_sc_hd__dfxtp_1
*CAP
1 *2991:A 7.4209e-05
2 *2440:A1 0.000177136
3 *2636:Q 0.00020331
4 *402:8 0.000454655
5 *402:8 *2493:A0 2.89016e-05
6 *402:8 *2493:A1 5.80423e-05
7 *337:30 *2440:A1 8.96049e-05
8 *337:30 *2991:A 4.29179e-05
9 *342:75 *2440:A1 0
10 *342:75 *2991:A 0
*RES
1 *2636:Q *402:8 16.3893 
2 *402:8 *2440:A1 16.9607 
3 *402:8 *2991:A 15.4429 
*END

*D_NET *403 0.00286786
*CONN
*I *2892:A I *D sky130_fd_sc_hd__dlygate4sd3_1
*I *2446:A1 I *D sky130_fd_sc_hd__mux4_1
*I *2637:Q O *D sky130_fd_sc_hd__dfxtp_1
*CAP
1 *2892:A 9.71346e-05
2 *2446:A1 0.0003534
3 *2637:Q 8.05449e-05
4 *403:8 0.00053108
5 *2446:A1 *2446:A2 3.52408e-05
6 *2446:A1 *2446:S1 0.000340066
7 *2446:A1 *637:62 0.000363252
8 *2446:A1 *647:78 0
9 *2892:A *2446:S1 0.000213635
10 *2892:A *637:62 0.00022117
11 *2892:A *650:30 2.59355e-05
12 *403:8 *633:34 0.000137983
13 *2446:A0 *2446:A1 0.000206293
14 *2798:A *2446:A1 0.000262124
*RES
1 *2637:Q *403:8 15.1571 
2 *403:8 *2446:A1 25.3179 
3 *403:8 *2892:A 17.1929 
*END

*D_NET *404 0.000713948
*CONN
*I *2937:A I *D sky130_fd_sc_hd__dlygate4sd3_1
*I *2452:A1 I *D sky130_fd_sc_hd__mux4_1
*I *2638:Q O *D sky130_fd_sc_hd__dfxtp_1
*CAP
1 *2937:A 6.72094e-05
2 *2452:A1 0.000218022
3 *2638:Q 0
4 *404:6 0.000285231
5 *2452:A1 *2452:A2 2.27416e-05
6 *2452:A1 *412:6 2.27416e-05
7 *2452:A1 *655:112 0
8 *2475:S *2452:A1 3.40128e-05
9 *2475:S *2937:A 6.39901e-05
10 *2638:D *2452:A1 0
11 *2638:D *2937:A 0
12 *339:44 *2452:A1 0
13 *339:44 *2937:A 0
*RES
1 *2638:Q *404:6 13.8 
2 *404:6 *2452:A1 18.0321 
3 *404:6 *2937:A 15.4429 
*END

*D_NET *405 0.00146967
*CONN
*I *2938:A I *D sky130_fd_sc_hd__dlygate4sd3_1
*I *2458:A1 I *D sky130_fd_sc_hd__mux4_1
*I *2639:Q O *D sky130_fd_sc_hd__dfxtp_1
*CAP
1 *2938:A 0.000108216
2 *2458:A1 0.000272768
3 *2639:Q 0.000123304
4 *405:6 0.000504288
5 *2458:A1 *2476:A0 0.00021785
6 *2458:A1 *2486:A0 5.26184e-05
7 *2458:A0 *2458:A1 7.8327e-05
8 *2647:D *2458:A1 0
9 *323:102 *2458:A1 0
10 *325:77 *2458:A1 4.29272e-05
11 *325:77 *2938:A 1.24368e-05
12 *325:83 *2458:A1 5.69309e-05
*RES
1 *2639:Q *405:6 11.0679 
2 *405:6 *2458:A1 25.1036 
3 *405:6 *2938:A 11.0857 
*END

*D_NET *406 0.00117443
*CONN
*I *2921:A I *D sky130_fd_sc_hd__dlygate4sd3_1
*I *2464:A1 I *D sky130_fd_sc_hd__mux4_1
*I *2640:Q O *D sky130_fd_sc_hd__dfxtp_1
*CAP
1 *2921:A 9.55269e-05
2 *2464:A1 0.000211051
3 *2640:Q 0.000219408
4 *406:8 0.000525985
5 *2464:A1 *639:124 0
6 *2921:A *639:124 0
7 *406:8 *650:84 9.3562e-05
8 *2485:S *2464:A1 0
9 *2485:S *2921:A 0
10 *28:17 *2464:A1 2.89016e-05
11 *325:93 *2921:A 0
*RES
1 *2640:Q *406:8 16.8 
2 *406:8 *2464:A1 17.4964 
3 *406:8 *2921:A 15.4429 
*END

*D_NET *407 0.00272296
*CONN
*I *2959:A I *D sky130_fd_sc_hd__dlygate4sd3_1
*I *2420:A2 I *D sky130_fd_sc_hd__mux4_1
*I *2625:Q O *D sky130_fd_sc_hd__dfxtp_1
*CAP
1 *2959:A 0.000180463
2 *2420:A2 0.000297778
3 *2625:Q 0.000102672
4 *407:8 0.000580913
5 *2420:A2 *2895:A 9.25014e-06
6 *2420:A2 *415:10 0.000262434
7 *2420:A2 *667:30 1.29244e-05
8 *2420:A2 *667:51 2.49484e-05
9 *2959:A *2619:RESET_B 0.000107195
10 *407:8 *2600:A0 5.31541e-05
11 *407:8 *2619:RESET_B 0.000153143
12 *2976:A *2959:A 0.000481423
13 *2976:A *407:8 5.7616e-05
14 *323:86 *2959:A 0.000191817
15 *327:34 *2420:A2 5.66157e-05
16 *391:10 *407:8 0.000150618
*RES
1 *2625:Q *407:8 17.5679 
2 *407:8 *2420:A2 27.1795 
3 *407:8 *2959:A 19.6393 
*END

*D_NET *408 0.00281354
*CONN
*I *2969:A I *D sky130_fd_sc_hd__dlygate4sd3_1
*I *2427:A2 I *D sky130_fd_sc_hd__mux4_1
*I *2626:Q O *D sky130_fd_sc_hd__dfxtp_1
*CAP
1 *2969:A 0.000256925
2 *2427:A2 8.24713e-05
3 *2626:Q 9.15989e-05
4 *408:6 0.000430995
5 *2427:A2 *2427:A3 0.000218734
6 *2427:A2 *2427:S1 2.524e-05
7 *2969:A *2471:A0 5.41763e-05
8 *2969:A *634:168 0
9 *2969:A *634:176 0.00063576
10 *408:6 *634:176 0.000356015
11 *408:6 *664:82 1.98839e-05
12 *2626:D *408:6 2.27416e-05
13 *2634:D *2427:A2 0.000220441
14 *323:20 *2969:A 0.000207274
15 *323:20 *408:6 5.33005e-05
16 *323:32 *408:6 0.000137983
*RES
1 *2626:Q *408:6 12.7107 
2 *408:6 *2427:A2 21.3937 
3 *408:6 *2969:A 16.0143 
*END

*D_NET *409 0.00304448
*CONN
*I *2434:A2 I *D sky130_fd_sc_hd__mux4_1
*I *2879:A I *D sky130_fd_sc_hd__dlygate4sd3_1
*I *2627:Q O *D sky130_fd_sc_hd__dfxtp_1
*CAP
1 *2434:A2 0.00046355
2 *2879:A 0.000189083
3 *2627:Q 4.43058e-05
4 *409:8 0.000696939
5 *2434:A2 *2434:A3 4.59372e-05
6 *2434:A2 *2434:S0 5.52238e-05
7 *2434:A2 *417:6 3.06878e-06
8 *2879:A *2602:A1 0.000265378
9 *2879:A *2607:S 6.26559e-05
10 *2879:A *644:55 0.000609724
11 *409:8 *2602:A1 0.000202842
12 *409:8 *644:55 0.000194299
13 *2434:A1 *2434:A2 0.000112434
14 *295:16 *2879:A 9.90431e-05
15 *325:93 *2879:A 0
*RES
1 *2627:Q *409:8 16.3536 
2 *409:8 *2879:A 21.2464 
3 *409:8 *2434:A2 20.233 
*END

*D_NET *410 0.00298187
*CONN
*I *2440:A2 I *D sky130_fd_sc_hd__mux4_1
*I *2962:A I *D sky130_fd_sc_hd__dlygate4sd3_1
*I *2628:Q O *D sky130_fd_sc_hd__dfxtp_1
*CAP
1 *2440:A2 0.000299113
2 *2962:A 0
3 *2628:Q 0.000346249
4 *410:12 0.000645362
5 *2440:A2 *2473:A1 0.000186662
6 *2440:A2 *2483:A1 8.46829e-05
7 *2440:A2 *418:10 1.59935e-05
8 *2440:A2 *641:10 0.000176955
9 *2440:A2 *659:116 7.15687e-05
10 *410:12 *2467:S 0
11 *410:12 *2473:A1 0.00022459
12 *410:12 *2624:RESET_B 0.000507035
13 *410:12 *632:14 9.25014e-06
14 *2636:CLK *2440:A2 0.000213363
15 *2636:D *2440:A2 7.3237e-05
16 *299:16 *2440:A2 1.4024e-05
17 *331:80 *410:12 7.15687e-05
18 *355:67 *2440:A2 2.8266e-06
19 *355:90 *410:12 3.93893e-05
*RES
1 *2628:Q *410:12 26.9786 
2 *410:12 *2962:A 9.3 
3 *410:12 *2440:A2 26.9696 
*END

*D_NET *411 0.00327118
*CONN
*I *2961:A I *D sky130_fd_sc_hd__dlygate4sd3_1
*I *2446:A2 I *D sky130_fd_sc_hd__mux4_1
*I *2629:Q O *D sky130_fd_sc_hd__dfxtp_1
*CAP
1 *2961:A 0.000313142
2 *2446:A2 9.99481e-05
3 *2629:Q 0.000490467
4 *411:12 0.000903557
5 *2446:A2 *2446:A3 0.000120322
6 *2446:A2 *2446:S1 6.92626e-05
7 *2446:A2 *647:78 4.47843e-05
8 *2961:A *2446:S1 0.000122417
9 *2961:A *2484:A0 0.000141994
10 *2961:A *647:78 0.000105142
11 *2961:A *650:30 0.00025665
12 *411:12 *657:104 0.000157327
13 *2446:A1 *2446:A2 3.52408e-05
14 *2783:D *2446:A2 0.000105689
15 *2783:D *2961:A 7.83659e-05
16 *2798:A *2446:A2 1.66856e-05
17 *348:36 *411:12 3.67142e-05
18 *348:38 *411:12 0.000173476
*RES
1 *2629:Q *411:12 21.05 
2 *411:12 *2446:A2 17.2911 
3 *411:12 *2961:A 22.5143 
*END

*D_NET *412 0.00136549
*CONN
*I *2452:A2 I *D sky130_fd_sc_hd__mux4_1
*I *2977:A I *D sky130_fd_sc_hd__dlygate4sd3_1
*I *2630:Q O *D sky130_fd_sc_hd__dfxtp_1
*CAP
1 *2452:A2 0.00034749
2 *2977:A 2.23854e-05
3 *2630:Q 0.000182424
4 *412:6 0.000552299
5 *2452:A2 *2495:A1 1.14548e-05
6 *412:6 *2475:A0 1.72894e-05
7 *412:6 *655:83 0.000186662
8 *2452:A1 *2452:A2 2.27416e-05
9 *2452:A1 *412:6 2.27416e-05
*RES
1 *2630:Q *412:6 13.1214 
2 *412:6 *2977:A 9.72857 
3 *412:6 *2452:A2 15.0188 
*END

*D_NET *413 0.00257107
*CONN
*I *2458:A2 I *D sky130_fd_sc_hd__mux4_1
*I *2997:A I *D sky130_fd_sc_hd__dlygate4sd3_1
*I *2631:Q O *D sky130_fd_sc_hd__dfxtp_1
*CAP
1 *2458:A2 7.54949e-05
2 *2997:A 0.00022809
3 *2631:Q 0.000179994
4 *413:10 0.000483579
5 *2458:A2 *2458:A3 0.000171375
6 *2458:A2 *2459:S1 5.80706e-06
7 *2458:A2 *2606:A0 2.3541e-05
8 *2458:A2 *643:157 7.83366e-05
9 *2997:A *421:8 3.32631e-05
10 *2997:A *643:157 0.000707252
11 *413:10 *2458:A3 6.02724e-05
12 *413:10 *2606:A1 5.71472e-05
13 *413:10 *2995:A 5.10822e-05
14 *2460:A3 *2458:A2 1.14548e-05
15 *2496:S *2997:A 0.000171979
16 *323:114 *2458:A2 0
17 *323:114 *413:10 0
18 *334:41 *413:10 0.000232399
*RES
1 *2631:Q *413:10 18.2286 
2 *413:10 *2997:A 21.3179 
3 *413:10 *2458:A2 16.2866 
*END

*D_NET *414 0.00228601
*CONN
*I *2988:A I *D sky130_fd_sc_hd__dlygate4sd3_1
*I *2464:A2 I *D sky130_fd_sc_hd__mux4_1
*I *2632:Q O *D sky130_fd_sc_hd__dfxtp_1
*CAP
1 *2988:A 0.000237341
2 *2464:A2 0.000157573
3 *2632:Q 0.000197928
4 *414:6 0.000592842
5 *2464:A2 *2464:A3 1.04707e-05
6 *2464:A2 *2464:S1 4.6025e-06
7 *2464:A2 *422:10 0.000227878
8 *2988:A *2607:A0 0.000219711
9 *2988:A *652:12 4.08637e-05
10 *2988:A *652:31 0.000125724
11 *414:6 *2607:A0 0.000318101
12 *2466:A3 *2464:A2 1.66856e-05
13 *2466:A3 *2988:A 0.000125724
14 *28:17 *2464:A2 1.05613e-05
15 *323:120 *2464:A2 0
*RES
1 *2632:Q *414:6 12.3 
2 *414:6 *2464:A2 21.7911 
3 *414:6 *2988:A 22.5321 
*END

*D_NET *415 0.0018683
*CONN
*I *2420:A3 I *D sky130_fd_sc_hd__mux4_1
*I *2895:A I *D sky130_fd_sc_hd__dlygate4sd3_1
*I *2779:Q O *D sky130_fd_sc_hd__dfxtp_1
*CAP
1 *2420:A3 0
2 *2895:A 0.000189821
3 *2779:Q 0.000269659
4 *415:10 0.00045948
5 *2895:A *643:126 1.78147e-05
6 *2895:A *667:51 8.15095e-05
7 *2895:A *670:80 0.000155053
8 *415:10 *2600:A0 7.61195e-05
9 *415:10 *667:30 1.58163e-05
10 *2420:A1 *415:10 5.33005e-05
11 *2420:A2 *2895:A 9.25014e-06
12 *2420:A2 *415:10 0.000262434
13 *327:34 *2895:A 0.000138826
14 *329:36 *2895:A 4.01768e-05
15 *334:41 *2895:A 9.90431e-05
*RES
1 *2779:Q *415:10 14.4964 
2 *415:10 *2895:A 24.2286 
3 *415:10 *2420:A3 9.3 
*END

*D_NET *416 0.00206436
*CONN
*I *2427:A3 I *D sky130_fd_sc_hd__mux4_1
*I *2871:A I *D sky130_fd_sc_hd__dlygate4sd3_1
*I *2780:Q O *D sky130_fd_sc_hd__dfxtp_1
*CAP
1 *2427:A3 0.00020208
2 *2871:A 9.98173e-05
3 *2780:Q 4.59739e-05
4 *416:8 0.000347872
5 *2871:A *2601:A0 0.000227539
6 *2871:A *670:64 0.000227539
7 *2427:A2 *2427:A3 0.000218734
8 *2634:D *2427:A3 4.56594e-05
9 *325:26 *416:8 1.40415e-05
10 *333:46 *2427:A3 0.000434069
11 *333:46 *2871:A 3.75052e-05
12 *345:152 *2427:A3 4.19577e-05
13 *345:152 *2871:A 0.000121573
*RES
1 *2780:Q *416:8 14.3357 
2 *416:8 *2871:A 17.6214 
3 *416:8 *2427:A3 20.3357 
*END

*D_NET *417 0.00176768
*CONN
*I *2434:A3 I *D sky130_fd_sc_hd__mux4_1
*I *2894:A I *D sky130_fd_sc_hd__dlygate4sd3_1
*I *2781:Q O *D sky130_fd_sc_hd__dfxtp_1
*CAP
1 *2434:A3 0.000208944
2 *2894:A 0.00014567
3 *2781:Q 0.000226861
4 *417:6 0.000581475
5 *2434:A3 *2434:S0 1.07719e-05
6 *2434:A3 *2460:S1 0
7 *2434:A3 *562:29 2.19684e-05
8 *2894:A *2434:S0 0.000312743
9 *2894:A *2482:A0 7.83659e-05
10 *2894:A *2602:A1 0
11 *2894:A *644:55 0
12 *2434:A1 *417:6 9.84034e-05
13 *2434:A2 *2434:A3 4.59372e-05
14 *2434:A2 *417:6 3.06878e-06
15 *325:93 *2894:A 3.34687e-05
*RES
1 *2781:Q *417:6 11.8893 
2 *417:6 *2894:A 22.3714 
3 *417:6 *2434:A3 21.2107 
*END

*D_NET *418 0.0020217
*CONN
*I *2440:A3 I *D sky130_fd_sc_hd__mux4_1
*I *2975:A I *D sky130_fd_sc_hd__dlygate4sd3_1
*I *2782:Q O *D sky130_fd_sc_hd__dfxtp_1
*CAP
1 *2440:A3 0
2 *2975:A 0.000190186
3 *2782:Q 0.000401988
4 *418:10 0.000592174
5 *2975:A *641:10 2.26973e-05
6 *2975:A *641:12 0.000123362
7 *2975:A *650:32 0.000362531
8 *418:10 *641:10 7.29667e-05
9 *418:10 *650:32 8.32171e-05
10 *2440:A2 *418:10 1.59935e-05
11 *299:16 *418:10 1.75608e-05
12 *355:75 *418:10 0.000139019
*RES
1 *2782:Q *418:10 19.4786 
2 *418:10 *2975:A 19.425 
3 *418:10 *2440:A3 13.8 
*END

*D_NET *419 0.0023799
*CONN
*I *2872:A I *D sky130_fd_sc_hd__dlygate4sd3_1
*I *2446:A3 I *D sky130_fd_sc_hd__mux4_1
*I *2783:Q O *D sky130_fd_sc_hd__dfxtp_1
*CAP
1 *2872:A 0.000158136
2 *2446:A3 0.000544792
3 *2783:Q 0
4 *419:4 0.000702928
5 *2446:A3 *647:78 7.6369e-05
6 *2446:A3 *650:22 0.000268396
7 *2872:A *639:49 7.3237e-05
8 *2446:A2 *2446:A3 0.000120322
9 *2637:CLK *2872:A 5.03772e-05
10 *2783:D *2446:A3 1.76204e-05
11 *333:108 *2872:A 8.64227e-05
12 *348:32 *2872:A 2.61337e-05
13 *348:36 *2446:A3 0.000155395
14 *348:63 *2872:A 9.97744e-05
*RES
1 *2783:Q *419:4 9.3 
2 *419:4 *2446:A3 26.4786 
3 *419:4 *2872:A 22.8179 
*END

*D_NET *420 0.00188658
*CONN
*I *2452:A3 I *D sky130_fd_sc_hd__mux4_1
*I *2880:A I *D sky130_fd_sc_hd__dlygate4sd3_1
*I *2784:Q O *D sky130_fd_sc_hd__dfxtp_1
*CAP
1 *2452:A3 6.3017e-05
2 *2880:A 0.000210449
3 *2784:Q 0.000270565
4 *420:8 0.000544031
5 *2452:A3 *2463:S1 9.11365e-06
6 *2452:A3 *2495:A1 7.83659e-05
7 *2452:A3 *641:110 1.78353e-05
8 *2452:A3 *645:55 3.28804e-05
9 *2452:A3 *645:68 2.10446e-05
10 *2880:A *2450:S0 9.44259e-05
11 *2880:A *2495:A1 8.87691e-05
12 *2880:A *645:55 5.43491e-05
13 *2880:A *656:56 3.57844e-05
14 *2452:A0 *420:8 2.89114e-05
15 *2454:A0 *2880:A 0.000177941
16 *3001:A *420:8 0.000106141
17 *339:44 *2880:A 5.29554e-05
*RES
1 *2784:Q *420:8 17.2107 
2 *420:8 *2880:A 19.925 
3 *420:8 *2452:A3 15.7464 
*END

*D_NET *421 0.00104285
*CONN
*I *2458:A3 I *D sky130_fd_sc_hd__mux4_1
*I *2995:A I *D sky130_fd_sc_hd__dlygate4sd3_1
*I *2785:Q O *D sky130_fd_sc_hd__dfxtp_1
*CAP
1 *2458:A3 0.000150706
2 *2995:A 0.000101774
3 *2785:Q 7.76826e-05
4 *421:8 0.000330162
5 *2458:A3 *654:16 0
6 *2458:A3 *654:20 0
7 *2995:A *654:20 0
8 *2458:A2 *2458:A3 0.000171375
9 *2647:D *2458:A3 6.65302e-05
10 *2997:A *421:8 3.32631e-05
11 *323:114 *2995:A 0
12 *413:10 *2458:A3 6.02724e-05
13 *413:10 *2995:A 5.10822e-05
*RES
1 *2785:Q *421:8 14.7464 
2 *421:8 *2995:A 15.4429 
3 *421:8 *2458:A3 17.6214 
*END

*D_NET *422 0.00276319
*CONN
*I *2464:A3 I *D sky130_fd_sc_hd__mux4_1
*I *2901:A I *D sky130_fd_sc_hd__dlygate4sd3_1
*I *2786:Q O *D sky130_fd_sc_hd__dfxtp_1
*CAP
1 *2464:A3 6.87061e-06
2 *2901:A 0.000842198
3 *2786:Q 0.000189253
4 *422:10 0.00103832
5 *2464:A3 *2487:A1 2.11419e-05
6 *422:10 *2487:A1 0.000295803
7 *422:10 *2844:A 0.00010096
8 *2464:A2 *2464:A3 1.04707e-05
9 *2464:A2 *422:10 0.000227878
10 *323:120 *422:10 0
11 *334:74 *2901:A 2.11419e-05
12 *340:110 *2901:A 9.15186e-06
*RES
1 *2786:Q *422:10 18.6661 
2 *422:10 *2901:A 22.7455 
3 *422:10 *2464:A3 14.0768 
*END

*D_NET *423 0.00294221
*CONN
*I *2998:A I *D sky130_fd_sc_hd__dlygate4sd3_1
*I *2419:A1 I *D sky130_fd_sc_hd__mux4_1
*I *2657:Q O *D sky130_fd_sc_hd__dfxtp_1
*CAP
1 *2998:A 0.000242176
2 *2419:A1 0.0004328
3 *2657:Q 0.000226403
4 *423:8 0.000901379
5 *2419:A1 *2419:A3 1.92905e-05
6 *2419:A1 *2419:S0 1.58163e-05
7 *2419:A1 *2999:A 7.40526e-05
8 *2419:A1 *637:30 1.95705e-05
9 *2998:A *2421:S0 0.000100969
10 *2998:A *2999:A 0.000233234
11 *2998:A *637:30 5.88938e-06
12 *2419:A0 *2419:A1 1.92789e-05
13 *331:31 *2419:A1 2.01651e-05
14 *336:8 *2998:A 0.000304394
15 *337:24 *2998:A 2.04825e-05
16 *337:24 *423:8 0.000306311
*RES
1 *2657:Q *423:8 16.8 
2 *423:8 *2419:A1 19.3893 
3 *423:8 *2998:A 19.9607 
*END

*D_NET *424 0.00247898
*CONN
*I *2910:A I *D sky130_fd_sc_hd__dlygate4sd3_1
*I *2425:A1 I *D sky130_fd_sc_hd__mux4_1
*I *2658:Q O *D sky130_fd_sc_hd__dfxtp_1
*CAP
1 *2910:A 7.73622e-05
2 *2425:A1 0.000452601
3 *2658:Q 0.000251272
4 *424:8 0.000781235
5 *2425:A1 *2429:S 4.58096e-05
6 *2425:A1 *2529:A0 0.00018372
7 *2425:A1 *2529:A1 6.20855e-06
8 *2425:A1 *2855:A 6.27272e-06
9 *2425:A1 *634:52 0
10 *2425:A1 *634:168 0
11 *2425:A1 *705:12 5.12966e-05
12 *2910:A *2429:S 6.25007e-05
13 *2426:A0 *2425:A1 0.000458597
14 *2674:D *2425:A1 1.04232e-05
15 *285:24 *424:8 9.16882e-05
16 *333:98 *2425:A1 0
17 *333:98 *2910:A 0
*RES
1 *2658:Q *424:8 16.8 
2 *424:8 *2425:A1 23.3357 
3 *424:8 *2910:A 15.4429 
*END

*D_NET *425 0.00164463
*CONN
*I *2433:A1 I *D sky130_fd_sc_hd__mux4_1
*I *3000:A I *D sky130_fd_sc_hd__dlygate4sd3_1
*I *2659:Q O *D sky130_fd_sc_hd__dfxtp_1
*CAP
1 *2433:A1 0
2 *3000:A 0.000223673
3 *2659:Q 0.000225455
4 *425:10 0.000449128
5 *3000:A *650:66 8.91542e-05
6 *2433:A0 *3000:A 0.000266092
7 *2659:D *3000:A 0
8 *2659:D *425:10 0
9 *2675:D *3000:A 0.000100831
10 *331:56 *3000:A 0.000140933
11 *333:74 *3000:A 0
12 *333:74 *425:10 0
13 *337:28 *425:10 0
14 *345:20 *3000:A 7.77652e-05
15 *345:72 *3000:A 0
16 *361:22 *425:10 7.15962e-05
*RES
1 *2659:Q *425:10 17.2107 
2 *425:10 *3000:A 20.1393 
3 *425:10 *2433:A1 13.8 
*END

*D_NET *426 0.00167541
*CONN
*I *2992:A I *D sky130_fd_sc_hd__dlygate4sd3_1
*I *2439:A1 I *D sky130_fd_sc_hd__mux4_1
*I *2660:Q O *D sky130_fd_sc_hd__dfxtp_1
*CAP
1 *2992:A 0.000181115
2 *2439:A1 0.000162767
3 *2660:Q 4.91556e-05
4 *426:8 0.000393038
5 *2439:A1 *2513:A0 0.000247771
6 *2439:A1 *2531:A1 5.52302e-05
7 *2992:A *2439:S0 2.82057e-05
8 *2992:A *2513:A0 6.91157e-05
9 *2533:S *426:8 1.58163e-05
10 *2918:A *2439:A1 1.98839e-05
11 *338:44 *2439:A1 0.000100625
12 *342:75 *2439:A1 0.000193589
13 *342:75 *2992:A 0.000126439
14 *342:77 *2439:A1 3.26628e-05
*RES
1 *2660:Q *426:8 14.3357 
2 *426:8 *2439:A1 19.2643 
3 *426:8 *2992:A 17.6214 
*END

*D_NET *427 0.00156606
*CONN
*I *2445:A1 I *D sky130_fd_sc_hd__mux4_1
*I *2889:A I *D sky130_fd_sc_hd__dlygate4sd3_1
*I *2661:Q O *D sky130_fd_sc_hd__dfxtp_1
*CAP
1 *2445:A1 0
2 *2889:A 0.000144487
3 *2661:Q 0.000332045
4 *427:10 0.000476532
5 *2889:A *642:113 5.52302e-05
6 *427:10 *2532:A0 3.9846e-05
7 *427:10 *2532:A1 3.30237e-05
8 *2532:S *427:10 0.000224583
9 *2956:A *2889:A 5.80706e-06
10 *2956:A *427:10 0.000172907
11 *371:10 *2889:A 8.15939e-05
*RES
1 *2661:Q *427:10 20.3893 
2 *427:10 *2889:A 16.8893 
3 *427:10 *2445:A1 13.8 
*END

*D_NET *428 0.00336556
*CONN
*I *2451:A1 I *D sky130_fd_sc_hd__mux4_1
*I *2974:A I *D sky130_fd_sc_hd__dlygate4sd3_1
*I *2662:Q O *D sky130_fd_sc_hd__dfxtp_1
*CAP
1 *2451:A1 9.3601e-05
2 *2974:A 0.000361847
3 *2662:Q 0.000587297
4 *428:10 0.00104275
5 *428:10 *2453:S0 0
6 *2505:S *428:10 0.000104744
7 *2662:D *2451:A1 0.000175519
8 *2662:D *428:10 0.00031918
9 *2676:CLK *2974:A 5.7661e-06
10 *2678:CLK *2974:A 0.000137983
11 *2678:D *2451:A1 7.67408e-05
12 *2678:D *428:10 2.8266e-06
13 *354:38 *2451:A1 0
14 *354:108 *2974:A 0.000457312
*RES
1 *2662:Q *428:10 22.2464 
2 *428:10 *2974:A 21.3357 
3 *428:10 *2451:A1 16.6571 
*END

*D_NET *429 0.00158885
*CONN
*I *2457:A1 I *D sky130_fd_sc_hd__mux4_1
*I *2946:A I *D sky130_fd_sc_hd__dlygate4sd3_1
*I *2663:Q O *D sky130_fd_sc_hd__dfxtp_1
*CAP
1 *2457:A1 0.000114652
2 *2946:A 4.14729e-05
3 *2663:Q 0.000152863
4 *429:8 0.000308987
5 *2457:A1 *2460:S1 0
6 *2457:A1 *2516:A1 2.15363e-05
7 *2457:A1 *2534:A0 3.28897e-05
8 *2457:A1 *654:64 0.000108111
9 *2946:A *2516:A1 1.65558e-05
10 *325:83 *2457:A1 0.000308359
11 *325:83 *2946:A 5.58941e-05
12 *337:95 *2946:A 0.00010096
13 *359:14 *2946:A 9.90431e-05
14 *359:14 *429:8 0.000227526
*RES
1 *2663:Q *429:8 15.9786 
2 *429:8 *2946:A 15.4786 
3 *429:8 *2457:A1 17.8714 
*END

*D_NET *430 0.00149235
*CONN
*I *2935:A I *D sky130_fd_sc_hd__dlygate4sd3_1
*I *2463:A1 I *D sky130_fd_sc_hd__mux4_1
*I *2664:Q O *D sky130_fd_sc_hd__dfxtp_1
*CAP
1 *2935:A 0.000113272
2 *2463:A1 0.000175002
3 *2664:Q 6.59684e-05
4 *430:8 0.000354242
5 *2463:A1 *637:104 4.25716e-05
6 *2463:A1 *639:111 0
7 *2463:A1 *639:124 0
8 *2463:A1 *652:33 0
9 *2935:A *642:78 3.67142e-05
10 *2466:A2 *2463:A1 0.000125717
11 *2466:A2 *2935:A 0.000243627
12 *2466:A3 *2463:A1 5.26184e-05
13 *2466:A3 *2935:A 8.45386e-05
14 *2473:S *430:8 9.90367e-05
15 *338:123 *2935:A 9.90367e-05
*RES
1 *2664:Q *430:8 14.7464 
2 *430:8 *2463:A1 17.8714 
3 *430:8 *2935:A 17.9071 
*END

*D_NET *431 0.00144028
*CONN
*I *2419:A2 I *D sky130_fd_sc_hd__mux4_1
*I *2926:A I *D sky130_fd_sc_hd__dlygate4sd3_1
*I *2705:Q O *D sky130_fd_sc_hd__dfxtp_1
*CAP
1 *2419:A2 0.00023889
2 *2926:A 0
3 *2705:Q 0.000265382
4 *431:8 0.000504271
5 *2419:A2 *2999:A 2.8266e-06
6 *2419:A2 *439:16 4.03318e-05
7 *2419:A2 *637:30 0.000359839
8 *431:8 *2565:A0 1.72894e-05
9 *264:20 *2419:A2 0
10 *331:31 *2419:A2 1.14548e-05
*RES
1 *2705:Q *431:8 13.4429 
2 *431:8 *2926:A 9.3 
3 *431:8 *2419:A2 23.7509 
*END

*D_NET *432 0.00300318
*CONN
*I *2958:A I *D sky130_fd_sc_hd__dlygate4sd3_1
*I *2425:A2 I *D sky130_fd_sc_hd__mux4_1
*I *2706:Q O *D sky130_fd_sc_hd__dfxtp_1
*CAP
1 *2958:A 0.000315561
2 *2425:A2 0.000123542
3 *2706:Q 8.872e-05
4 *432:6 0.000527823
5 *2425:A2 *2425:S1 2.921e-05
6 *2958:A *2424:S0 4.13496e-05
7 *2958:A *2566:A0 3.67345e-05
8 *2958:A *2575:A0 6.84283e-05
9 *2958:A *2575:A1 2.86192e-05
10 *2958:A *665:6 8.36572e-05
11 *2958:A *665:10 0.00051756
12 *432:6 *2424:S0 4.43256e-05
13 *2426:A0 *2425:A2 9.75337e-06
14 *2575:S *2958:A 5.33005e-05
15 *2714:D *2958:A 0.000221634
16 *2714:D *432:6 9.90367e-05
17 *285:24 *432:6 5.52302e-05
18 *325:34 *2425:A2 0.000233124
19 *338:22 *2958:A 5.33005e-05
20 *338:32 *2958:A 8.17274e-05
21 *338:32 *432:6 0.000181803
22 *339:142 *2425:A2 0.000108742
*RES
1 *2706:Q *432:6 11.8893 
2 *432:6 *2425:A2 21.7911 
3 *432:6 *2958:A 18.0679 
*END

*D_NET *433 0.00180011
*CONN
*I *2433:A2 I *D sky130_fd_sc_hd__mux4_1
*I *2911:A I *D sky130_fd_sc_hd__dlygate4sd3_1
*I *2707:Q O *D sky130_fd_sc_hd__dfxtp_1
*CAP
1 *2433:A2 0.000197021
2 *2911:A 0.000398735
3 *2707:Q 0
4 *433:6 0.000595756
5 *2433:A2 *2433:A3 8.47609e-05
6 *2433:A2 *2433:S1 1.76039e-05
7 *2433:A2 *650:84 6.20706e-05
8 *2911:A *2567:A0 3.18676e-05
9 *2675:CLK *2433:A2 0
10 *331:80 *2911:A 0.000197991
11 *338:109 *2433:A2 9.45575e-05
12 *338:109 *2911:A 4.79842e-05
13 *338:123 *2911:A 7.17603e-05
14 *345:72 *2433:A2 0
15 *345:72 *2911:A 0
*RES
1 *2707:Q *433:6 13.8 
2 *433:6 *2911:A 22.1036 
3 *433:6 *2433:A2 18.8268 
*END

*D_NET *434 0.00179114
*CONN
*I *2989:A I *D sky130_fd_sc_hd__dlygate4sd3_1
*I *2439:A2 I *D sky130_fd_sc_hd__mux4_1
*I *2708:Q O *D sky130_fd_sc_hd__dfxtp_1
*CAP
1 *2989:A 4.92113e-05
2 *2439:A2 0.000480124
3 *2708:Q 0
4 *434:6 0.000529335
5 *2439:A2 *2439:A3 4.46186e-06
6 *2439:A2 *2439:S0 0
7 *2439:A2 *2441:S0 0
8 *2439:A2 *2577:A1 9.71197e-05
9 *2439:A2 *641:143 3.88799e-05
10 *2439:A2 *659:116 4.11196e-05
11 *2989:A *641:143 4.79842e-05
12 *2989:A *659:116 4.38511e-05
13 *2533:S *2439:A2 0.000442363
14 *338:44 *2439:A2 1.66955e-05
*RES
1 *2708:Q *434:6 13.8 
2 *434:6 *2439:A2 32.2911 
3 *434:6 *2989:A 15.4429 
*END

*D_NET *435 0.00203572
*CONN
*I *2445:A2 I *D sky130_fd_sc_hd__mux4_1
*I *2876:A I *D sky130_fd_sc_hd__dlygate4sd3_1
*I *2709:Q O *D sky130_fd_sc_hd__dfxtp_1
*CAP
1 *2445:A2 0.000362075
2 *2876:A 0.000211876
3 *2709:Q 0.000283118
4 *435:6 0.000857068
5 *2876:A *2532:A1 1.65169e-05
6 *435:6 *2578:A0 2.89114e-05
7 *435:6 *2578:A1 5.03772e-05
8 *2448:A0 *2445:A2 5.33005e-05
9 *2448:A0 *2876:A 3.34672e-05
10 *2448:A1 *2876:A 0.000101545
11 *2661:CLK *2876:A 1.58163e-05
12 *2717:D *435:6 1.56e-05
13 *347:129 *435:6 6.05161e-06
*RES
1 *2709:Q *435:6 13.5321 
2 *435:6 *2876:A 21.7286 
3 *435:6 *2445:A2 15.1125 
*END

*D_NET *436 0.00187489
*CONN
*I *2924:A I *D sky130_fd_sc_hd__dlygate4sd3_1
*I *2451:A2 I *D sky130_fd_sc_hd__mux4_1
*I *2710:Q O *D sky130_fd_sc_hd__dfxtp_1
*CAP
1 *2924:A 4.29665e-05
2 *2451:A2 0.00019401
3 *2710:Q 0.000258689
4 *436:8 0.000495665
5 *2451:A2 *641:42 0.000229691
6 *2451:A2 *645:121 0
7 *2451:A2 *656:23 5.41794e-05
8 *2924:A *641:42 0.000153054
9 *2924:A *656:23 0.000117196
10 *2924:A *656:56 3.34366e-05
11 *436:8 *2570:A0 4.87953e-05
12 *436:8 *2570:A1 4.72818e-05
13 *2454:A0 *2451:A2 6.07232e-05
14 *2570:S *436:8 9.41642e-05
15 *2577:S *2451:A2 2.22958e-05
16 *2710:D *436:8 2.27416e-05
*RES
1 *2710:Q *436:8 18.0321 
2 *436:8 *2451:A2 27.0589 
3 *436:8 *2924:A 15.7464 
*END

*D_NET *437 0.00247223
*CONN
*I *2933:A I *D sky130_fd_sc_hd__dlygate4sd3_1
*I *2457:A2 I *D sky130_fd_sc_hd__mux4_1
*I *2711:Q O *D sky130_fd_sc_hd__dfxtp_1
*CAP
1 *2933:A 2.26257e-05
2 *2457:A2 8.85648e-05
3 *2711:Q 0.000243072
4 *437:12 0.000354263
5 *2457:A2 *2457:A3 0.000173804
6 *2933:A *2580:A1 8.36572e-05
7 *437:12 *2571:A0 6.76272e-05
8 *437:12 *2580:A1 0.000532706
9 *2460:A0 *2457:A2 6.19181e-05
10 *2460:A2 *437:12 2.42516e-05
11 *2580:S *2457:A2 1.00442e-05
12 *323:114 *437:12 0.000312736
13 *341:40 *2457:A2 0
14 *341:40 *2933:A 9.60939e-05
15 *341:40 *437:12 0.000400867
*RES
1 *2711:Q *437:12 27.0143 
2 *437:12 *2457:A2 20.7866 
3 *437:12 *2933:A 10.2464 
*END

*D_NET *438 0.00146335
*CONN
*I *2973:A I *D sky130_fd_sc_hd__dlygate4sd3_1
*I *2463:A2 I *D sky130_fd_sc_hd__mux4_1
*I *2712:Q O *D sky130_fd_sc_hd__dfxtp_1
*CAP
1 *2973:A 0.000136513
2 *2463:A2 0.000286929
3 *2712:Q 0
4 *438:6 0.000423442
5 *2463:A2 *2517:A0 2.79092e-05
6 *2463:A2 *446:8 0.000129965
7 *2973:A *2517:A0 6.85873e-05
8 *2466:A0 *2463:A2 0.000187026
9 *2466:A1 *2463:A2 0
10 *2475:S *2463:A2 0.000118784
11 *2475:S *2973:A 7.79781e-06
12 *323:126 *2973:A 7.63945e-05
*RES
1 *2712:Q *438:6 13.8 
2 *438:6 *2463:A2 21.0768 
3 *438:6 *2973:A 16.9607 
*END

*D_NET *439 0.00244526
*CONN
*I *2999:A I *D sky130_fd_sc_hd__dlygate4sd3_1
*I *2419:A3 I *D sky130_fd_sc_hd__mux4_1
*I *2713:Q O *D sky130_fd_sc_hd__dfxtp_1
*CAP
1 *2999:A 0.000157615
2 *2419:A3 3.29528e-05
3 *2713:Q 0.000411365
4 *439:16 0.000601933
5 *2999:A *637:30 0
6 *439:16 *2574:A1 5.03772e-05
7 *439:16 *666:93 2.15245e-05
8 *439:16 *666:106 5.45662e-05
9 *2419:A1 *2419:A3 1.92905e-05
10 *2419:A1 *2999:A 7.40526e-05
11 *2419:A2 *2999:A 2.8266e-06
12 *2419:A2 *439:16 4.03318e-05
13 *2713:D *439:16 0.000102545
14 *2998:A *2999:A 0.000233234
15 *264:20 *2999:A 0.00036446
16 *264:20 *439:16 0.00012401
17 *331:31 *2419:A3 5.33433e-05
18 *342:67 *439:16 0.000100831
*RES
1 *2713:Q *439:16 29.6036 
2 *439:16 *2419:A3 14.7464 
3 *439:16 *2999:A 18.7821 
*END

*D_NET *440 0.00178546
*CONN
*I *2425:A3 I *D sky130_fd_sc_hd__mux4_1
*I *2897:A I *D sky130_fd_sc_hd__dlygate4sd3_1
*I *2714:Q O *D sky130_fd_sc_hd__dfxtp_1
*CAP
1 *2425:A3 0.000305088
2 *2897:A 0.000189317
3 *2714:Q 0
4 *440:4 0.000494405
5 *2425:A3 *2424:S0 1.43349e-05
6 *2425:A3 *2425:S1 1.24815e-05
7 *2425:A3 *2566:A1 2.70271e-05
8 *2425:A3 *647:89 4.89311e-05
9 *2426:A0 *2425:A3 6.19471e-06
10 *2714:D *2897:A 7.90803e-05
11 *285:24 *2425:A3 7.94417e-05
12 *285:24 *2897:A 5.76422e-05
13 *325:34 *2425:A3 0.000322546
14 *325:34 *2897:A 0
15 *338:22 *2425:A3 8.99146e-05
16 *345:128 *2897:A 5.90581e-05
*RES
1 *2714:Q *440:4 9.3 
2 *440:4 *2897:A 21.9964 
3 *440:4 *2425:A3 24.6527 
*END

*D_NET *441 0.00355317
*CONN
*I *2433:A3 I *D sky130_fd_sc_hd__mux4_1
*I *2887:A I *D sky130_fd_sc_hd__dlygate4sd3_1
*I *2715:Q O *D sky130_fd_sc_hd__dfxtp_1
*CAP
1 *2433:A3 0.000646942
2 *2887:A 0
3 *2715:Q 0.000336109
4 *441:12 0.000983051
5 *2433:A3 *2576:A0 1.98839e-05
6 *2433:A3 *2576:A1 0.000136951
7 *2433:A3 *650:66 0
8 *2433:A3 *650:84 5.37473e-05
9 *2433:A3 *663:33 0.000143557
10 *2433:A3 *663:37 0.000146474
11 *441:12 *637:125 0.000268521
12 *441:12 *650:84 0.000353079
13 *2433:A2 *2433:A3 8.47609e-05
14 *2576:S *2433:A3 9.47712e-05
15 *2707:CLK *441:12 2.61337e-05
16 *327:65 *441:12 0.000112711
17 *338:109 *2433:A3 0.000146474
*RES
1 *2715:Q *441:12 25.175 
2 *441:12 *2887:A 9.3 
3 *441:12 *2433:A3 30.3893 
*END

*D_NET *442 0.00222975
*CONN
*I *2439:A3 I *D sky130_fd_sc_hd__mux4_1
*I *2882:A I *D sky130_fd_sc_hd__dlygate4sd3_1
*I *2716:Q O *D sky130_fd_sc_hd__dfxtp_1
*CAP
1 *2439:A3 0.000313877
2 *2882:A 0.000154441
3 *2716:Q 0.000150183
4 *442:6 0.000618502
5 *2439:A3 *2439:S0 1.41706e-05
6 *2439:A3 *2441:S0 0
7 *2439:A3 *2513:A0 0
8 *2882:A *2441:S0 0.000315179
9 *2439:A2 *2439:A3 4.46186e-06
10 *2442:A0 *2882:A 0.000125731
11 *2515:S *2439:A3 0.000303747
12 *2515:S *442:6 0.000229456
13 *300:14 *2882:A 0
*RES
1 *2716:Q *442:6 11.4786 
2 *442:6 *2882:A 22.3714 
3 *442:6 *2439:A3 23.2464 
*END

*D_NET *443 0.00346755
*CONN
*I *2886:A I *D sky130_fd_sc_hd__dlygate4sd3_1
*I *2445:A3 I *D sky130_fd_sc_hd__mux4_1
*I *2717:Q O *D sky130_fd_sc_hd__dfxtp_1
*CAP
1 *2886:A 0.000170882
2 *2445:A3 7.54338e-05
3 *2717:Q 0.000603006
4 *443:10 0.000849322
5 *2886:A *2445:S0 0.00036083
6 *2886:A *669:40 0.000117543
7 *2886:A *678:12 0.000224583
8 *443:10 *2445:S0 9.25014e-06
9 *443:10 *642:113 7.06444e-05
10 *2677:CLK *443:10 0.000102207
11 *2677:D *443:10 0.000360308
12 *333:108 *2886:A 0.000196276
13 *333:122 *2886:A 0.000164554
14 *333:122 *443:10 0.000162712
15 *371:10 *443:10 0
*RES
1 *2717:Q *443:10 22.8536 
2 *443:10 *2445:A3 14.7464 
3 *443:10 *2886:A 20.6571 
*END

*D_NET *444 0.00101957
*CONN
*I *2996:A I *D sky130_fd_sc_hd__dlygate4sd3_1
*I *2451:A3 I *D sky130_fd_sc_hd__mux4_1
*I *2718:Q O *D sky130_fd_sc_hd__dfxtp_1
*CAP
1 *2996:A 0
2 *2451:A3 0.000117519
3 *2718:Q 0.000258445
4 *444:8 0.000375964
5 *2451:A3 *2453:S0 0
6 *2451:A3 *641:42 4.1331e-06
7 *2451:A3 *641:50 7.49239e-05
8 *444:8 *641:50 0.000188586
*RES
1 *2718:Q *444:8 13.0321 
2 *444:8 *2451:A3 20.8536 
3 *444:8 *2996:A 9.3 
*END

*D_NET *445 0.00206248
*CONN
*I *2986:A I *D sky130_fd_sc_hd__dlygate4sd3_1
*I *2457:A3 I *D sky130_fd_sc_hd__mux4_1
*I *2719:Q O *D sky130_fd_sc_hd__dfxtp_1
*CAP
1 *2986:A 0.000321016
2 *2457:A3 9.58761e-05
3 *2719:Q 7.00235e-05
4 *445:6 0.000486916
5 *2457:A3 *654:20 7.63758e-05
6 *2457:A2 *2457:A3 0.000173804
7 *2460:A0 *2457:A3 1.37292e-05
8 *2460:A2 *445:6 0.000185643
9 *341:40 *2986:A 0.000367746
10 *341:40 *445:6 0.000271345
*RES
1 *2719:Q *445:6 11.8893 
2 *445:6 *2457:A3 21.1571 
3 *445:6 *2986:A 15.6036 
*END

*D_NET *446 0.00180908
*CONN
*I *2463:A3 I *D sky130_fd_sc_hd__mux4_1
*I *2883:A I *D sky130_fd_sc_hd__dlygate4sd3_1
*I *2720:Q O *D sky130_fd_sc_hd__dfxtp_1
*CAP
1 *2463:A3 1.34132e-05
2 *2883:A 0.000160811
3 *2720:Q 0.0003626
4 *446:8 0.000536824
5 *2463:A3 *2463:S0 3.17163e-05
6 *2883:A *2463:S0 8.2395e-05
7 *2883:A *2463:S1 5.52302e-05
8 *2883:A *645:68 7.6021e-05
9 *2463:A2 *446:8 0.000129965
10 *2466:A0 *446:8 9.8016e-06
11 *2466:A1 *2463:A3 4.90803e-05
12 *2466:A1 *2883:A 0.000262941
13 *320:22 *2883:A 1.33343e-05
14 *339:44 *2883:A 2.49484e-05
*RES
1 *2720:Q *446:8 18.4429 
2 *446:8 *2883:A 18.4071 
3 *446:8 *2463:A3 14.5321 
*END

*D_NET *447 0.00326026
*CONN
*I *2900:A I *D sky130_fd_sc_hd__dlygate4sd3_1
*I *2418:A0 I *D sky130_fd_sc_hd__mux4_1
*I *2747:Q O *D sky130_fd_sc_hd__dfxtp_1
*CAP
1 *2900:A 0.000150326
2 *2418:A0 0.000264708
3 *2747:Q 0.000229613
4 *447:10 0.000644647
5 *2418:A0 *2418:A2 0.000157585
6 *447:10 *643:116 0
7 *447:10 *666:86 0.000407078
8 *2422:A2 *2900:A 0.000317082
9 *2534:S *2418:A0 0.000389077
10 *2534:S *2900:A 6.09242e-05
11 *2823:A *447:10 0.000239808
12 *337:24 *2900:A 0.000227539
13 *337:26 *447:10 0
14 *337:28 *447:10 0
15 *359:55 *447:10 0.000171877
*RES
1 *2747:Q *447:10 25.1036 
2 *447:10 *2418:A0 16.6929 
3 *447:10 *2900:A 14.0857 
*END

*D_NET *448 0.00113706
*CONN
*I *2424:A0 I *D sky130_fd_sc_hd__mux4_1
*I *2931:A I *D sky130_fd_sc_hd__dlygate4sd3_1
*I *2748:Q O *D sky130_fd_sc_hd__dfxtp_1
*CAP
1 *2424:A0 0.000135092
2 *2931:A 4.99026e-05
3 *2748:Q 6.94563e-05
4 *448:8 0.000254451
5 *2424:A0 *456:10 6.25007e-05
6 *2483:S *2931:A 2.44318e-05
7 *2706:CLK *2424:A0 4.19577e-05
8 *2748:D *2424:A0 7.83659e-05
9 *2748:D *2931:A 0.000134304
10 *340:24 *2424:A0 0.000106091
11 *340:24 *2931:A 3.10821e-05
12 *360:33 *2931:A 9.60939e-05
13 *360:33 *448:8 5.33334e-05
*RES
1 *2748:Q *448:8 14.7464 
2 *448:8 *2931:A 15.7821 
3 *448:8 *2424:A0 17.8714 
*END

*D_NET *449 0.000957702
*CONN
*I *2951:A I *D sky130_fd_sc_hd__dlygate4sd3_1
*I *2432:A0 I *D sky130_fd_sc_hd__mux4_1
*I *2749:Q O *D sky130_fd_sc_hd__dfxtp_1
*CAP
1 *2951:A 0.00017389
2 *2432:A0 0
3 *2749:Q 4.02468e-05
4 *449:10 0.000214137
5 *2749:D *449:10 0.000127439
6 *292:16 *2951:A 0.00018612
7 *340:100 *449:10 0.000125724
8 *342:36 *2951:A 9.0145e-05
*RES
1 *2749:Q *449:10 19.9429 
2 *449:10 *2432:A0 9.3 
3 *449:10 *2951:A 13.1214 
*END

*D_NET *450 0.0026503
*CONN
*I *2913:A I *D sky130_fd_sc_hd__dlygate4sd3_1
*I *2438:A0 I *D sky130_fd_sc_hd__mux4_1
*I *2750:Q O *D sky130_fd_sc_hd__dfxtp_1
*CAP
1 *2913:A 0.000703762
2 *2438:A0 0.000119874
3 *2750:Q 9.28567e-05
4 *450:12 0.000916493
5 *2913:A *2595:A0 0.000178385
6 *450:12 *637:90 5.52302e-05
7 *2586:S *2913:A 0.000352962
8 *2595:S *2913:A 2.59355e-05
9 *2750:D *450:12 7.83659e-05
10 *299:16 *450:12 0.000126439
11 *337:30 *450:12 0
*RES
1 *2750:Q *450:12 20.4786 
2 *450:12 *2438:A0 11.0679 
3 *450:12 *2913:A 20.7107 
*END

*D_NET *451 0.00239971
*CONN
*I *2982:A I *D sky130_fd_sc_hd__dlygate4sd3_1
*I *2444:A0 I *D sky130_fd_sc_hd__mux4_1
*I *2751:Q O *D sky130_fd_sc_hd__dfxtp_1
*CAP
1 *2982:A 0.000205943
2 *2444:A0 0.000700208
3 *2751:Q 0
4 *451:4 0.000906151
5 *2444:A0 *2444:A2 0.000159225
6 *2444:A0 *2444:S0 5.52238e-05
7 *2444:A0 *467:10 6.09572e-05
8 *2444:A0 *634:78 4.00704e-05
9 *2444:A0 *657:104 3.38229e-05
10 *2982:A *639:73 0.00015732
11 *347:47 *2444:A0 8.07879e-05
*RES
1 *2751:Q *451:4 9.3 
2 *451:4 *2444:A0 29.175 
3 *451:4 *2982:A 12.7286 
*END

*D_NET *452 0.000641263
*CONN
*I *2450:A0 I *D sky130_fd_sc_hd__mux4_1
*I *2948:A I *D sky130_fd_sc_hd__dlygate4sd3_1
*I *2752:Q O *D sky130_fd_sc_hd__dfxtp_1
*CAP
1 *2450:A0 9.78354e-05
2 *2948:A 0.000128535
3 *2752:Q 0
4 *452:4 0.000226371
5 *2450:A0 *641:77 4.93196e-05
6 *2752:D *2948:A 0.000139202
*RES
1 *2752:Q *452:4 9.3 
2 *452:4 *2948:A 11.8 
3 *452:4 *2450:A0 19.9429 
*END

*D_NET *453 0.00143872
*CONN
*I *2927:A I *D sky130_fd_sc_hd__dlygate4sd3_1
*I *2456:A0 I *D sky130_fd_sc_hd__mux4_1
*I *2753:Q O *D sky130_fd_sc_hd__dfxtp_1
*CAP
1 *2927:A 0.000269751
2 *2456:A0 1.42798e-05
3 *2753:Q 0.000408255
4 *453:12 0.000692285
5 *2456:A0 *2456:A1 2.17647e-05
6 *2456:A0 *2456:A2 2.89016e-05
7 *2927:A *2966:A 0
8 *2927:A *469:10 0
9 *453:12 *2456:S0 3.4846e-06
10 *2562:S *453:12 0
*RES
1 *2753:Q *453:12 19.2821 
2 *453:12 *2456:A0 14.3357 
3 *453:12 *2927:A 18.4786 
*END

*D_NET *454 0.00172837
*CONN
*I *2934:A I *D sky130_fd_sc_hd__dlygate4sd3_1
*I *2462:A0 I *D sky130_fd_sc_hd__mux4_1
*I *2754:Q O *D sky130_fd_sc_hd__dfxtp_1
*CAP
1 *2934:A 0.000202957
2 *2462:A0 0.000257479
3 *2754:Q 0.000214626
4 *454:6 0.000675062
5 *2462:A0 *2462:A2 2.17647e-05
6 *2462:A0 *2462:A3 2.89016e-05
7 *2934:A *2844:A 9.33521e-05
8 *454:6 *2844:A 0.000171771
9 *2616:S *2934:A 6.24558e-05
10 *337:107 *2462:A0 0
*RES
1 *2754:Q *454:6 12.3 
2 *454:6 *2462:A0 22.6571 
3 *454:6 *2934:A 21.7107 
*END

*D_NET *455 0.00215591
*CONN
*I *2870:A I *D sky130_fd_sc_hd__dlygate4sd3_1
*I *2418:A1 I *D sky130_fd_sc_hd__mux4_1
*I *2722:Q O *D sky130_fd_sc_hd__dfxtp_1
*CAP
1 *2870:A 0.000420797
2 *2418:A1 0.000140307
3 *2722:Q 0
4 *455:4 0.000561104
5 *2418:A1 *2939:A 0.000249486
6 *2418:A1 *633:129 0.000245335
7 *2418:A1 *646:82 9.60939e-05
8 *2870:A *2547:A1 4.65158e-06
9 *2870:A *2875:A 7.83659e-05
10 *2870:A *471:8 8.81471e-06
11 *2870:A *643:126 0.000118189
12 *2870:A *646:82 8.27532e-05
13 *2870:A *670:76 1.98839e-05
14 *2870:A *670:80 0
15 *2722:D *2870:A 5.17614e-05
16 *2747:D *2870:A 7.83659e-05
*RES
1 *2722:Q *455:4 9.3 
2 *455:4 *2418:A1 22.4071 
3 *455:4 *2870:A 25.3714 
*END

*D_NET *456 0.00220019
*CONN
*I *2990:A I *D sky130_fd_sc_hd__dlygate4sd3_1
*I *2424:A1 I *D sky130_fd_sc_hd__mux4_1
*I *2723:Q O *D sky130_fd_sc_hd__dfxtp_1
*CAP
1 *2990:A 0.00034936
2 *2424:A1 0
3 *2723:Q 0.000353346
4 *456:10 0.000702706
5 *2990:A *2584:A0 5.52302e-05
6 *456:10 *2593:A1 0.000128886
7 *2424:A0 *456:10 6.25007e-05
8 *2706:CLK *456:10 0.000125243
9 *2723:D *456:10 5.52238e-05
10 *331:56 *2990:A 0.000170964
11 *340:24 *2990:A 0
12 *340:24 *456:10 0
13 *341:103 *2990:A 0.000181588
14 *341:103 *456:10 1.32511e-05
15 *345:12 *2990:A 1.89507e-06
*RES
1 *2723:Q *456:10 19.5679 
2 *456:10 *2424:A1 13.8 
3 *456:10 *2990:A 21.4786 
*END

*D_NET *457 0.0014864
*CONN
*I *2432:A1 I *D sky130_fd_sc_hd__mux4_1
*I *2994:A I *D sky130_fd_sc_hd__dlygate4sd3_1
*I *2724:Q O *D sky130_fd_sc_hd__dfxtp_1
*CAP
1 *2432:A1 0
2 *2994:A 0.000172763
3 *2724:Q 0.000189029
4 *457:10 0.000361792
5 *457:10 *2594:A0 0.000101545
6 *2724:CLK *457:10 6.28356e-05
7 *340:100 *2994:A 0.000191881
8 *340:100 *457:10 7.79154e-05
9 *341:59 *2994:A 3.75052e-05
10 *342:36 *2994:A 4.25619e-05
11 *342:36 *457:10 2.39779e-05
12 *356:107 *2994:A 0.00022459
*RES
1 *2724:Q *457:10 17.5143 
2 *457:10 *2994:A 18.5321 
3 *457:10 *2432:A1 13.8 
*END

*D_NET *458 0.00100596
*CONN
*I *2954:A I *D sky130_fd_sc_hd__dlygate4sd3_1
*I *2438:A1 I *D sky130_fd_sc_hd__mux4_1
*I *2725:Q O *D sky130_fd_sc_hd__dfxtp_1
*CAP
1 *2954:A 7.23827e-05
2 *2438:A1 9.84328e-05
3 *2725:Q 2.23854e-05
4 *458:6 0.000193201
5 *2550:S *2438:A1 5.33433e-05
6 *2550:S *2954:A 0.000169383
7 *2725:D *2438:A1 5.33433e-05
8 *2725:D *2954:A 0.000161947
9 *299:16 *2438:A1 7.26935e-05
10 *337:30 *2438:A1 0.000108848
*RES
1 *2725:Q *458:6 9.72857 
2 *458:6 *2438:A1 21.8 
3 *458:6 *2954:A 12.3 
*END

*D_NET *459 0.00291285
*CONN
*I *2444:A1 I *D sky130_fd_sc_hd__mux4_1
*I *2907:A I *D sky130_fd_sc_hd__dlygate4sd3_1
*I *2726:Q O *D sky130_fd_sc_hd__dfxtp_1
*CAP
1 *2444:A1 4.31276e-05
2 *2907:A 0.000186052
3 *2726:Q 0.000696315
4 *459:10 0.000925495
5 *2444:A1 *634:78 9.71197e-05
6 *2907:A *2560:A0 9.7659e-05
7 *2907:A *634:78 9.64979e-05
8 *2907:A *637:90 2.14658e-05
9 *459:10 *2551:A1 3.92757e-05
10 *2586:S *2907:A 9.25014e-06
11 *2586:S *459:10 0.00021192
12 *2595:S *2907:A 0.00014183
13 *2726:D *459:10 5.51689e-05
14 *340:24 *459:10 0.000101545
15 *341:105 *459:10 0
16 *347:34 *2907:A 0.000103266
17 *347:34 *459:10 8.68665e-05
*RES
1 *2726:Q *459:10 24.1571 
2 *459:10 *2907:A 18.6571 
3 *459:10 *2444:A1 14.7464 
*END

*D_NET *460 0.0011036
*CONN
*I *2917:A I *D sky130_fd_sc_hd__dlygate4sd3_1
*I *2450:A1 I *D sky130_fd_sc_hd__mux4_1
*I *2727:Q O *D sky130_fd_sc_hd__dfxtp_1
*CAP
1 *2917:A 0.000187768
2 *2450:A1 0.000177056
3 *2727:Q 8.91218e-05
4 *460:8 0.000453945
5 *2450:A1 *2450:A3 0
6 *2450:A1 *2890:A 0
7 *2917:A *2890:A 0
8 *2588:S *2917:A 0
9 *2784:CLK *2450:A1 3.17067e-05
10 *2784:CLK *2917:A 8.68569e-05
11 *334:80 *2450:A1 0
12 *346:14 *2917:A 7.71417e-05
*RES
1 *2727:Q *460:8 14.7464 
2 *460:8 *2450:A1 16.9607 
3 *460:8 *2917:A 17.8714 
*END

*D_NET *461 0.00249354
*CONN
*I *2456:A1 I *D sky130_fd_sc_hd__mux4_1
*I *2942:A I *D sky130_fd_sc_hd__dlygate4sd3_1
*I *2728:Q O *D sky130_fd_sc_hd__dfxtp_1
*CAP
1 *2456:A1 0.000766842
2 *2942:A 0.000120051
3 *2728:Q 2.65365e-05
4 *461:8 0.000913429
5 *2456:A1 *2456:A2 8.02902e-05
6 *2456:A1 *2598:A0 7.6997e-05
7 *2456:A1 *646:120 0.000213799
8 *2942:A *2456:S1 0
9 *2942:A *646:42 0.000123072
10 *2942:A *646:120 9.58119e-05
11 *2456:A0 *2456:A1 2.17647e-05
12 *357:26 *461:8 5.49489e-05
*RES
1 *2728:Q *461:8 14.3357 
2 *461:8 *2942:A 16.6571 
3 *461:8 *2456:A1 24.9964 
*END

*D_NET *462 0.00182039
*CONN
*I *2932:A I *D sky130_fd_sc_hd__dlygate4sd3_1
*I *2462:A1 I *D sky130_fd_sc_hd__mux4_1
*I *2729:Q O *D sky130_fd_sc_hd__dfxtp_1
*CAP
1 *2932:A 0.000235957
2 *2462:A1 0.000507702
3 *2729:Q 0
4 *462:4 0.000743659
5 *2462:A1 *2462:A2 0
6 *2462:A1 *645:101 0.000181374
7 *2561:S *2462:A1 0
8 *2729:D *2462:A1 0.000145644
9 *338:123 *2932:A 6.05161e-06
*RES
1 *2729:Q *462:4 9.3 
2 *462:4 *2462:A1 25.4071 
3 *462:4 *2932:A 13.0321 
*END

*D_NET *463 0.00254904
*CONN
*I *2418:A2 I *D sky130_fd_sc_hd__mux4_1
*I *2939:A I *D sky130_fd_sc_hd__dlygate4sd3_1
*I *2697:Q O *D sky130_fd_sc_hd__dfxtp_1
*CAP
1 *2418:A2 0.000439807
2 *2939:A 0.000220089
3 *2697:Q 0
4 *463:4 0.000659896
5 *2418:A2 *2418:A3 1.02504e-05
6 *2418:A2 *643:116 5.55449e-05
7 *2939:A *633:129 0.000186451
8 *2939:A *666:28 8.24047e-05
9 *2418:A0 *2418:A2 0.000157585
10 *2418:A1 *2939:A 0.000249486
11 *2534:S *2418:A2 1.13406e-05
12 *2583:S *2939:A 0.000459929
13 *2747:D *2418:A2 1.62544e-05
*RES
1 *2697:Q *463:4 9.3 
2 *463:4 *2939:A 26.3179 
3 *463:4 *2418:A2 24.3223 
*END

*D_NET *464 0.00250859
*CONN
*I *2424:A2 I *D sky130_fd_sc_hd__mux4_1
*I *2920:A I *D sky130_fd_sc_hd__dlygate4sd3_1
*I *2698:Q O *D sky130_fd_sc_hd__dfxtp_1
*CAP
1 *2424:A2 0.000352448
2 *2920:A 9.20662e-05
3 *2698:Q 0.000106094
4 *464:6 0.000550609
5 *2424:A2 *2424:A3 3.28686e-05
6 *2424:A2 *642:54 1.02504e-05
7 *2424:A2 *642:64 0.000137611
8 *2424:A2 *664:10 7.6644e-05
9 *2424:A2 *664:14 1.59935e-05
10 *2424:A2 *664:28 4.73656e-05
11 *464:6 *642:64 0.000136951
12 *2723:D *2424:A2 0.000406788
13 *329:107 *2920:A 0.000270236
14 *336:14 *2920:A 0.000272665
*RES
1 *2698:Q *464:6 10.6571 
2 *464:6 *2920:A 21.7643 
3 *464:6 *2424:A2 24.5054 
*END

*D_NET *465 0.00258373
*CONN
*I *2950:A I *D sky130_fd_sc_hd__dlygate4sd3_1
*I *2432:A2 I *D sky130_fd_sc_hd__mux4_1
*I *2699:Q O *D sky130_fd_sc_hd__dfxtp_1
*CAP
1 *2950:A 0.000278634
2 *2432:A2 1.1481e-05
3 *2699:Q 0.000862008
4 *465:18 0.00115212
5 *2950:A *2432:A3 4.03318e-05
6 *2950:A *2456:S1 0.000113594
7 *2950:A *2558:A0 0
8 *465:18 *2432:A3 0
9 *465:18 *2432:S1 2.05694e-05
10 *465:18 *2549:A0 8.65429e-05
11 *2724:D *2432:A2 6.98553e-06
12 *2724:D *2950:A 0
13 *292:16 *2432:A2 1.14548e-05
14 *329:48 *465:18 0
15 *337:97 *2950:A 0
*RES
1 *2699:Q *465:18 26.0522 
2 *465:18 *2432:A2 14.0366 
3 *465:18 *2950:A 19.425 
*END

*D_NET *466 0.00142373
*CONN
*I *2438:A2 I *D sky130_fd_sc_hd__mux4_1
*I *2967:A I *D sky130_fd_sc_hd__dlygate4sd3_1
*I *2700:Q O *D sky130_fd_sc_hd__dfxtp_1
*CAP
1 *2438:A2 0.000351175
2 *2967:A 3.35064e-05
3 *2700:Q 8.54839e-05
4 *466:6 0.000470165
5 *2438:A2 *2438:A3 2.88469e-05
6 *2438:A2 *634:98 8.00742e-05
7 *2438:A2 *641:18 3.34366e-05
8 *2438:A2 *641:143 0.000148903
9 *2967:A *634:98 0.00010096
10 *466:6 *634:98 4.13595e-05
11 *2750:CLK *2438:A2 4.5785e-05
12 *297:24 *2438:A2 4.0342e-06
*RES
1 *2700:Q *466:6 11.0679 
2 *466:6 *2967:A 10.675 
3 *466:6 *2438:A2 24.0054 
*END

*D_NET *467 0.00290567
*CONN
*I *2444:A2 I *D sky130_fd_sc_hd__mux4_1
*I *2963:A I *D sky130_fd_sc_hd__dlygate4sd3_1
*I *2701:Q O *D sky130_fd_sc_hd__dfxtp_1
*CAP
1 *2444:A2 0.000159595
2 *2963:A 0
3 *2701:Q 0.000627834
4 *467:10 0.000787429
5 *2444:A2 *634:78 9.77375e-05
6 *2444:A2 *657:104 0.000197977
7 *467:10 *639:73 7.75724e-05
8 *467:10 *657:104 0.000123295
9 *2444:A0 *2444:A2 0.000159225
10 *2444:A0 *467:10 6.09572e-05
11 *347:47 *467:10 0.000614046
*RES
1 *2701:Q *467:10 23.3714 
2 *467:10 *2963:A 13.8 
3 *467:10 *2444:A2 18.7375 
*END

*D_NET *468 0.00140735
*CONN
*I *2450:A2 I *D sky130_fd_sc_hd__mux4_1
*I *2944:A I *D sky130_fd_sc_hd__dlygate4sd3_1
*I *2702:Q O *D sky130_fd_sc_hd__dfxtp_1
*CAP
1 *2450:A2 0.000142529
2 *2944:A 0.000189431
3 *2702:Q 0.000182046
4 *468:8 0.000514005
5 *2450:A2 *641:77 3.92656e-05
6 *2944:A *2561:A0 0
7 *2454:A2 *2450:A2 0.000118803
8 *2454:A2 *468:8 1.92789e-05
9 *2561:S *2944:A 0
10 *346:63 *2944:A 8.98897e-05
11 *346:65 *2944:A 0.000112106
*RES
1 *2702:Q *468:8 12.3179 
2 *468:8 *2944:A 22.9786 
3 *468:8 *2450:A2 12.5054 
*END

*D_NET *469 0.00227265
*CONN
*I *2966:A I *D sky130_fd_sc_hd__dlygate4sd3_1
*I *2456:A2 I *D sky130_fd_sc_hd__mux4_1
*I *2703:Q O *D sky130_fd_sc_hd__dfxtp_1
*CAP
1 *2966:A 6.41316e-05
2 *2456:A2 0.000512213
3 *2703:Q 0.000274377
4 *469:10 0.000850721
5 *2456:A2 *646:120 1.36327e-05
6 *2456:A0 *2456:A2 2.89016e-05
7 *2456:A1 *2456:A2 8.02902e-05
8 *2562:S *2456:A2 7.48091e-05
9 *2562:S *469:10 5.35423e-05
10 *2927:A *2966:A 0
11 *2927:A *469:10 0
12 *329:48 *2966:A 0.000119618
13 *329:48 *469:10 0.000200413
*RES
1 *2703:Q *469:10 18.5321 
2 *469:10 *2456:A2 21.0545 
3 *469:10 *2966:A 15.4429 
*END

*D_NET *470 0.00261023
*CONN
*I *2979:A I *D sky130_fd_sc_hd__dlygate4sd3_1
*I *2462:A2 I *D sky130_fd_sc_hd__mux4_1
*I *2704:Q O *D sky130_fd_sc_hd__dfxtp_1
*CAP
1 *2979:A 0.00015833
2 *2462:A2 0.000725915
3 *2704:Q 6.20915e-05
4 *470:8 0.000946336
5 *2462:A2 *2462:A3 9.6259e-05
6 *2462:A2 *2563:A1 5.74562e-05
7 *470:8 *2844:A 2.14658e-05
8 *470:8 *618:14 8.07313e-05
9 *470:8 *651:21 9.71197e-05
10 *2462:A0 *2462:A2 2.17647e-05
11 *2462:A1 *2462:A2 0
12 *2507:S *2462:A2 0
13 *2507:S *2979:A 0
14 *2561:S *2462:A2 8.32171e-05
15 *2616:S *2462:A2 3.17163e-05
16 *337:107 *2462:A2 0.00010948
17 *337:107 *2979:A 0.000118349
18 *340:110 *2462:A2 0
*RES
1 *2704:Q *470:8 15.5679 
2 *470:8 *2462:A2 33.8268 
3 *470:8 *2979:A 17.1929 
*END

*D_NET *471 0.0029352
*CONN
*I *2875:A I *D sky130_fd_sc_hd__dlygate4sd3_1
*I *2418:A3 I *D sky130_fd_sc_hd__mux4_1
*I *2689:Q O *D sky130_fd_sc_hd__dfxtp_1
*CAP
1 *2875:A 0.000498814
2 *2418:A3 6.67285e-05
3 *2689:Q 0.000363357
4 *471:8 0.000928899
5 *2418:A3 *643:126 0.00012553
6 *2875:A *2547:A1 0.000310286
7 *2875:A *643:126 0.000198698
8 *2875:A *666:86 1.98839e-05
9 *471:8 *646:82 1.65169e-05
10 *471:8 *670:76 4.35421e-05
11 *2418:A2 *2418:A3 1.02504e-05
12 *2722:D *471:8 4.88515e-05
13 *2747:D *2418:A3 7.17836e-05
14 *2747:D *2875:A 5.95378e-05
15 *2870:A *2875:A 7.83659e-05
16 *2870:A *471:8 8.81471e-06
17 *341:8 *2875:A 8.53409e-05
*RES
1 *2689:Q *471:8 18.0321 
2 *471:8 *2418:A3 15.7464 
3 *471:8 *2875:A 22.55 
*END

*D_NET *472 0.0015846
*CONN
*I *2965:A I *D sky130_fd_sc_hd__dlygate4sd3_1
*I *2424:A3 I *D sky130_fd_sc_hd__mux4_1
*I *2690:Q O *D sky130_fd_sc_hd__dfxtp_1
*CAP
1 *2965:A 7.0615e-05
2 *2424:A3 0.000233699
3 *2690:Q 8.56257e-05
4 *472:8 0.00038994
5 *2424:A3 *642:54 0
6 *2424:A3 *664:14 0.000138389
7 *2424:A3 *664:28 0
8 *2424:A2 *2424:A3 3.28686e-05
9 *2811:A *2424:A3 0
10 *2811:A *2965:A 0
11 *264:20 *2965:A 2.22043e-05
12 *285:24 *2424:A3 0.000239722
13 *329:107 *2424:A3 0.000254337
14 *329:107 *2965:A 0.000117196
*RES
1 *2690:Q *472:8 14.7464 
2 *472:8 *2424:A3 21.1929 
3 *472:8 *2965:A 15.4429 
*END

*D_NET *473 0.00239286
*CONN
*I *2885:A I *D sky130_fd_sc_hd__dlygate4sd3_1
*I *2432:A3 I *D sky130_fd_sc_hd__mux4_1
*I *2691:Q O *D sky130_fd_sc_hd__dfxtp_1
*CAP
1 *2885:A 7.00442e-05
2 *2432:A3 0.0006503
3 *2691:Q 0.000129133
4 *473:10 0.000849478
5 *2432:A3 *2456:S1 0.000176477
6 *2724:CLK *2432:A3 9.75314e-05
7 *2724:D *2432:A3 3.07863e-05
8 *2950:A *2432:A3 4.03318e-05
9 *329:48 *2885:A 0.000134504
10 *329:48 *473:10 3.92854e-05
11 *337:97 *2885:A 0.000138015
12 *337:97 *473:10 3.69697e-05
13 *465:18 *2432:A3 0
*RES
1 *2691:Q *473:10 15.7821 
2 *473:10 *2432:A3 31.9786 
3 *473:10 *2885:A 16.9607 
*END

*D_NET *474 0.00244105
*CONN
*I *2438:A3 I *D sky130_fd_sc_hd__mux4_1
*I *2983:A I *D sky130_fd_sc_hd__dlygate4sd3_1
*I *2692:Q O *D sky130_fd_sc_hd__dfxtp_1
*CAP
1 *2438:A3 0.000628641
2 *2983:A 0.000249771
3 *2692:Q 0
4 *474:4 0.000878412
5 *2438:A3 *2624:RESET_B 2.31704e-05
6 *2438:A3 *637:98 0
7 *2438:A3 *641:40 0.000165858
8 *2438:A3 *659:116 2.86824e-05
9 *2983:A *2467:S 0
10 *2983:A *2550:A1 0.000128146
11 *2983:A *2624:RESET_B 3.90996e-05
12 *2983:A *641:40 5.71472e-05
13 *2983:A *661:47 0.000104236
14 *2438:A2 *2438:A3 2.88469e-05
15 *2559:S *2438:A3 0
16 *2692:CLK *2438:A3 7.84126e-05
17 *2692:CLK *2983:A 1.00073e-05
18 *2750:CLK *2438:A3 2.06178e-05
*RES
1 *2692:Q *474:4 9.3 
2 *474:4 *2983:A 24.1214 
3 *474:4 *2438:A3 33.2244 
*END

*D_NET *475 0.00122042
*CONN
*I *2444:A3 I *D sky130_fd_sc_hd__mux4_1
*I *2902:A I *D sky130_fd_sc_hd__dlygate4sd3_1
*I *2693:Q O *D sky130_fd_sc_hd__dfxtp_1
*CAP
1 *2444:A3 0.00019951
2 *2902:A 1.73466e-05
3 *2693:Q 0.000179243
4 *475:8 0.0003961
5 *2444:A3 *2444:S1 5.26091e-05
6 *2587:S *2444:A3 1.39726e-05
7 *341:105 *2444:A3 0
8 *347:10 *2444:A3 0.000105163
9 *347:10 *2902:A 3.99614e-06
10 *347:10 *475:8 0.000155364
11 *347:12 *475:8 9.71197e-05
*RES
1 *2693:Q *475:8 12.7286 
2 *475:8 *2902:A 9.72857 
3 *475:8 *2444:A3 22.425 
*END

*D_NET *476 0.00245588
*CONN
*I *2890:A I *D sky130_fd_sc_hd__dlygate4sd3_1
*I *2450:A3 I *D sky130_fd_sc_hd__mux4_1
*I *2694:Q O *D sky130_fd_sc_hd__dfxtp_1
*CAP
1 *2890:A 0.000375275
2 *2450:A3 0.000153143
3 *2694:Q 0.000486242
4 *476:8 0.00101466
5 *2450:A3 *641:77 5.99023e-05
6 *2890:A *2465:S1 0
7 *2450:A1 *2450:A3 0
8 *2450:A1 *2890:A 0
9 *2454:A2 *2450:A3 3.42426e-05
10 *2588:S *2890:A 0.000196269
11 *2727:D *476:8 9.51716e-06
12 *2917:A *2890:A 0
13 *346:59 *476:8 0.000126629
*RES
1 *2694:Q *476:8 19.675 
2 *476:8 *2450:A3 16.6929 
3 *476:8 *2890:A 20.3357 
*END

*D_NET *477 0.00351637
*CONN
*I *2456:A3 I *D sky130_fd_sc_hd__mux4_1
*I *2905:A I *D sky130_fd_sc_hd__dlygate4sd3_1
*I *2695:Q O *D sky130_fd_sc_hd__dfxtp_1
*CAP
1 *2456:A3 0.000222326
2 *2905:A 0.000295481
3 *2695:Q 0.000606551
4 *477:8 0.00112436
5 *2456:A3 *2456:S1 0.000439649
6 *2905:A *2456:S1 9.96242e-05
7 *2905:A *2589:A0 0.000187042
8 *2905:A *2589:A1 0.000143652
9 *2728:D *2905:A 0
10 *2728:D *477:8 8.41467e-05
11 *336:65 *2905:A 6.11337e-05
12 *357:26 *2456:A3 0
13 *357:26 *477:8 3.41607e-05
14 *357:30 *477:8 0.000218246
*RES
1 *2695:Q *477:8 21.7286 
2 *477:8 *2905:A 19.925 
3 *477:8 *2456:A3 19.3893 
*END

*D_NET *478 0.00312194
*CONN
*I *2462:A3 I *D sky130_fd_sc_hd__mux4_1
*I *2899:A I *D sky130_fd_sc_hd__dlygate4sd3_1
*I *2696:Q O *D sky130_fd_sc_hd__dfxtp_1
*CAP
1 *2462:A3 0.000728154
2 *2899:A 0.000331477
3 *2696:Q 4.16687e-05
4 *478:8 0.0011013
5 *2462:A3 *2563:A1 0.000128875
6 *2899:A *2554:A1 3.92757e-05
7 *2462:A0 *2462:A3 2.89016e-05
8 *2462:A2 *2462:A3 9.6259e-05
9 *2507:S *2462:A3 0
10 *2507:S *2899:A 0
11 *2561:S *2462:A3 4.31104e-05
12 *2561:S *2899:A 0.000437941
13 *2563:S *2462:A3 4.58194e-05
14 *2729:CLK *478:8 2.89016e-05
15 *337:107 *2462:A3 7.02611e-05
*RES
1 *2696:Q *478:8 14.3357 
2 *478:8 *2899:A 21.1571 
3 *478:8 *2462:A3 25.4071 
*END

*D_NET *479 0.00148123
*CONN
*I *2941:A I *D sky130_fd_sc_hd__dlygate4sd3_1
*I *2421:A0 I *D sky130_fd_sc_hd__mux4_1
*I *2681:Q O *D sky130_fd_sc_hd__dfxtp_1
*CAP
1 *2941:A 0.00022803
2 *2421:A0 8.46744e-05
3 *2681:Q 0.000183595
4 *479:10 0.000496299
5 *2421:A0 *2421:A1 9.90367e-05
6 *2941:A *2421:A1 0.000177951
7 *479:10 *2421:A1 1.52978e-05
8 *2422:A1 *2421:A0 1.92789e-05
9 *2422:A1 *479:10 0
10 *2681:CLK *479:10 3.05446e-05
11 *322:31 *479:10 0
12 *327:26 *2941:A 0
13 *327:26 *479:10 0
14 *332:12 *2421:A0 0.000146523
15 *334:12 *479:10 0
*RES
1 *2681:Q *479:10 16.6929 
2 *479:10 *2421:A0 16.3893 
3 *479:10 *2941:A 18.4786 
*END

*D_NET *480 0.00242186
*CONN
*I *2953:A I *D sky130_fd_sc_hd__dlygate4sd3_1
*I *2428:A0 I *D sky130_fd_sc_hd__mux4_1
*I *2682:Q O *D sky130_fd_sc_hd__dfxtp_1
*CAP
1 *2953:A 0.000346746
2 *2428:A0 0.000108819
3 *2682:Q 4.09299e-05
4 *480:6 0.000496495
5 *2428:A0 *2428:A1 0.000113934
6 *2428:A0 *644:49 8.36075e-05
7 *2953:A *2428:A1 9.62308e-05
8 *2953:A *2428:S0 0.00018234
9 *2953:A *2501:A0 2.89114e-05
10 *2953:A *634:176 1.92905e-05
11 *2898:A *2953:A 0.000197252
12 *264:20 *2428:A0 0.000171368
13 *264:20 *2953:A 8.26359e-05
14 *329:107 *2428:A0 0.000168939
15 *361:12 *2953:A 0.000169366
16 *361:12 *480:6 5.52302e-05
17 *384:10 *2953:A 5.97623e-05
*RES
1 *2682:Q *480:6 9.83571 
2 *480:6 *2428:A0 21.925 
3 *480:6 *2953:A 27.1036 
*END

*D_NET *481 0.00148561
*CONN
*I *2923:A I *D sky130_fd_sc_hd__dlygate4sd3_1
*I *2435:A0 I *D sky130_fd_sc_hd__mux4_1
*I *2683:Q O *D sky130_fd_sc_hd__dfxtp_1
*CAP
1 *2923:A 0.000162282
2 *2435:A0 0
3 *2683:Q 0.000116465
4 *481:10 0.000278748
5 *2923:A *2539:A0 0.00012501
6 *2923:A *2611:A0 0.000241291
7 *481:10 *2539:A0 0.000150618
8 *340:110 *2923:A 0.000162832
9 *340:110 *481:10 0.000150618
10 *356:39 *481:10 9.77423e-05
*RES
1 *2683:Q *481:10 16.6929 
2 *481:10 *2435:A0 13.8 
3 *481:10 *2923:A 18.2286 
*END

*D_NET *482 0.00126064
*CONN
*I *2909:A I *D sky130_fd_sc_hd__dlygate4sd3_1
*I *2441:A0 I *D sky130_fd_sc_hd__mux4_1
*I *2684:Q O *D sky130_fd_sc_hd__dfxtp_1
*CAP
1 *2909:A 0.000339905
2 *2441:A0 0.000159671
3 *2684:Q 0
4 *482:4 0.000499575
5 *2441:A0 *490:10 0.000128154
6 *2541:S *2441:A0 2.51343e-06
7 *2541:S *2909:A 0.000130825
8 *386:14 *2441:A0 0
*RES
1 *2684:Q *482:4 9.3 
2 *482:4 *2441:A0 20.8893 
3 *482:4 *2909:A 14.2643 
*END

*D_NET *483 0.00277266
*CONN
*I *2972:A I *D sky130_fd_sc_hd__dlygate4sd3_1
*I *2447:A0 I *D sky130_fd_sc_hd__mux4_1
*I *2685:Q O *D sky130_fd_sc_hd__dfxtp_1
*CAP
1 *2972:A 0.000215415
2 *2447:A0 0.000998646
3 *2685:Q 0
4 *483:4 0.00121406
5 *2447:A0 *2447:A1 6.28241e-05
6 *2447:A0 *2447:S1 0.000208422
7 *2447:A0 *2850:A 0
8 *2447:A2 *2447:A0 7.32931e-05
*RES
1 *2685:Q *483:4 9.3 
2 *483:4 *2447:A0 32.2107 
3 *483:4 *2972:A 12.7286 
*END

*D_NET *484 0.00107729
*CONN
*I *2453:A0 I *D sky130_fd_sc_hd__mux4_1
*I *2970:A I *D sky130_fd_sc_hd__dlygate4sd3_1
*I *2686:Q O *D sky130_fd_sc_hd__dfxtp_1
*CAP
1 *2453:A0 0.000201617
2 *2970:A 0.000221173
3 *2686:Q 0
4 *484:4 0.00042279
5 *2453:A0 *2542:A1 9.24299e-05
6 *2453:A0 *492:12 6.42242e-05
7 *2453:A0 *655:38 7.50601e-05
*RES
1 *2686:Q *484:4 9.3 
2 *484:4 *2970:A 13.0321 
3 *484:4 *2453:A0 22.3714 
*END

*D_NET *485 0.00261741
*CONN
*I *2960:A I *D sky130_fd_sc_hd__dlygate4sd3_1
*I *2459:A0 I *D sky130_fd_sc_hd__mux4_1
*I *2687:Q O *D sky130_fd_sc_hd__dfxtp_1
*CAP
1 *2960:A 0.000253472
2 *2459:A0 0.000537269
3 *2687:Q 0
4 *485:4 0.000790741
5 *2459:A0 *2458:S0 3.34104e-05
6 *2459:A0 *2459:S1 3.69047e-06
7 *2459:A0 *2543:A0 6.16559e-05
8 *2459:A0 *2846:A 5.10734e-06
9 *2459:A0 *646:141 4.58252e-05
10 *2960:A *2458:S0 0.000223745
11 *2960:A *2543:A0 1.76471e-05
12 *2960:A *2615:A0 0.000150625
13 *2960:A *653:105 8.25512e-05
14 *2459:A2 *2459:A0 0.000117594
15 *332:38 *2960:A 5.61411e-05
16 *357:119 *2960:A 7.41454e-05
17 *357:121 *2960:A 0.000140933
18 *357:147 *2960:A 2.28598e-05
*RES
1 *2687:Q *485:4 9.3 
2 *485:4 *2459:A0 26.5321 
3 *485:4 *2960:A 25.4071 
*END

*D_NET *486 0.00140443
*CONN
*I *2955:A I *D sky130_fd_sc_hd__dlygate4sd3_1
*I *2465:A0 I *D sky130_fd_sc_hd__mux4_1
*I *2688:Q O *D sky130_fd_sc_hd__dfxtp_1
*CAP
1 *2955:A 0.000171543
2 *2465:A0 0.000172556
3 *2688:Q 0
4 *486:4 0.000344099
5 *2465:A0 *2544:A0 0.000125731
6 *2465:A0 *494:14 0.000123359
7 *2588:S *2955:A 0.000242806
8 *320:22 *2465:A0 0.000182598
9 *320:22 *2955:A 4.17433e-05
*RES
1 *2688:Q *486:4 9.3 
2 *486:4 *2465:A0 21.7107 
3 *486:4 *2955:A 21.9964 
*END

*D_NET *487 0.00170716
*CONN
*I *2929:A I *D sky130_fd_sc_hd__dlygate4sd3_1
*I *2421:A1 I *D sky130_fd_sc_hd__mux4_1
*I *2787:Q O *D sky130_fd_sc_hd__dfxtp_1
*CAP
1 *2929:A 9.88941e-05
2 *2421:A1 0.000347139
3 *2787:Q 0.000146166
4 *487:8 0.000592199
5 *2421:A1 *2537:A0 0
6 *487:8 *667:10 0.000230475
7 *2421:A0 *2421:A1 9.90367e-05
8 *2609:S *2421:A1 0
9 *2609:S *2929:A 0
10 *2941:A *2421:A1 0.000177951
11 *334:12 *2421:A1 0
12 *342:16 *2421:A1 0
13 *479:10 *2421:A1 1.52978e-05
*RES
1 *2787:Q *487:8 15.9786 
2 *487:8 *2421:A1 20.6393 
3 *487:8 *2929:A 15.4429 
*END

*D_NET *488 0.00284314
*CONN
*I *2987:A I *D sky130_fd_sc_hd__dlygate4sd3_1
*I *2428:A1 I *D sky130_fd_sc_hd__mux4_1
*I *2788:Q O *D sky130_fd_sc_hd__dfxtp_1
*CAP
1 *2987:A 0.000475472
2 *2428:A1 0.000376695
3 *2788:Q 0
4 *488:4 0.000852167
5 *2428:A1 *2428:S0 0
6 *2428:A1 *2520:A1 3.14163e-05
7 *2428:A1 *644:49 6.25193e-05
8 *2987:A *2520:A1 6.09773e-05
9 *2987:A *637:28 0.000175519
10 *2987:A *644:35 0.000315165
11 *2987:A *664:82 8.10731e-05
12 *2428:A0 *2428:A1 0.000113934
13 *2682:D *2987:A 0.000137983
14 *2953:A *2428:A1 9.62308e-05
15 *264:20 *2428:A1 6.39908e-05
16 *341:103 *2987:A 0
*RES
1 *2788:Q *488:4 9.3 
2 *488:4 *2428:A1 24.5679 
3 *488:4 *2987:A 28.1929 
*END

*D_NET *489 0.00189988
*CONN
*I *2874:A I *D sky130_fd_sc_hd__dlygate4sd3_1
*I *2435:A1 I *D sky130_fd_sc_hd__mux4_1
*I *2789:Q O *D sky130_fd_sc_hd__dfxtp_1
*CAP
1 *2874:A 7.86755e-05
2 *2435:A1 0
3 *2789:Q 0.000354733
4 *489:12 0.000433408
5 *2874:A *643:41 0.000161868
6 *2874:A *646:16 0.000309266
7 *489:12 *2539:A0 0.000125724
8 *489:12 *2539:A1 6.19181e-05
9 *334:74 *489:12 0.000227736
10 *340:110 *489:12 0.000114642
11 *341:59 *489:12 3.19109e-05
*RES
1 *2789:Q *489:12 26.0679 
2 *489:12 *2435:A1 9.3 
3 *489:12 *2874:A 12.3 
*END

*D_NET *490 0.00153867
*CONN
*I *2984:A I *D sky130_fd_sc_hd__dlygate4sd3_1
*I *2441:A1 I *D sky130_fd_sc_hd__mux4_1
*I *2790:Q O *D sky130_fd_sc_hd__dfxtp_1
*CAP
1 *2984:A 0.000137958
2 *2441:A1 3.72704e-05
3 *2790:Q 0.000368315
4 *490:10 0.000543543
5 *2984:A *2441:S0 0
6 *2441:A0 *490:10 0.000128154
7 *2541:S *490:10 0.000172368
8 *2684:D *490:10 0
9 *334:93 *490:10 0.000151061
*RES
1 *2790:Q *490:10 21.675 
2 *490:10 *2441:A1 14.3357 
3 *490:10 *2984:A 16.3536 
*END

*D_NET *491 0.00206038
*CONN
*I *2985:A I *D sky130_fd_sc_hd__dlygate4sd3_1
*I *2447:A1 I *D sky130_fd_sc_hd__mux4_1
*I *2791:Q O *D sky130_fd_sc_hd__dfxtp_1
*CAP
1 *2985:A 0.000231436
2 *2447:A1 0.000104783
3 *2791:Q 0.000300018
4 *491:10 0.000636236
5 *2985:A *2447:S0 0.000173804
6 *2985:A *2613:A0 5.33005e-05
7 *2985:A *657:34 7.65689e-05
8 *2985:A *657:60 1.56e-05
9 *491:10 *2447:S0 9.25014e-06
10 *491:10 *657:32 0
11 *2447:A0 *2447:A1 6.28241e-05
12 *2447:A2 *2447:A1 0.000181796
13 *2447:A3 *491:10 0
14 *2504:S *2985:A 4.75521e-05
15 *2504:S *491:10 0.000123409
16 *2541:S *491:10 4.37999e-05
17 *347:55 *491:10 0
*RES
1 *2791:Q *491:10 19.5321 
2 *491:10 *2447:A1 16.3893 
3 *491:10 *2985:A 19.05 
*END

*D_NET *492 0.00104507
*CONN
*I *2968:A I *D sky130_fd_sc_hd__dlygate4sd3_1
*I *2453:A1 I *D sky130_fd_sc_hd__mux4_1
*I *2792:Q O *D sky130_fd_sc_hd__dfxtp_1
*CAP
1 *2968:A 1.64648e-05
2 *2453:A1 0
3 *2792:Q 0.000307093
4 *492:12 0.000323558
5 *2968:A *2453:S0 2.89114e-05
6 *492:12 *2614:A0 2.34204e-05
7 *492:12 *2614:A1 0.000183726
8 *2453:A0 *492:12 6.42242e-05
9 *2792:D *492:12 6.87574e-05
10 *332:92 *2968:A 2.89114e-05
*RES
1 *2792:Q *492:12 22.9429 
2 *492:12 *2453:A1 9.3 
3 *492:12 *2968:A 9.83571 
*END

*D_NET *493 0.00141737
*CONN
*I *2949:A I *D sky130_fd_sc_hd__dlygate4sd3_1
*I *2459:A1 I *D sky130_fd_sc_hd__mux4_1
*I *2793:Q O *D sky130_fd_sc_hd__dfxtp_1
*CAP
1 *2949:A 0.000373741
2 *2459:A1 0.000235689
3 *2793:Q 0
4 *493:6 0.00060943
5 *2459:A1 *607:10 0
6 *2949:A *607:10 0
7 *2687:CLK *2459:A1 5.26091e-05
8 *2687:D *2459:A1 2.56694e-05
9 *2978:A *2459:A1 0.000120236
*RES
1 *2793:Q *493:6 13.8 
2 *493:6 *2459:A1 19.3893 
3 *493:6 *2949:A 19.675 
*END

*D_NET *494 0.00244568
*CONN
*I *2888:A I *D sky130_fd_sc_hd__dlygate4sd3_1
*I *2465:A1 I *D sky130_fd_sc_hd__mux4_1
*I *2794:Q O *D sky130_fd_sc_hd__dfxtp_1
*CAP
1 *2888:A 0.00026223
2 *2465:A1 1.63605e-05
3 *2794:Q 0.000463657
4 *494:14 0.000742247
5 *2465:A1 *2465:S0 5.49544e-05
6 *2888:A *2544:A0 0.000208742
7 *2888:A *2616:A1 1.00399e-05
8 *2888:A *651:59 2.14757e-05
9 *494:14 *2465:S1 0
10 *494:14 *2544:A0 0.000176079
11 *2465:A0 *494:14 0.000123359
12 *2544:S *2465:A1 1.83136e-05
13 *2544:S *2888:A 1.84368e-05
14 *2616:S *2888:A 0.000232458
15 *2794:D *494:14 9.73237e-05
16 *2916:A *2888:A 0
*RES
1 *2794:Q *494:14 22.7464 
2 *494:14 *2465:A1 14.3357 
3 *494:14 *2888:A 29.5143 
*END

*D_NET *495 0.00109485
*CONN
*I *2360:A1 I *D sky130_fd_sc_hd__o31a_1
*I *3002:X O *D sky130_fd_sc_hd__clkbuf_1
*CAP
1 *2360:A1 0.000351965
2 *3002:X 0.000351965
3 *2360:A1 *606:6 0.000341977
4 *2360:A1 *678:10 0
5 *3013:A *2360:A1 4.89407e-05
*RES
1 *3002:X *2360:A1 35.4214 
*END

*D_NET *496 0.00071735
*CONN
*I *2293:A I *D sky130_fd_sc_hd__inv_2
*I *3003:X O *D sky130_fd_sc_hd__clkbuf_1
*CAP
1 *2293:A 0.000358675
2 *3003:X 0.000358675
3 *2293:A *3025:A 0
*RES
1 *3003:X *2293:A 32.2429 
*END

*D_NET *497 0.00143878
*CONN
*I *2496:A0 I *D sky130_fd_sc_hd__mux2_1
*I *2919:X O *D sky130_fd_sc_hd__dlygate4sd3_1
*CAP
1 *2496:A0 0.000317883
2 *2919:X 0.000317883
3 *2496:A0 *2476:A0 0.000267814
4 *2496:A0 *643:157 0.000267383
5 *325:83 *2496:A0 0.000267814
*RES
1 *2919:X *2496:A0 33.6536 
*END

*D_NET *498 0.000933011
*CONN
*I *2557:A0 I *D sky130_fd_sc_hd__mux2_1
*I *2920:X O *D sky130_fd_sc_hd__dlygate4sd3_1
*CAP
1 *2557:A0 0.000266027
2 *2920:X 0.000266027
3 *2557:A0 *2557:A1 0.000230475
4 *2557:S *2557:A0 5.62995e-05
5 *2690:D *2557:A0 1.40306e-05
6 *337:30 *2557:A0 0
7 *342:75 *2557:A0 0.000100152
*RES
1 *2920:X *2557:A0 33.9571 
*END

*D_NET *499 0.000301267
*CONN
*I *2487:A0 I *D sky130_fd_sc_hd__mux2_1
*I *2921:X O *D sky130_fd_sc_hd__dlygate4sd3_1
*CAP
1 *2487:A0 0.000150634
2 *2921:X 0.000150634
*RES
1 *2921:X *2487:A0 20.7786 
*END

*D_NET *500 0.00156228
*CONN
*I *2482:A0 I *D sky130_fd_sc_hd__mux2_1
*I *2922:X O *D sky130_fd_sc_hd__dlygate4sd3_1
*CAP
1 *2482:A0 0.000275773
2 *2922:X 0.000275773
3 *2482:A0 *2434:S0 4.5435e-05
4 *2482:A0 *2602:A0 0.00014183
5 *2434:A1 *2482:A0 0.000210191
6 *2894:A *2482:A0 7.83659e-05
7 *2922:A *2482:A0 7.83659e-05
8 *325:93 *2482:A0 0.000456547
*RES
1 *2922:X *2482:A0 34.85 
*END

*D_NET *501 0.000959338
*CONN
*I *2539:A0 I *D sky130_fd_sc_hd__mux2_1
*I *2923:X O *D sky130_fd_sc_hd__dlygate4sd3_1
*CAP
1 *2539:A0 0.000200991
2 *2923:X 0.000200991
3 *2539:A0 *2539:A1 1.87004e-05
4 *2539:A0 *2611:A0 3.92854e-05
5 *2923:A *2539:A0 0.00012501
6 *356:39 *2539:A0 9.80173e-05
7 *481:10 *2539:A0 0.000150618
8 *489:12 *2539:A0 0.000125724
*RES
1 *2923:X *2539:A0 32.0107 
*END

*D_NET *502 0.000541704
*CONN
*I *2570:A0 I *D sky130_fd_sc_hd__mux2_1
*I *2924:X O *D sky130_fd_sc_hd__dlygate4sd3_1
*CAP
1 *2570:A0 9.49679e-05
2 *2924:X 9.49679e-05
3 *2454:A1 *2570:A0 0.00015234
4 *339:44 *2570:A0 0.000150632
5 *436:8 *2570:A0 4.87953e-05
*RES
1 *2924:X *2570:A0 30.4929 
*END

*D_NET *503 0.00109826
*CONN
*I *2565:A0 I *D sky130_fd_sc_hd__mux2_1
*I *2926:X O *D sky130_fd_sc_hd__dlygate4sd3_1
*CAP
1 *2565:A0 0.000481662
2 *2926:X 0.000481662
3 *2705:D *2565:A0 7.83587e-05
4 *332:155 *2565:A0 3.92854e-05
5 *431:8 *2565:A0 1.72894e-05
*RES
1 *2926:X *2565:A0 33.6893 
*END

*D_NET *504 0.000769727
*CONN
*I *2598:A0 I *D sky130_fd_sc_hd__mux2_1
*I *2927:X O *D sky130_fd_sc_hd__dlygate4sd3_1
*CAP
1 *2598:A0 0.000223393
2 *2927:X 0.000223393
3 *2598:A0 *2456:S0 0
4 *2598:A0 *646:120 0.000202835
5 *2598:A0 *653:71 4.31104e-05
6 *2456:A1 *2598:A0 7.6997e-05
*RES
1 *2927:X *2598:A0 32.0107 
*END

*D_NET *505 0.000378265
*CONN
*I *2522:A0 I *D sky130_fd_sc_hd__mux2_1
*I *2928:X O *D sky130_fd_sc_hd__dlygate4sd3_1
*CAP
1 *2522:A0 0.000161521
2 *2928:X 0.000161521
3 *2522:A0 *2852:A 0
4 *2505:S *2522:A0 5.52238e-05
*RES
1 *2928:X *2522:A0 30.0821 
*END

*D_NET *506 0.000317429
*CONN
*I *2609:A0 I *D sky130_fd_sc_hd__mux2_1
*I *2929:X O *D sky130_fd_sc_hd__dlygate4sd3_1
*CAP
1 *2609:A0 9.84602e-05
2 *2929:X 9.84602e-05
3 *325:67 *2609:A0 0.000120509
*RES
1 *2929:X *2609:A0 20.7786 
*END

*D_NET *507 0.000495859
*CONN
*I *2868:A I *D sky130_fd_sc_hd__buf_2
*I *3004:X O *D sky130_fd_sc_hd__clkbuf_1
*CAP
1 *2868:A 0.000172617
2 *3004:X 0.000172617
3 *2868:A *2860:A 0.000150625
4 *3004:A *2868:A 0
*RES
1 *3004:X *2868:A 30.4929 
*END

*D_NET *508 0.000417274
*CONN
*I *2492:A0 I *D sky130_fd_sc_hd__mux2_1
*I *2930:X O *D sky130_fd_sc_hd__dlygate4sd3_1
*CAP
1 *2492:A0 5.68984e-05
2 *2930:X 5.68984e-05
3 *2492:A0 *663:10 0.000145753
4 *2492:A0 *663:16 1.02504e-05
5 *339:32 *2492:A0 0.000147474
*RES
1 *2930:X *2492:A0 29.5464 
*END

*D_NET *509 0.000706164
*CONN
*I *2593:A0 I *D sky130_fd_sc_hd__mux2_1
*I *2931:X O *D sky130_fd_sc_hd__dlygate4sd3_1
*CAP
1 *2593:A0 0.00022092
2 *2931:X 0.00022092
3 *2593:A0 *2444:S1 0
4 *2674:CLK *2593:A0 0.000105163
5 *341:103 *2593:A0 5.59013e-05
6 *341:105 *2593:A0 0.00010326
*RES
1 *2931:X *2593:A0 31.3143 
*END

*D_NET *510 0.000846654
*CONN
*I *2590:A0 I *D sky130_fd_sc_hd__mux2_1
*I *2932:X O *D sky130_fd_sc_hd__dlygate4sd3_1
*CAP
1 *2590:A0 0.000153853
2 *2932:X 0.000153853
3 *2590:A0 *2590:A1 0.000225385
4 *2590:A0 *632:26 6.66667e-05
5 *2590:A0 *645:101 4.16517e-05
6 *2588:S *2590:A0 5.79582e-06
7 *2590:S *2590:A0 0.000140088
8 *340:110 *2590:A0 5.93614e-05
*RES
1 *2932:X *2590:A0 32.1357 
*END

*D_NET *511 0.00198496
*CONN
*I *2571:A0 I *D sky130_fd_sc_hd__mux2_1
*I *2933:X O *D sky130_fd_sc_hd__dlygate4sd3_1
*CAP
1 *2571:A0 0.000503554
2 *2933:X 0.000503554
3 *2571:A0 *2571:A1 0.000175512
4 *2571:A0 *2580:A0 0.000173804
5 *2571:A0 *2580:A1 0.000475251
6 *2460:A2 *2571:A0 3.06878e-06
7 *2719:D *2571:A0 2.56694e-05
8 *323:114 *2571:A0 5.69154e-05
9 *334:66 *2571:A0 0
10 *437:12 *2571:A0 6.76272e-05
*RES
1 *2933:X *2571:A0 37.725 
*END

*D_NET *512 0.000371583
*CONN
*I *2599:A0 I *D sky130_fd_sc_hd__mux2_1
*I *2934:X O *D sky130_fd_sc_hd__dlygate4sd3_1
*CAP
1 *2599:A0 0.000147293
2 *2934:X 0.000147293
3 *334:74 *2599:A0 0
4 *340:110 *2599:A0 7.6997e-05
*RES
1 *2934:X *2599:A0 29.5821 
*END

*D_NET *513 0.00116036
*CONN
*I *2517:A0 I *D sky130_fd_sc_hd__mux2_1
*I *2935:X O *D sky130_fd_sc_hd__dlygate4sd3_1
*CAP
1 *2517:A0 0.000372879
2 *2935:X 0.000372879
3 *2463:A2 *2517:A0 2.79092e-05
4 *2485:S *2517:A0 0
5 *2664:D *2517:A0 0
6 *2973:A *2517:A0 6.85873e-05
7 *338:123 *2517:A0 0.000318107
*RES
1 *2935:X *2517:A0 34.0643 
*END

*D_NET *514 0.000416892
*CONN
*I *2485:A0 I *D sky130_fd_sc_hd__mux2_1
*I *2937:X O *D sky130_fd_sc_hd__dlygate4sd3_1
*CAP
1 *2485:A0 9.51925e-05
2 *2937:X 9.51925e-05
3 *2485:A0 *2485:A1 0.000226507
*RES
1 *2937:X *2485:A0 20.7786 
*END

*D_NET *515 0.000598032
*CONN
*I *2486:A0 I *D sky130_fd_sc_hd__mux2_1
*I *2938:X O *D sky130_fd_sc_hd__dlygate4sd3_1
*CAP
1 *2486:A0 0.000185348
2 *2938:X 0.000185348
3 *2486:A0 *2486:A1 3.18676e-05
4 *2458:A1 *2486:A0 5.26184e-05
5 *2486:S *2486:A0 0.00014285
6 *2639:D *2486:A0 0
*RES
1 *2938:X *2486:A0 31.725 
*END

*D_NET *516 0.0020001
*CONN
*I *2556:A0 I *D sky130_fd_sc_hd__mux2_1
*I *2939:X O *D sky130_fd_sc_hd__dlygate4sd3_1
*CAP
1 *2556:A0 0.000490992
2 *2939:X 0.000490992
3 *2556:A0 *2460:S0 0.000271352
4 *2556:A0 *2460:S1 0
5 *2556:A0 *2556:A1 0.000149652
6 *2689:CLK *2556:A0 0.000200413
7 *327:53 *2556:A0 0.00033955
8 *359:14 *2556:A0 5.71472e-05
*RES
1 *2939:X *2556:A0 39.0464 
*END

*D_NET *517 0.000839316
*CONN
*I *2528:A0 I *D sky130_fd_sc_hd__mux2_1
*I *2940:X O *D sky130_fd_sc_hd__dlygate4sd3_1
*CAP
1 *2528:A0 0.000191675
2 *2940:X 0.000191675
3 *2528:A0 *648:117 9.62287e-05
4 *2528:A0 *666:106 0.000262092
5 *2657:D *2528:A0 7.83659e-05
6 *2673:CLK *2528:A0 1.92789e-05
*RES
1 *2940:X *2528:A0 31.6 
*END

*D_NET *518 0.00807903
*CONN
*I *2861:A I *D sky130_fd_sc_hd__buf_2
*I *2768:CLK I *D sky130_fd_sc_hd__dfrtp_2
*I *2767:CLK I *D sky130_fd_sc_hd__dfrtp_2
*I *2860:A I *D sky130_fd_sc_hd__buf_2
*I *3005:X O *D sky130_fd_sc_hd__clkbuf_1
*CAP
1 *2861:A 8.25768e-05
2 *2768:CLK 0.000168186
3 *2767:CLK 3.72884e-05
4 *2860:A 0.000313337
5 *3005:X 0
6 *518:40 0.00128172
7 *518:25 0.00247061
8 *518:4 0.00171571
9 *2768:CLK *674:16 5.70551e-05
10 *2860:A *2863:A 5.52302e-05
11 *2860:A *673:8 4.884e-05
12 *2860:A *678:54 0.000344925
13 *2861:A *2739:D 0
14 *2861:A *2768:D 0.000150618
15 *518:25 *2390:B 0
16 *518:25 *2767:D 0
17 *518:25 *3029:A 2.69534e-05
18 *518:25 *551:18 2.56601e-05
19 *518:25 *622:12 0.000292558
20 *518:25 *678:54 0
21 *518:40 *2767:D 0
22 *518:40 *2768:RESET_B 1.52723e-05
23 *518:40 *2864:A 3.32631e-05
24 *518:40 *674:8 5.38072e-05
25 *518:40 *674:12 4.1004e-05
26 *518:40 *674:16 3.97657e-05
27 rd_data[1] *518:25 8.67605e-05
28 *2868:A *2860:A 0.000150625
29 *3004:A *2860:A 0
30 *3005:A *2860:A 0
31 *3005:A *518:25 5.83304e-05
32 *3006:A *518:25 0.000434138
33 *3008:A *518:25 9.48025e-05
*RES
1 *3005:X *518:4 9.3 
2 *518:4 *2860:A 25.3893 
3 *518:4 *518:25 33.6071 
4 *518:25 *2767:CLK 14.3357 
5 *518:25 *518:40 18.0536 
6 *518:40 *2768:CLK 11.8 
7 *518:40 *2861:A 20.2464 
*END

*D_NET *519 0.000421944
*CONN
*I *2537:A0 I *D sky130_fd_sc_hd__mux2_1
*I *2941:X O *D sky130_fd_sc_hd__dlygate4sd3_1
*CAP
1 *2537:A0 0.000157967
2 *2941:X 0.000157967
3 *2537:A0 *2537:A1 5.71472e-05
4 *2421:A1 *2537:A0 0
5 *2609:S *2537:A0 0
6 *327:26 *2537:A0 4.88637e-05
*RES
1 *2941:X *2537:A0 29.9929 
*END

*D_NET *520 0.000434978
*CONN
*I *2589:A0 I *D sky130_fd_sc_hd__mux2_1
*I *2942:X O *D sky130_fd_sc_hd__dlygate4sd3_1
*CAP
1 *2589:A0 3.92138e-05
2 *2942:X 3.92138e-05
3 *2589:A0 *2589:A1 2.44318e-05
4 *2589:S *2589:A0 0.000100685
5 *2905:A *2589:A0 0.000187042
6 *336:65 *2589:A0 4.43915e-05
*RES
1 *2942:X *2589:A0 20.7786 
*END

*D_NET *521 0.000629998
*CONN
*I *2533:A0 I *D sky130_fd_sc_hd__mux2_1
*I *2943:X O *D sky130_fd_sc_hd__dlygate4sd3_1
*CAP
1 *2533:A0 0.000200809
2 *2943:X 0.000200809
3 *2533:A0 *656:32 5.52238e-05
4 *2533:S *2533:A0 0.000153273
5 *2570:S *2533:A0 1.98839e-05
*RES
1 *2943:X *2533:A0 21.7429 
*END

*D_NET *522 0.000299348
*CONN
*I *2561:A0 I *D sky130_fd_sc_hd__mux2_1
*I *2944:X O *D sky130_fd_sc_hd__dlygate4sd3_1
*CAP
1 *2561:A0 0.000135719
2 *2944:X 0.000135719
3 *2944:A *2561:A0 0
4 *332:80 *2561:A0 2.79092e-05
*RES
1 *2944:X *2561:A0 29.5821 
*END

*D_NET *523 0.00060637
*CONN
*I *2497:A0 I *D sky130_fd_sc_hd__mux2_1
*I *2945:X O *D sky130_fd_sc_hd__dlygate4sd3_1
*CAP
1 *2497:A0 0.000170361
2 *2945:X 0.000170361
3 *2497:A0 *637:125 0
4 *2495:S *2497:A0 0.000129868
5 *2707:CLK *2497:A0 9.25014e-06
6 *28:17 *2497:A0 9.31011e-05
7 *327:65 *2497:A0 3.34295e-05
*RES
1 *2945:X *2497:A0 31.3143 
*END

*D_NET *524 0.000913501
*CONN
*I *2516:A0 I *D sky130_fd_sc_hd__mux2_1
*I *2946:X O *D sky130_fd_sc_hd__dlygate4sd3_1
*CAP
1 *2516:A0 0.000116037
2 *2946:X 0.000116037
3 *2516:A0 *2434:S0 7.17932e-05
4 *2516:A0 *2516:A1 4.88637e-05
5 *2516:S *2516:A0 0.000139907
6 *325:83 *2516:A0 6.8646e-06
7 *331:31 *2516:A0 0.000123295
8 *340:73 *2516:A0 1.74352e-05
9 *345:76 *2516:A0 0.000273269
*RES
1 *2946:X *2516:A0 32.1357 
*END

*D_NET *525 0.000672213
*CONN
*I *2597:A0 I *D sky130_fd_sc_hd__mux2_1
*I *2948:X O *D sky130_fd_sc_hd__dlygate4sd3_1
*CAP
1 *2597:A0 0.000222879
2 *2948:X 0.000222879
3 *2597:A0 *655:62 4.06782e-05
4 *2597:S *2597:A0 3.34366e-05
5 *334:80 *2597:A0 0.00015234
*RES
1 *2948:X *2597:A0 31.3143 
*END

*D_NET *526 0.000670196
*CONN
*I *2615:A0 I *D sky130_fd_sc_hd__mux2_1
*I *2949:X O *D sky130_fd_sc_hd__dlygate4sd3_1
*CAP
1 *2615:A0 0.000192917
2 *2949:X 0.000192917
3 *2615:A0 *2543:A0 7.85137e-05
4 *2960:A *2615:A0 0.000150625
5 *332:38 *2615:A0 5.52238e-05
*RES
1 *2949:X *2615:A0 31.6 
*END

*D_NET *527 0.00143307
*CONN
*I *2558:A0 I *D sky130_fd_sc_hd__mux2_1
*I *2950:X O *D sky130_fd_sc_hd__dlygate4sd3_1
*CAP
1 *2558:A0 0.000322132
2 *2950:X 0.000322132
3 *2558:A0 *2432:S1 0
4 *2724:D *2558:A0 0.000142038
5 *2950:A *2558:A0 0
6 *337:97 *2558:A0 0.000461128
7 *356:117 *2558:A0 0.000185643
*RES
1 *2950:X *2558:A0 35.2607 
*END

*D_NET *528 0.000362658
*CONN
*I *2594:A0 I *D sky130_fd_sc_hd__mux2_1
*I *2951:X O *D sky130_fd_sc_hd__dlygate4sd3_1
*CAP
1 *2594:A0 4.36001e-05
2 *2951:X 4.36001e-05
3 *340:100 *2594:A0 1.91512e-05
4 *342:36 *2594:A0 0.000154762
5 *457:10 *2594:A0 0.000101545
*RES
1 *2951:X *2594:A0 29.5464 
*END

*D_NET *529 0.00133537
*CONN
*I *2390:B I *D sky130_fd_sc_hd__and2b_2
*I *3006:X O *D sky130_fd_sc_hd__clkbuf_1
*CAP
1 *2390:B 0.000340459
2 *3006:X 0.000340459
3 *2390:B *3029:A 5.83233e-05
4 *2390:B *622:12 7.39637e-05
5 *2390:B *625:10 0.000116481
6 *2390:B *678:54 0.000274095
7 *3006:A *2390:B 0.000131592
8 *518:25 *2390:B 0
*RES
1 *3006:X *2390:B 37.6714 
*END

*D_NET *530 0.000663717
*CONN
*I *2523:A0 I *D sky130_fd_sc_hd__mux2_1
*I *2952:X O *D sky130_fd_sc_hd__dlygate4sd3_1
*CAP
1 *2523:A0 0.000178192
2 *2952:X 0.000178192
3 *2523:A0 *2523:A1 5.12869e-05
4 *2523:A0 *3031:A 0.000122485
5 *2523:S *2523:A0 5.52238e-05
6 *2791:D *2523:A0 7.83366e-05
7 *2952:A *2523:A0 0
*RES
1 *2952:X *2523:A0 32.5107 
*END

*D_NET *531 0.000367212
*CONN
*I *2538:A0 I *D sky130_fd_sc_hd__mux2_1
*I *2953:X O *D sky130_fd_sc_hd__dlygate4sd3_1
*CAP
1 *2538:A0 0.000120186
2 *2953:X 0.000120186
3 *2538:A0 *2501:A0 7.83587e-05
4 *2538:A0 *634:176 9.20581e-06
5 *340:16 *2538:A0 3.92757e-05
*RES
1 *2953:X *2538:A0 29.5821 
*END

*D_NET *532 0.000402665
*CONN
*I *2586:A0 I *D sky130_fd_sc_hd__mux2_1
*I *2954:X O *D sky130_fd_sc_hd__dlygate4sd3_1
*CAP
1 *2586:A0 0.000102676
2 *2954:X 0.000102676
3 *2586:A0 *2586:A1 5.52302e-05
4 *2586:A0 *2595:A0 2.44318e-05
5 *2701:CLK *2586:A0 7.83659e-05
6 *329:107 *2586:A0 3.92854e-05
*RES
1 *2954:X *2586:A0 29.5821 
*END

*D_NET *533 0.00171938
*CONN
*I *2544:A0 I *D sky130_fd_sc_hd__mux2_1
*I *2955:X O *D sky130_fd_sc_hd__dlygate4sd3_1
*CAP
1 *2544:A0 0.000317017
2 *2955:X 0.000317017
3 *2544:A0 *651:59 5.43122e-05
4 *2544:A0 *651:65 5.49489e-05
5 *2465:A0 *2544:A0 0.000125731
6 *2544:S *2544:A0 6.55528e-06
7 *2794:D *2544:A0 0.000458977
8 *2888:A *2544:A0 0.000208742
9 *494:14 *2544:A0 0.000176079
*RES
1 *2955:X *2544:A0 36.3857 
*END

*D_NET *534 0.000401496
*CONN
*I *2532:A0 I *D sky130_fd_sc_hd__mux2_1
*I *2956:X O *D sky130_fd_sc_hd__dlygate4sd3_1
*CAP
1 *2532:A0 7.41565e-05
2 *2956:X 7.41565e-05
3 *2532:A0 *2532:A1 5.71472e-05
4 *2532:S *2532:A0 0.00010096
5 *2956:A *2532:A0 5.52302e-05
6 *427:10 *2532:A0 3.9846e-05
*RES
1 *2956:X *2532:A0 20.7786 
*END

*D_NET *535 0.000877332
*CONN
*I *2520:A0 I *D sky130_fd_sc_hd__mux2_1
*I *2957:X O *D sky130_fd_sc_hd__dlygate4sd3_1
*CAP
1 *2520:A0 0.000215491
2 *2957:X 0.000215491
3 *2520:A0 *2520:A1 9.80173e-05
4 *2650:D *2520:A0 2.56694e-05
5 *329:96 *2520:A0 5.24274e-05
6 *332:155 *2520:A0 0.000270236
7 *342:67 *2520:A0 0
*RES
1 *2957:X *2520:A0 32.4214 
*END

*D_NET *536 0.000351804
*CONN
*I *2470:A0 I *D sky130_fd_sc_hd__mux2_1
*I *2959:X O *D sky130_fd_sc_hd__dlygate4sd3_1
*CAP
1 *2470:A0 6.99211e-05
2 *2959:X 6.99211e-05
3 *2470:A0 *666:20 7.83659e-05
4 *2420:A1 *2470:A0 7.83659e-05
5 *332:38 *2470:A0 5.52302e-05
*RES
1 *2959:X *2470:A0 29.1714 
*END

*D_NET *537 0.00161841
*CONN
*I *2543:A0 I *D sky130_fd_sc_hd__mux2_1
*I *2960:X O *D sky130_fd_sc_hd__dlygate4sd3_1
*CAP
1 *2543:A0 0.000436042
2 *2960:X 0.000436042
3 *2543:A0 *653:56 6.82897e-05
4 *2543:A0 *653:65 0.000269378
5 *2543:A0 *653:105 0.000250846
6 *2459:A0 *2543:A0 6.16559e-05
7 *2615:A0 *2543:A0 7.85137e-05
8 *2960:A *2543:A0 1.76471e-05
*RES
1 *2960:X *2543:A0 37.225 
*END

*D_NET *538 0.000449119
*CONN
*I *2474:A0 I *D sky130_fd_sc_hd__mux2_1
*I *2961:X O *D sky130_fd_sc_hd__dlygate4sd3_1
*CAP
1 *2474:A0 0.000197656
2 *2961:X 0.000197656
3 *2474:A0 *2444:S1 0
4 *2474:A0 *650:30 5.38072e-05
5 *341:105 *2474:A0 0
*RES
1 *2961:X *2474:A0 30.4036 
*END

*D_NET *539 0.00047011
*CONN
*I *2473:A0 I *D sky130_fd_sc_hd__mux2_1
*I *2962:X O *D sky130_fd_sc_hd__dlygate4sd3_1
*CAP
1 *2473:A0 0.000147581
2 *2962:X 0.000147581
3 *2473:A0 *2467:S 2.79092e-05
4 *2473:A0 *2473:A1 7.83587e-05
5 *2473:A0 *632:14 6.86792e-05
*RES
1 *2962:X *2473:A0 29.9929 
*END

*D_NET *540 0.00457681
*CONN
*I *2857:A I *D sky130_fd_sc_hd__clkbuf_2
*I *2858:A I *D sky130_fd_sc_hd__buf_1
*I *3007:X O *D sky130_fd_sc_hd__buf_1
*CAP
1 *2857:A 0.000493524
2 *2858:A 0.000684396
3 *3007:X 0.000517629
4 *540:10 0.00169555
5 *2857:A *2423:A0 5.71472e-05
6 *2858:A *667:10 0.000230043
7 *540:10 *2423:A0 9.74027e-05
8 *540:10 *3028:A 0.000173597
9 *2423:A1 *2858:A 5.38886e-05
10 *2423:S *2857:A 2.89016e-05
11 *2461:S *540:10 6.07232e-05
12 *2617:D *2857:A 2.27416e-05
13 *2877:A *2858:A 0.000224585
14 *264:20 *2858:A 0.000207268
15 *264:20 *540:10 2.94103e-05
*RES
1 *3007:X *540:10 24.6929 
2 *540:10 *2858:A 27.9607 
3 *540:10 *2857:A 21.7286 
*END

*D_NET *541 0.00123838
*CONN
*I *2560:A0 I *D sky130_fd_sc_hd__mux2_1
*I *2963:X O *D sky130_fd_sc_hd__dlygate4sd3_1
*CAP
1 *2560:A0 0.000191175
2 *2963:X 0.000191175
3 *2560:A0 *2551:A0 5.71472e-05
4 *2560:A0 *637:90 0.000176876
5 *2560:A0 *647:41 5.52302e-05
6 *2560:A0 *658:25 0.000356028
7 *2560:S *2560:A0 0.00010096
8 *2595:S *2560:A0 1.21289e-05
9 *2907:A *2560:A0 9.7659e-05
*RES
1 *2963:X *2560:A0 24.8857 
*END

*D_NET *542 0.000486571
*CONN
*I *2494:A0 I *D sky130_fd_sc_hd__mux2_1
*I *2964:X O *D sky130_fd_sc_hd__dlygate4sd3_1
*CAP
1 *2494:A0 0.000168621
2 *2964:X 0.000168621
3 *2494:A0 *2449:S 1.39726e-05
4 *2494:A0 *2621:CLK 0
5 *2494:A0 *634:78 5.33005e-05
6 *2494:A0 *669:40 7.83659e-05
7 *2449:A1 *2494:A0 3.69047e-06
*RES
1 *2964:X *2494:A0 29.9929 
*END

*D_NET *543 0.00086623
*CONN
*I *2548:A1 I *D sky130_fd_sc_hd__mux2_1
*I *2965:X O *D sky130_fd_sc_hd__dlygate4sd3_1
*CAP
1 *2548:A1 0.000219246
2 *2965:X 0.000219246
3 *2548:A1 *2557:A1 3.4879e-05
4 *2548:A1 *664:14 1.92789e-05
5 *2690:D *2548:A1 5.35423e-05
6 *337:28 *2548:A1 0
7 *342:75 *2548:A1 0.000320038
*RES
1 *2965:X *2548:A1 33.0286 
*END

*D_NET *544 0.000477397
*CONN
*I *2562:A0 I *D sky130_fd_sc_hd__mux2_1
*I *2966:X O *D sky130_fd_sc_hd__dlygate4sd3_1
*CAP
1 *2562:A0 0.000167381
2 *2966:X 0.000167381
3 *2562:A0 *2553:A0 1.76135e-05
4 *2562:A0 *653:25 6.97972e-05
5 *2562:S *2562:A0 5.52238e-05
6 *329:48 *2562:A0 0
*RES
1 *2966:X *2562:A0 30.9036 
*END

*D_NET *545 0.00051026
*CONN
*I *2559:A0 I *D sky130_fd_sc_hd__mux2_1
*I *2967:X O *D sky130_fd_sc_hd__dlygate4sd3_1
*CAP
1 *2559:A0 0.000155688
2 *2967:X 0.000155688
3 *2559:A0 *633:50 9.60939e-05
4 *2559:A0 *634:98 2.44318e-05
5 *2559:A0 *659:116 7.83587e-05
*RES
1 *2967:X *2559:A0 29.9929 
*END

*D_NET *546 0.000555262
*CONN
*I *2614:A0 I *D sky130_fd_sc_hd__mux2_1
*I *2968:X O *D sky130_fd_sc_hd__dlygate4sd3_1
*CAP
1 *2614:A0 0.000221405
2 *2968:X 0.000221405
3 *332:92 *2614:A0 8.90314e-05
4 *492:12 *2614:A0 2.34204e-05
*RES
1 *2968:X *2614:A0 30.8143 
*END

*D_NET *547 0.000681269
*CONN
*I *2542:A0 I *D sky130_fd_sc_hd__mux2_1
*I *2970:X O *D sky130_fd_sc_hd__dlygate4sd3_1
*CAP
1 *2542:A0 0.000245137
2 *2970:X 0.000245137
3 *2542:A0 *2542:A1 0.000124706
4 *334:80 *2542:A0 1.39841e-05
5 *334:93 *2542:A0 5.23057e-05
*RES
1 *2970:X *2542:A0 31.225 
*END

*D_NET *548 0.00232903
*CONN
*I *2524:A0 I *D sky130_fd_sc_hd__mux2_1
*I *2971:X O *D sky130_fd_sc_hd__dlygate4sd3_1
*CAP
1 *2524:A0 0.000771781
2 *2971:X 0.000771781
3 *2524:A0 *2453:S0 0.000268403
4 *2524:A0 *655:38 2.56694e-05
5 *2453:A2 *2524:A0 1.14548e-05
6 *2453:A3 *2524:A0 6.71657e-05
7 *2524:S *2524:A0 9.99853e-05
8 *332:92 *2524:A0 0.000312792
*RES
1 *2971:X *2524:A0 39.7786 
*END

*D_NET *549 0.00100126
*CONN
*I *2541:A0 I *D sky130_fd_sc_hd__mux2_1
*I *2972:X O *D sky130_fd_sc_hd__dlygate4sd3_1
*CAP
1 *2541:A0 0.000483191
2 *2972:X 0.000483191
3 *2685:D *2541:A0 3.4879e-05
*RES
1 *2972:X *2541:A0 35.8321 
*END

*D_NET *550 0.00133635
*CONN
*I *2572:A0 I *D sky130_fd_sc_hd__mux2_1
*I *2973:X O *D sky130_fd_sc_hd__dlygate4sd3_1
*CAP
1 *2572:A0 0.000307776
2 *2973:X 0.000307776
3 *2597:S *2572:A0 0.00013905
4 *334:74 *2572:A0 0.000269529
5 *338:123 *2572:A0 0.000312222
*RES
1 *2973:X *2572:A0 34.0643 
*END

*D_NET *551 0.0117606
*CONN
*I *2856:A I *D sky130_fd_sc_hd__buf_1
*I *2855:A I *D sky130_fd_sc_hd__clkbuf_2
*I *3008:X O *D sky130_fd_sc_hd__buf_1
*CAP
1 *2856:A 0
2 *2855:A 0.00152643
3 *3008:X 0.00167623
4 *551:26 0.00234431
5 *551:18 0.00249411
6 *2855:A *2394:A1 0.000520402
7 *2855:A *634:52 7.4545e-06
8 *2855:A *642:37 0.000271847
9 *551:18 *2336:A 3.5298e-05
10 *551:18 *2401:A 2.44318e-05
11 *551:18 *2732:RESET_B 0.000227532
12 *551:18 *2735:D 0.00018372
13 *551:18 *2735:RESET_B 9.23695e-05
14 *551:18 *634:26 7.36921e-05
15 *551:18 *668:79 0.000208628
16 *551:18 *678:54 0
17 *551:18 *708:10 9.85156e-05
18 *551:18 *720:18 0.000276447
19 *551:26 *2394:A1 9.41642e-05
20 *551:26 *2732:CLK 0.000192428
21 *551:26 *2732:RESET_B 6.34577e-05
22 *551:26 *634:40 4.08637e-05
23 *551:26 *634:44 5.52238e-05
24 *551:26 *720:18 0.000136837
25 *2407:A1 *551:18 0.000107204
26 *2407:C1 *551:18 5.33005e-05
27 *2425:A1 *2855:A 6.27272e-06
28 *2575:S *2855:A 0.000473611
29 *2723:D *2855:A 7.12756e-05
30 *264:18 *2855:A 0
31 *267:12 *551:26 1.27207e-05
32 *339:142 *2855:A 0.000228312
33 *340:24 *2855:A 0.000137829
34 *518:25 *551:18 2.56601e-05
*RES
1 *3008:X *551:18 43.8536 
2 *551:18 *551:26 11.7857 
3 *551:26 *2855:A 30.9859 
4 *551:26 *2856:A 9.3 
*END

*D_NET *552 0.000843916
*CONN
*I *2515:A0 I *D sky130_fd_sc_hd__mux2_1
*I *2974:X O *D sky130_fd_sc_hd__dlygate4sd3_1
*CAP
1 *2515:A0 0.00012643
2 *2974:X 0.00012643
3 *2515:A0 *2515:A1 5.71472e-05
4 *2515:A0 *2852:A 0
5 *2451:A0 *2515:A0 0.000186662
6 *2515:S *2515:A0 0.000149609
7 *2570:S *2515:A0 1.98839e-05
8 *2577:S *2515:A0 2.95641e-05
9 *372:8 *2515:A0 0.000148189
*RES
1 *2974:X *2515:A0 31.725 
*END

*D_NET *553 0.000437936
*CONN
*I *2603:A1 I *D sky130_fd_sc_hd__mux2_1
*I *2975:X O *D sky130_fd_sc_hd__dlygate4sd3_1
*CAP
1 *2603:A1 8.11693e-05
2 *2975:X 8.11693e-05
3 *2603:A1 *633:50 0.000128154
4 *2603:A1 *661:60 0.000128154
5 *2820:A *2603:A1 1.92905e-05
*RES
1 *2975:X *2603:A1 29.7786 
*END

*D_NET *554 0.000805181
*CONN
*I *2490:A0 I *D sky130_fd_sc_hd__mux2_1
*I *2976:X O *D sky130_fd_sc_hd__dlygate4sd3_1
*CAP
1 *2490:A0 0.000227634
2 *2976:X 0.000227634
3 *2490:A0 *2519:A0 0
4 *323:86 *2490:A0 7.6644e-05
5 *332:38 *2490:A0 0.000273269
*RES
1 *2976:X *2490:A0 31.225 
*END

*D_NET *555 0.000267738
*CONN
*I *2475:A0 I *D sky130_fd_sc_hd__mux2_1
*I *2977:X O *D sky130_fd_sc_hd__dlygate4sd3_1
*CAP
1 *2475:A0 8.60412e-05
2 *2977:X 8.60412e-05
3 *2475:A0 *655:112 7.83659e-05
4 *2630:D *2475:A0 0
5 *412:6 *2475:A0 1.72894e-05
*RES
1 *2977:X *2475:A0 29.1714 
*END

*D_NET *556 0.000462239
*CONN
*I *2525:A0 I *D sky130_fd_sc_hd__mux2_1
*I *2978:X O *D sky130_fd_sc_hd__dlygate4sd3_1
*CAP
1 *2525:A0 0.00015434
2 *2978:X 0.00015434
3 *2525:A0 *2525:A1 5.52238e-05
4 *2525:A0 *607:10 2.56694e-05
5 *2525:A0 *653:6 5.52302e-05
6 *332:52 *2525:A0 1.74352e-05
*RES
1 *2978:X *2525:A0 29.9929 
*END

*D_NET *557 0.00111845
*CONN
*I *2563:A0 I *D sky130_fd_sc_hd__mux2_1
*I *2979:X O *D sky130_fd_sc_hd__dlygate4sd3_1
*CAP
1 *2563:A0 0.000213449
2 *2979:X 0.000213449
3 *2507:S *2563:A0 0.000344917
4 *332:70 *2563:A0 0.000346639
*RES
1 *2979:X *2563:A0 33.3321 
*END

*D_NET *558 0.000407335
*CONN
*I *2480:A0 I *D sky130_fd_sc_hd__mux2_1
*I *2981:X O *D sky130_fd_sc_hd__dlygate4sd3_1
*CAP
1 *2480:A0 0.0001668
2 *2981:X 0.0001668
3 *2480:A0 *666:14 5.62995e-05
4 *2480:A0 *666:20 1.74352e-05
5 *2480:A0 *670:80 0
*RES
1 *2981:X *2480:A0 29.9929 
*END

*D_NET *559 0.00126027
*CONN
*I *2596:A0 I *D sky130_fd_sc_hd__mux2_1
*I *2982:X O *D sky130_fd_sc_hd__dlygate4sd3_1
*CAP
1 *2596:A0 0.000154608
2 *2982:X 0.000154608
3 *2596:A0 *657:104 7.83462e-05
4 *2596:A0 *669:40 0.000207844
5 *2596:A0 *678:12 0.000487473
6 *2596:S *2596:A0 9.90431e-05
7 *347:47 *2596:A0 7.83462e-05
*RES
1 *2982:X *2596:A0 34.1893 
*END

*D_NET *560 0.000870637
*CONN
*I *2550:A1 I *D sky130_fd_sc_hd__mux2_1
*I *2983:X O *D sky130_fd_sc_hd__dlygate4sd3_1
*CAP
1 *2550:A1 0.00030987
2 *2983:X 0.00030987
3 *2550:A1 *2624:RESET_B 0.000122751
4 *2983:A *2550:A1 0.000128146
*RES
1 *2983:X *2550:A1 32.2429 
*END

*D_NET *561 0.000366135
*CONN
*I *2612:A0 I *D sky130_fd_sc_hd__mux2_1
*I *2984:X O *D sky130_fd_sc_hd__dlygate4sd3_1
*CAP
1 *2612:A0 0.000131664
2 *2984:X 0.000131664
3 *2612:A0 *2612:A1 2.89016e-05
4 *2523:S *2612:A0 2.05612e-05
5 *342:83 *2612:A0 5.33433e-05
*RES
1 *2984:X *2612:A0 20.7786 
*END

*D_NET *562 0.00771216
*CONN
*I *2854:A I *D sky130_fd_sc_hd__buf_1
*I *2853:A I *D sky130_fd_sc_hd__clkbuf_2
*I *3009:X O *D sky130_fd_sc_hd__buf_1
*CAP
1 *2854:A 0
2 *2853:A 0.000188793
3 *3009:X 0.000424458
4 *562:29 0.00135976
5 *562:10 0.00197302
6 *2853:A *662:120 0
7 *562:10 *3030:A 0.000195438
8 *562:29 *2434:S0 0.000437227
9 *562:29 *2460:S1 0
10 *562:29 *2585:A0 0.000354344
11 *562:29 *3030:A 0.000442074
12 *562:29 *626:20 0.000108433
13 *562:29 *643:39 0
14 *562:29 *662:48 0.000180251
15 *562:29 *662:55 0.000440814
16 *562:29 *662:74 0.000441724
17 *2434:A1 *562:29 9.64979e-05
18 *2434:A3 *562:29 2.19684e-05
19 *2635:CLK *562:29 0.000256992
20 *2635:D *562:29 0.000184031
21 *325:83 *562:29 0
22 *329:48 *2853:A 0.000367396
23 *332:70 *2853:A 0
24 *356:20 *562:29 0.0001399
25 *401:8 *562:29 9.90431e-05
*RES
1 *3009:X *562:10 15.7286 
2 *562:10 *2853:A 22.9786 
3 *562:10 *562:29 41.375 
4 *562:29 *2854:A 9.3 
*END

*D_NET *563 0.000403113
*CONN
*I *2613:A0 I *D sky130_fd_sc_hd__mux2_1
*I *2985:X O *D sky130_fd_sc_hd__dlygate4sd3_1
*CAP
1 *2613:A0 6.35485e-05
2 *2985:X 6.35485e-05
3 *2613:A0 *2523:A1 2.89114e-05
4 *2613:A0 *657:34 9.47613e-05
5 *2613:S *2613:A0 9.90431e-05
6 *2985:A *2613:A0 5.33005e-05
*RES
1 *2985:X *2613:A0 20.7786 
*END

*D_NET *564 0.0022008
*CONN
*I *2580:A1 I *D sky130_fd_sc_hd__mux2_1
*I *2986:X O *D sky130_fd_sc_hd__dlygate4sd3_1
*CAP
1 *2580:A1 0.000398698
2 *2986:X 0.000398698
3 *2460:A2 *2580:A1 2.15245e-05
4 *2571:A0 *2580:A1 0.000475251
5 *2719:D *2580:A1 0
6 *2933:A *2580:A1 8.36572e-05
7 *341:40 *2580:A1 0.000290265
8 *437:12 *2580:A1 0.000532706
*RES
1 *2986:X *2580:A1 38.1 
*END

*D_NET *565 0.00182563
*CONN
*I *2610:A0 I *D sky130_fd_sc_hd__mux2_1
*I *2987:X O *D sky130_fd_sc_hd__dlygate4sd3_1
*CAP
1 *2610:A0 0.00043682
2 *2987:X 0.00043682
3 *2610:A0 *2610:A1 0.000318101
4 *2610:A0 *637:28 0.000135559
5 *2429:A0 *2610:A0 7.83659e-05
6 *2610:S *2610:A0 9.90431e-05
7 *333:58 *2610:A0 0.000320917
8 *341:103 *2610:A0 0
*RES
1 *2987:X *2610:A0 38.6714 
*END

*D_NET *566 0.00113394
*CONN
*I *2477:A0 I *D sky130_fd_sc_hd__mux2_1
*I *2988:X O *D sky130_fd_sc_hd__dlygate4sd3_1
*CAP
1 *2477:A0 0.000228744
2 *2988:X 0.000228744
3 *2477:A0 *2487:A1 8.16036e-05
4 *2477:A0 *642:78 5.52238e-05
5 *2466:A2 *2477:A0 0.000492333
6 *323:120 *2477:A0 2.44318e-05
7 *323:126 *2477:A0 2.28598e-05
*RES
1 *2988:X *2477:A0 34.1893 
*END

*D_NET *567 0.00119659
*CONN
*I *2568:A0 I *D sky130_fd_sc_hd__mux2_1
*I *2989:X O *D sky130_fd_sc_hd__dlygate4sd3_1
*CAP
1 *2568:A0 0.000386614
2 *2989:X 0.000386614
3 *2568:A0 *2455:A0 9.76946e-05
4 *2568:A0 *2852:A 0.000268521
5 *2943:A *2568:A0 0
6 *338:44 *2568:A0 5.71472e-05
*RES
1 *2989:X *2568:A0 34.1893 
*END

*D_NET *568 0.000404005
*CONN
*I *2584:A0 I *D sky130_fd_sc_hd__mux2_1
*I *2990:X O *D sky130_fd_sc_hd__dlygate4sd3_1
*CAP
1 *2584:A0 9.11654e-05
2 *2990:X 9.11654e-05
3 *2584:A0 *2584:A1 5.71472e-05
4 *2584:S *2584:A0 2.44318e-05
5 *2990:A *2584:A0 5.52302e-05
6 *331:56 *2584:A0 2.77173e-05
7 *345:12 *2584:A0 5.71472e-05
*RES
1 *2990:X *2584:A0 20.7786 
*END

*D_NET *569 0.00136092
*CONN
*I *2513:A0 I *D sky130_fd_sc_hd__mux2_1
*I *2992:X O *D sky130_fd_sc_hd__dlygate4sd3_1
*CAP
1 *2513:A0 0.000258001
2 *2992:X 0.000258001
3 *2513:A0 *2439:S0 0.00034421
4 *2439:A1 *2513:A0 0.000247771
5 *2439:A3 *2513:A0 0
6 *2513:S *2513:A0 3.5707e-05
7 *2515:S *2513:A0 2.66026e-05
8 *2992:A *2513:A0 6.91157e-05
9 *342:77 *2513:A0 0.000121516
*RES
1 *2992:X *2513:A0 35.9214 
*END

*D_NET *570 0.000335456
*CONN
*I *2505:A1 I *D sky130_fd_sc_hd__mux2_1
*I *2993:X O *D sky130_fd_sc_hd__dlygate4sd3_1
*CAP
1 *2505:A1 9.63577e-05
2 *2993:X 9.63577e-05
3 *2505:A1 *2453:S1 7.70035e-05
4 *2505:A1 *2524:A1 1.24368e-05
5 *2505:A1 *655:10 5.33005e-05
*RES
1 *2993:X *2505:A1 29.1714 
*END

*D_NET *571 0.00110871
*CONN
*I *2585:A0 I *D sky130_fd_sc_hd__mux2_1
*I *2994:X O *D sky130_fd_sc_hd__dlygate4sd3_1
*CAP
1 *2585:A0 0.000162737
2 *2994:X 0.000162737
3 *2585:A0 *3030:A 8.84211e-05
4 *2585:S *2585:A0 0.000183022
5 *340:100 *2585:A0 0.000125731
6 *340:110 *2585:A0 3.17148e-05
7 *341:59 *2585:A0 0
8 *562:29 *2585:A0 0.000354344
*RES
1 *2994:X *2585:A0 32.9571 
*END

*D_NET *572 0.00166158
*CONN
*I *2606:A1 I *D sky130_fd_sc_hd__mux2_1
*I *2995:X O *D sky130_fd_sc_hd__dlygate4sd3_1
*CAP
1 *2606:A1 0.000373291
2 *2995:X 0.000373291
3 *2606:A1 *2606:A0 1.98839e-05
4 *2460:A1 *2606:A1 0.000561804
5 *2460:A3 *2606:A1 5.33005e-05
6 *323:114 *2606:A1 0.000154104
7 *334:41 *2606:A1 6.87574e-05
8 *413:10 *2606:A1 5.71472e-05
*RES
1 *2995:X *2606:A1 36.1357 
*END

*D_NET *573 0.00724195
*CONN
*I *2851:A I *D sky130_fd_sc_hd__clkbuf_2
*I *2852:A I *D sky130_fd_sc_hd__buf_1
*I *3010:X O *D sky130_fd_sc_hd__buf_1
*CAP
1 *2851:A 0
2 *2852:A 0.00115323
3 *3010:X 0.00193627
4 *573:12 0.0030895
5 *2852:A *2455:S 0
6 *2852:A *2624:RESET_B 0
7 *2852:A *3033:A 0
8 *2852:A *630:10 0
9 *2852:A *645:18 7.92169e-05
10 *2852:A *659:116 0
11 *573:12 *3033:A 0.000289682
12 *2441:A2 *573:12 2.66026e-05
13 *2515:A0 *2852:A 0
14 *2522:A0 *2852:A 0
15 *2568:A0 *2852:A 0.000268521
16 *2614:S *2852:A 0.000117543
17 *2652:D *2852:A 0.000103267
18 *2652:D *573:12 0
19 *2668:D *2852:A 0
20 *2708:D *2852:A 5.33882e-05
21 *2790:CLK *573:12 0
22 *2928:A *2852:A 0.000124732
*RES
1 *3010:X *573:12 44.425 
2 *573:12 *2852:A 39.7286 
3 *573:12 *2851:A 9.3 
*END

*D_NET *574 0.000821945
*CONN
*I *2579:A1 I *D sky130_fd_sc_hd__mux2_1
*I *2996:X O *D sky130_fd_sc_hd__dlygate4sd3_1
*CAP
1 *2579:A1 0.000324682
2 *2996:X 0.000324682
3 *2579:A1 *2848:A 0
4 *2579:A1 *641:50 0.00010509
5 *2454:A1 *2579:A1 6.74911e-05
*RES
1 *2996:X *2579:A1 32.6536 
*END

*D_NET *575 0.00307019
*CONN
*I *2476:A0 I *D sky130_fd_sc_hd__mux2_1
*I *2997:X O *D sky130_fd_sc_hd__dlygate4sd3_1
*CAP
1 *2476:A0 0.000365684
2 *2997:X 0.000365684
3 *2476:A0 *2458:S0 2.69245e-05
4 *2476:A0 *2486:A1 9.90367e-05
5 *2476:A0 *2606:A0 0
6 *2476:A0 *653:112 5.71472e-05
7 *2476:A0 *654:14 6.8646e-06
8 *2458:A1 *2476:A0 0.00021785
9 *2460:A3 *2476:A0 6.94775e-05
10 *2496:A0 *2476:A0 0.000267814
11 *2647:D *2476:A0 0.000147136
12 *323:102 *2476:A0 0.000454775
13 *325:83 *2476:A0 7.50455e-05
14 *332:38 *2476:A0 0.000916754
*RES
1 *2997:X *2476:A0 41.9393 
*END

*D_NET *576 0.00122594
*CONN
*I *2510:A0 I *D sky130_fd_sc_hd__mux2_1
*I *2998:X O *D sky130_fd_sc_hd__dlygate4sd3_1
*CAP
1 *2510:A0 0.000326676
2 *2998:X 0.000326676
3 *2422:A0 *2510:A0 0
4 *331:31 *2510:A0 7.61932e-05
5 *333:12 *2510:A0 9.2923e-05
6 *336:8 *2510:A0 0.00014285
7 *341:103 *2510:A0 0.000260621
*RES
1 *2998:X *2510:A0 33.7786 
*END

*D_NET *577 0.00128965
*CONN
*I *2574:A1 I *D sky130_fd_sc_hd__mux2_1
*I *2999:X O *D sky130_fd_sc_hd__dlygate4sd3_1
*CAP
1 *2574:A1 0.000248108
2 *2999:X 0.000248108
3 *2574:A1 *666:93 3.18676e-05
4 *2574:A1 *666:106 2.89016e-05
5 *2419:A0 *2574:A1 8.4532e-05
6 *336:10 *2574:A1 0.000103449
7 *342:67 *2574:A1 0.000494308
8 *439:16 *2574:A1 5.03772e-05
*RES
1 *2999:X *2574:A1 35.0464 
*END

*D_NET *578 0.000699102
*CONN
*I *2512:A0 I *D sky130_fd_sc_hd__mux2_1
*I *3000:X O *D sky130_fd_sc_hd__dlygate4sd3_1
*CAP
1 *2512:A0 5.3863e-05
2 *3000:X 5.3863e-05
3 *331:56 *2512:A0 0.000317082
4 *345:20 *2512:A0 0.000274294
*RES
1 *3000:X *2512:A0 21.6 
*END

*D_NET *579 0.000482047
*CONN
*I *2495:A0 I *D sky130_fd_sc_hd__mux2_1
*I *3001:X O *D sky130_fd_sc_hd__dlygate4sd3_1
*CAP
1 *2495:A0 0.00015227
2 *3001:X 0.00015227
3 *2495:A0 *2624:CLK 0
4 *2495:A0 *639:111 2.6949e-05
5 *2495:A0 *641:40 7.6644e-05
6 *2495:S *2495:A0 1.76135e-05
7 *354:26 *2495:A0 5.62995e-05
*RES
1 *3001:X *2495:A0 30.4929 
*END

*D_NET *580 0.000435973
*CONN
*I *2601:A1 I *D sky130_fd_sc_hd__mux2_1
*I *2871:X O *D sky130_fd_sc_hd__dlygate4sd3_1
*CAP
1 *2601:A1 0.00012613
2 *2871:X 0.00012613
3 *2601:A1 *670:64 0.000183713
*RES
1 *2871:X *2601:A1 20.3679 
*END

*D_NET *581 0.000449374
*CONN
*I *2604:A1 I *D sky130_fd_sc_hd__mux2_1
*I *2872:X O *D sky130_fd_sc_hd__dlygate4sd3_1
*CAP
1 *2604:A1 5.39907e-05
2 *2872:X 5.39907e-05
3 *2604:A1 *633:22 9.71197e-05
4 *2604:A1 *633:34 5.33005e-05
5 *2604:A1 *639:49 1.21258e-05
6 *2637:CLK *2604:A1 0.000178847
*RES
1 *2872:X *2604:A1 20.3679 
*END

*D_NET *582 0.00030965
*CONN
*I *2519:A0 I *D sky130_fd_sc_hd__mux2_1
*I *2873:X O *D sky130_fd_sc_hd__dlygate4sd3_1
*CAP
1 *2519:A0 0.00012802
2 *2873:X 0.00012802
3 *2490:A0 *2519:A0 0
4 *2787:CLK *2519:A0 2.56694e-05
5 *327:26 *2519:A0 2.794e-05
*RES
1 *2873:X *2519:A0 29.5821 
*END

*D_NET *583 0.0013044
*CONN
*I *2611:A0 I *D sky130_fd_sc_hd__mux2_1
*I *2874:X O *D sky130_fd_sc_hd__dlygate4sd3_1
*CAP
1 *2611:A0 0.000407093
2 *2874:X 0.000407093
3 *2611:A0 *2539:A1 0.000153047
4 *2611:A0 *662:40 5.65955e-05
5 *2539:A0 *2611:A0 3.92854e-05
6 *2923:A *2611:A0 0.000241291
*RES
1 *2874:X *2611:A0 35.4214 
*END

*D_NET *584 0.00567736
*CONN
*I *2850:A I *D sky130_fd_sc_hd__buf_1
*I *2849:A I *D sky130_fd_sc_hd__clkbuf_2
*I *3011:X O *D sky130_fd_sc_hd__buf_1
*CAP
1 *2850:A 0.000994188
2 *2849:A 2.31617e-05
3 *3011:X 0.000707299
4 *584:10 0.00172465
5 *2849:A *657:8 5.52238e-05
6 *2850:A *2578:A1 1.18064e-05
7 *2850:A *637:90 5.33005e-05
8 *2850:A *657:32 0
9 *2850:A *657:60 7.60306e-05
10 *2850:A *657:71 0.000193175
11 *2850:A *657:82 9.9784e-05
12 *2850:A *658:10 2.59355e-05
13 *2447:A0 *2850:A 0
14 *2448:A1 *2850:A 0.000252145
15 *2685:D *2850:A 0.000151333
16 *2896:A *2850:A 0
17 *2896:A *584:10 0
18 *338:32 *2850:A 0.000570314
19 *339:142 *2850:A 0.000739012
*RES
1 *3011:X *584:10 22.7464 
2 *584:10 *2849:A 14.3357 
3 *584:10 *2850:A 40.5679 
*END

*D_NET *585 0.00194699
*CONN
*I *2547:A1 I *D sky130_fd_sc_hd__mux2_1
*I *2875:X O *D sky130_fd_sc_hd__dlygate4sd3_1
*CAP
1 *2547:A1 0.000624597
2 *2875:X 0.000624597
3 *2547:A1 *633:123 0
4 *2547:A1 *666:69 0.000154443
5 *2547:A1 *666:86 0.000186662
6 *2547:A1 *670:80 2.11419e-05
7 *2870:A *2547:A1 4.65158e-06
8 *2875:A *2547:A1 0.000310286
9 *336:61 *2547:A1 2.06112e-05
10 *340:63 *2547:A1 0
*RES
1 *2875:X *2547:A1 40.4562 
*END

*D_NET *586 0.000507619
*CONN
*I *2569:A0 I *D sky130_fd_sc_hd__mux2_1
*I *2876:X O *D sky130_fd_sc_hd__dlygate4sd3_1
*CAP
1 *2569:A0 0.000161437
2 *2876:X 0.000161437
3 *2569:A0 *2569:A1 0.000184745
*RES
1 *2876:X *2569:A0 20.7786 
*END

*D_NET *587 0.00156085
*CONN
*I *2500:A1 I *D sky130_fd_sc_hd__mux2_1
*I *2877:X O *D sky130_fd_sc_hd__dlygate4sd3_1
*CAP
1 *2500:A1 0.000382721
2 *2877:X 0.000382721
3 *2500:A1 *667:24 0.00019828
4 *2500:A1 *667:30 2.89016e-05
5 *2421:A2 *2500:A1 9.90431e-05
6 *2423:A1 *2500:A1 0
7 *2873:A *2500:A1 0.000180336
8 *332:12 *2500:A1 0.000148942
9 *332:18 *2500:A1 0.000139907
*RES
1 *2877:X *2500:A1 37.1 
*END

*D_NET *588 0.000832456
*CONN
*I *2481:A0 I *D sky130_fd_sc_hd__mux2_1
*I *2878:X O *D sky130_fd_sc_hd__dlygate4sd3_1
*CAP
1 *2481:A0 0.000223733
2 *2878:X 0.000223733
3 *2481:A0 *670:64 0.000265634
4 *323:20 *2481:A0 3.92757e-05
5 *333:46 *2481:A0 8.00806e-05
*RES
1 *2878:X *2481:A0 31.225 
*END

*D_NET *589 0.00120823
*CONN
*I *2472:A0 I *D sky130_fd_sc_hd__mux2_1
*I *2879:X O *D sky130_fd_sc_hd__dlygate4sd3_1
*CAP
1 *2472:A0 0.000257499
2 *2879:X 0.000257499
3 *295:16 *2472:A0 0.000273269
4 *323:120 *2472:A0 0.000145584
5 *356:24 *2472:A0 0.00027438
*RES
1 *2879:X *2472:A0 33.6536 
*END

*D_NET *590 0.000221398
*CONN
*I *2605:A1 I *D sky130_fd_sc_hd__mux2_1
*I *2880:X O *D sky130_fd_sc_hd__dlygate4sd3_1
*CAP
1 *2605:A1 7.52075e-05
2 *2880:X 7.52075e-05
3 *2605:A1 *633:50 1.02504e-05
4 *2454:A1 *2605:A1 6.07328e-05
*RES
1 *2880:X *2605:A1 29.2429 
*END

*D_NET *591 0.000392862
*CONN
*I *2577:A1 I *D sky130_fd_sc_hd__mux2_1
*I *2882:X O *D sky130_fd_sc_hd__dlygate4sd3_1
*CAP
1 *2577:A1 0.000128233
2 *2882:X 0.000128233
3 *2577:A1 *641:143 3.92757e-05
4 *2577:A1 *659:116 0
5 *2439:A2 *2577:A1 9.71197e-05
*RES
1 *2882:X *2577:A1 29.5821 
*END

*D_NET *592 0.000460681
*CONN
*I *2581:A1 I *D sky130_fd_sc_hd__mux2_1
*I *2883:X O *D sky130_fd_sc_hd__dlygate4sd3_1
*CAP
1 *2581:A1 0.000142979
2 *2883:X 0.000142979
3 *2581:A1 *2463:S1 0
4 *2581:A1 *2581:A0 3.18676e-05
5 *2581:A1 *645:72 0.000142856
6 *2475:S *2581:A1 0
*RES
1 *2883:X *2581:A1 30.6 
*END

*D_NET *593 0.000425606
*CONN
*I *2521:A0 I *D sky130_fd_sc_hd__mux2_1
*I *2884:X O *D sky130_fd_sc_hd__dlygate4sd3_1
*CAP
1 *2521:A0 0.000165497
2 *2884:X 0.000165497
3 *2521:A0 *662:40 3.97657e-05
4 *2521:S *2521:A0 2.89114e-05
5 *332:52 *2521:A0 2.59355e-05
*RES
1 *2884:X *2521:A0 20.7786 
*END

*D_NET *594 0.000231014
*CONN
*I *2549:A1 I *D sky130_fd_sc_hd__mux2_1
*I *2885:X O *D sky130_fd_sc_hd__dlygate4sd3_1
*CAP
1 *2549:A1 0.000105161
2 *2885:X 0.000105161
3 *2549:A1 *2549:A0 7.43578e-06
4 *2549:S *2549:A1 1.32552e-05
5 *329:48 *2549:A1 0
6 *332:52 *2549:A1 0
*RES
1 *2885:X *2549:A1 29.1714 
*END

*D_NET *595 0.00631063
*CONN
*I *2848:A I *D sky130_fd_sc_hd__buf_1
*I *2847:A I *D sky130_fd_sc_hd__clkbuf_2
*I *3012:X O *D sky130_fd_sc_hd__buf_1
*CAP
1 *2848:A 0.000655399
2 *2847:A 0
3 *3012:X 0.00129209
4 *595:12 0.00194749
5 *2848:A *2579:A0 0.000108747
6 *2848:A *655:62 0
7 *595:12 *2542:A1 0.000145724
8 *595:12 *655:38 5.2514e-05
9 *2453:A3 *595:12 0.000121573
10 *2454:A1 *2848:A 0
11 *2579:A1 *2848:A 0
12 *2718:D *2848:A 0.000153054
13 *2971:A *2848:A 0.000485543
14 *2993:A *595:12 6.73939e-05
15 *310:22 *2848:A 0.000487467
16 *334:80 *595:12 0.000793644
*RES
1 *3012:X *595:12 40.3536 
2 *595:12 *2847:A 9.3 
3 *595:12 *2848:A 33.9786 
*END

*D_NET *596 0.00166766
*CONN
*I *2578:A1 I *D sky130_fd_sc_hd__mux2_1
*I *2886:X O *D sky130_fd_sc_hd__dlygate4sd3_1
*CAP
1 *2578:A1 0.000343342
2 *2886:X 0.000343342
3 *2578:A1 *678:12 0.000268403
4 *2448:A1 *2578:A1 0.000335929
5 *2850:A *2578:A1 1.18064e-05
6 *339:142 *2578:A1 0.000314465
7 *435:6 *2578:A1 5.03772e-05
*RES
1 *2886:X *2578:A1 35.5107 
*END

*D_NET *597 0.000587278
*CONN
*I *2576:A1 I *D sky130_fd_sc_hd__mux2_1
*I *2887:X O *D sky130_fd_sc_hd__dlygate4sd3_1
*CAP
1 *2576:A1 7.909e-05
2 *2887:X 7.909e-05
3 *2576:A1 *2576:A0 2.77258e-05
4 *2433:A3 *2576:A1 0.000136951
5 *2576:S *2576:A1 0.000264421
*RES
1 *2887:X *2576:A1 21.1893 
*END

*D_NET *598 0.000599266
*CONN
*I *2616:A0 I *D sky130_fd_sc_hd__mux2_1
*I *2888:X O *D sky130_fd_sc_hd__dlygate4sd3_1
*CAP
1 *2616:A0 0.000135026
2 *2888:X 0.000135026
3 *2616:A0 *2616:A1 2.41972e-05
4 *2616:A0 *645:101 1.34548e-05
5 *2616:A0 *651:44 4.63699e-05
6 *2588:S *2616:A0 0.000147725
7 *2616:S *2616:A0 9.74665e-05
*RES
1 *2888:X *2616:A0 30.9036 
*END

*D_NET *599 0.000989781
*CONN
*I *2514:A0 I *D sky130_fd_sc_hd__mux2_1
*I *2889:X O *D sky130_fd_sc_hd__dlygate4sd3_1
*CAP
1 *2514:A0 0.00034781
2 *2889:X 0.00034781
3 *2514:A0 *2514:A1 5.71472e-05
4 *2514:S *2514:A0 5.33005e-05
5 *331:102 *2514:A0 0
6 *331:110 *2514:A0 0.000183713
*RES
1 *2889:X *2514:A0 34.1893 
*END

*D_NET *600 0.000906641
*CONN
*I *2552:A1 I *D sky130_fd_sc_hd__mux2_1
*I *2890:X O *D sky130_fd_sc_hd__dlygate4sd3_1
*CAP
1 *2552:A1 0.000256559
2 *2890:X 0.000256559
3 *2552:A1 *2465:S1 7.83659e-05
4 *2552:S *2552:A1 0
5 *346:33 *2552:A1 0.000315158
*RES
1 *2890:X *2552:A1 31.6357 
*END

*D_NET *601 0.000575041
*CONN
*I *2503:A1 I *D sky130_fd_sc_hd__mux2_1
*I *2891:X O *D sky130_fd_sc_hd__dlygate4sd3_1
*CAP
1 *2503:A1 0.000112888
2 *2891:X 0.000112888
3 *2503:A1 *3033:A 0.000127446
4 *2503:S *2503:A1 0.000125724
5 *2505:S *2503:A1 5.33005e-05
6 *329:111 *2503:A1 4.27935e-05
*RES
1 *2891:X *2503:A1 30.1893 
*END

*D_NET *602 0.000478314
*CONN
*I *2506:A1 I *D sky130_fd_sc_hd__mux2_1
*I *2893:X O *D sky130_fd_sc_hd__dlygate4sd3_1
*CAP
1 *2506:A1 0.000186381
2 *2893:X 0.000186381
3 *2506:A1 *653:25 0
4 *2506:S *2506:A1 6.42242e-05
5 *329:38 *2506:A1 1.40415e-05
6 *329:48 *2506:A1 2.72859e-05
*RES
1 *2893:X *2506:A1 30.6 
*END

*D_NET *603 0.00145728
*CONN
*I *2602:A1 I *D sky130_fd_sc_hd__mux2_1
*I *2894:X O *D sky130_fd_sc_hd__dlygate4sd3_1
*CAP
1 *2602:A1 0.00026959
2 *2894:X 0.00026959
3 *2602:A1 *644:55 9.97744e-05
4 *2434:A0 *2602:A1 1.00375e-05
5 *2635:D *2602:A1 0.000340066
6 *2879:A *2602:A1 0.000265378
7 *2894:A *2602:A1 0
8 *325:93 *2602:A1 0
9 *409:8 *2602:A1 0.000202842
*RES
1 *2894:X *2602:A1 35.9214 
*END

*D_NET *604 0.000571694
*CONN
*I *2600:A1 I *D sky130_fd_sc_hd__mux2_1
*I *2895:X O *D sky130_fd_sc_hd__dlygate4sd3_1
*CAP
1 *2600:A1 0.000156374
2 *2895:X 0.000156374
3 *2600:A1 *2600:A0 5.7616e-05
4 *2600:A1 *2619:RESET_B 1.02969e-05
5 *2600:A1 *633:123 6.37883e-06
6 *2600:A1 *633:129 5.80706e-06
7 *334:41 *2600:A1 0.000178847
*RES
1 *2895:X *2600:A1 30.1 
*END

*D_NET *605 0.000295184
*CONN
*I *2504:A1 I *D sky130_fd_sc_hd__mux2_1
*I *2896:X O *D sky130_fd_sc_hd__dlygate4sd3_1
*CAP
1 *2504:A1 8.50634e-05
2 *2896:X 8.50634e-05
3 *2504:A1 *2504:A0 0.000125057
*RES
1 *2896:X *2504:A1 20.7786 
*END

*D_NET *606 0.00185836
*CONN
*I *2358:B1 I *D sky130_fd_sc_hd__o21a_1
*I *2357:A I *D sky130_fd_sc_hd__or3_1
*I *3013:X O *D sky130_fd_sc_hd__clkbuf_1
*CAP
1 *2358:B1 5.40442e-05
2 *2357:A 9.57441e-05
3 *3013:X 0.00043555
4 *606:6 0.000585339
5 *2357:B *2357:A 0
6 *2357:C *2357:A 4.48113e-05
7 *2360:A1 *606:6 0.000341977
8 *2360:A2 *606:6 0.000229456
9 *2360:A3 *2358:B1 5.71472e-05
10 *2360:A3 *606:6 1.02936e-05
11 *2360:B1 *2357:A 0
12 *239:8 *2358:B1 3.99614e-06
*RES
1 *3013:X *606:6 18.05 
2 *606:6 *2357:A 20.2464 
3 *606:6 *2358:B1 10.5679 
*END

*D_NET *607 0.00765731
*CONN
*I *2845:A I *D sky130_fd_sc_hd__clkbuf_2
*I *2846:A I *D sky130_fd_sc_hd__buf_1
*I *3014:X O *D sky130_fd_sc_hd__buf_1
*CAP
1 *2845:A 0
2 *2846:A 0.002101
3 *3014:X 0.000834828
4 *607:10 0.00293583
5 *2846:A *2459:S1 0.000299432
6 *2846:A *2606:A0 0.000622788
7 *2846:A *653:19 0
8 *2846:A *654:14 4.55516e-05
9 *607:10 *653:19 0
10 *2459:A0 *2846:A 5.10734e-06
11 *2459:A1 *607:10 0
12 *2459:A2 *2846:A 0.000558455
13 *2460:A1 *2846:A 3.98547e-05
14 *2460:A3 *2846:A 2.13481e-06
15 *2525:A0 *607:10 2.56694e-05
16 *2949:A *607:10 0
17 *2978:A *2846:A 0
18 *2978:A *607:10 0
19 *381:6 *2846:A 0.000186662
*RES
1 *3014:X *607:10 24.9786 
2 *607:10 *2846:A 42.7821 
3 *607:10 *2845:A 13.8 
*END

*D_NET *608 0.00137308
*CONN
*I *2575:A1 I *D sky130_fd_sc_hd__mux2_1
*I *2897:X O *D sky130_fd_sc_hd__dlygate4sd3_1
*CAP
1 *2575:A1 0.000368185
2 *2897:X 0.000368185
3 *2575:A1 *2511:A1 7.43578e-06
4 *2575:A1 *2566:A0 1.9779e-05
5 *2575:A1 *2575:A0 3.52793e-05
6 *2575:A1 *665:12 1.08601e-05
7 *2575:A1 *665:46 0.00010689
8 *2958:A *2575:A1 2.86192e-05
9 *327:103 *2575:A1 0.000352239
10 *331:56 *2575:A1 3.39053e-05
11 *331:94 *2575:A1 4.17014e-05
*RES
1 *2897:X *2575:A1 35.9571 
*END

*D_NET *609 0.000396474
*CONN
*I *2501:A1 I *D sky130_fd_sc_hd__mux2_1
*I *2898:X O *D sky130_fd_sc_hd__dlygate4sd3_1
*CAP
1 *2501:A1 0.000105258
2 *2898:X 0.000105258
3 *2957:A *2501:A1 0.00012501
4 *336:10 *2501:A1 6.09476e-05
*RES
1 *2898:X *2501:A1 29.7786 
*END

*D_NET *610 0.000262142
*CONN
*I *2554:A1 I *D sky130_fd_sc_hd__mux2_1
*I *2899:X O *D sky130_fd_sc_hd__dlygate4sd3_1
*CAP
1 *2554:A1 8.21557e-05
2 *2899:X 8.21557e-05
3 *2507:S *2554:A1 3.92757e-05
4 *2899:A *2554:A1 3.92757e-05
5 *336:81 *2554:A1 1.92789e-05
*RES
1 *2899:X *2554:A1 29.1714 
*END

*D_NET *611 0.00120568
*CONN
*I *2592:A0 I *D sky130_fd_sc_hd__mux2_1
*I *2900:X O *D sky130_fd_sc_hd__dlygate4sd3_1
*CAP
1 *2592:A0 0.000443476
2 *2900:X 0.000443476
3 *2592:A0 *643:126 0.000149904
4 *2592:A0 *666:86 6.35798e-05
5 *2722:D *2592:A0 0.000105246
6 *332:155 *2592:A0 0
7 *359:66 *2592:A0 0
*RES
1 *2900:X *2592:A0 44.6179 
*END

*D_NET *612 0.000359932
*CONN
*I *2607:A1 I *D sky130_fd_sc_hd__mux2_1
*I *2901:X O *D sky130_fd_sc_hd__dlygate4sd3_1
*CAP
1 *2607:A1 0.000150362
2 *2901:X 0.000150362
3 *2607:A1 *2607:A0 0
4 *2607:A1 *2607:S 6.78055e-06
5 *341:59 *2607:A1 5.24274e-05
*RES
1 *2901:X *2607:A1 29.8857 
*END

*D_NET *613 0.00105862
*CONN
*I *2551:A1 I *D sky130_fd_sc_hd__mux2_1
*I *2902:X O *D sky130_fd_sc_hd__dlygate4sd3_1
*CAP
1 *2551:A1 0.000300235
2 *2902:X 0.000300235
3 *2551:S *2551:A1 3.18676e-05
4 *2587:S *2551:A1 5.71472e-05
5 *2726:CLK *2551:A1 0.00015134
6 *340:24 *2551:A1 2.09495e-05
7 *341:105 *2551:A1 0.000104267
8 *348:38 *2551:A1 5.33005e-05
9 *459:10 *2551:A1 3.92757e-05
*RES
1 *2902:X *2551:A1 34.0821 
*END

*D_NET *614 0.000643481
*CONN
*I *2502:A1 I *D sky130_fd_sc_hd__mux2_1
*I *2904:X O *D sky130_fd_sc_hd__dlygate4sd3_1
*CAP
1 *2502:A1 0.000203491
2 *2904:X 0.000203491
3 *2502:A1 *2502:A0 3.69047e-06
4 *2507:S *2502:A1 1.04232e-05
5 *329:48 *2502:A1 0.000222385
6 *332:70 *2502:A1 0
*RES
1 *2904:X *2502:A1 31.5464 
*END

*D_NET *615 0.000252552
*CONN
*I *2553:A1 I *D sky130_fd_sc_hd__mux2_1
*I *2905:X O *D sky130_fd_sc_hd__dlygate4sd3_1
*CAP
1 *2553:A1 7.15496e-05
2 *2905:X 7.15496e-05
3 *2553:S *2553:A1 5.71472e-05
4 *336:65 *2553:A1 5.23057e-05
*RES
1 *2905:X *2553:A1 20.3679 
*END

*D_NET *616 0.000671103
*CONN
*I *2507:A1 I *D sky130_fd_sc_hd__mux2_1
*I *2906:X O *D sky130_fd_sc_hd__dlygate4sd3_1
*CAP
1 *2507:A1 0.00017426
2 *2906:X 0.00017426
3 *2507:A1 *651:71 0.000128154
4 *2906:A *2507:A1 6.62752e-05
5 *332:70 *2507:A1 0.000128154
*RES
1 *2906:X *2507:A1 31.0107 
*END

*D_NET *617 0.00184813
*CONN
*I *2587:A0 I *D sky130_fd_sc_hd__mux2_1
*I *2907:X O *D sky130_fd_sc_hd__dlygate4sd3_1
*CAP
1 *2587:A0 0.000476071
2 *2907:X 0.000476071
3 *2587:A0 *647:67 9.32966e-05
4 *2587:A0 *658:10 0.000479652
5 *2587:A0 *658:51 5.52302e-05
6 *339:142 *2587:A0 0.000267814
*RES
1 *2907:X *2587:A0 36.1179 
*END

*D_NET *618 0.00549569
*CONN
*I *2844:A I *D sky130_fd_sc_hd__buf_1
*I *2843:A I *D sky130_fd_sc_hd__clkbuf_2
*I *3015:X O *D sky130_fd_sc_hd__buf_1
*CAP
1 *2844:A 0.00144083
2 *2843:A 0
3 *3015:X 0.000546033
4 *618:14 0.00198687
5 *2844:A *651:21 0.000259406
6 *2599:S *2844:A 6.62868e-05
7 *2704:CLK *618:14 0
8 *2704:D *618:14 0.000153047
9 *2754:CLK *2844:A 0.000212505
10 *2754:D *2844:A 0.000169758
11 *2786:D *2844:A 1.64343e-05
12 *2934:A *2844:A 9.33521e-05
13 *336:81 *618:14 0.000176234
14 *422:10 *2844:A 0.00010096
15 *454:6 *2844:A 0.000171771
16 *470:8 *2844:A 2.14658e-05
17 *470:8 *618:14 8.07313e-05
*RES
1 *3015:X *618:14 28.1929 
2 *618:14 *2843:A 9.3 
3 *618:14 *2844:A 35.0857 
*END

*D_NET *619 0.000447274
*CONN
*I *2364:B I *D sky130_fd_sc_hd__and2b_1
*I *3016:X O *D sky130_fd_sc_hd__clkbuf_1
*CAP
1 *2364:B 0.000196965
2 *3016:X 0.000196965
3 *2364:B *3027:A 0
4 *2364:B *623:10 0
5 *3016:A *2364:B 5.33433e-05
*RES
1 *3016:X *2364:B 30.7964 
*END

*D_NET *620 0.000704585
*CONN
*I *3024:A I *D sky130_fd_sc_hd__buf_2
*I *2730:Q O *D sky130_fd_sc_hd__dfstp_1
*CAP
1 *3024:A 0.00016604
2 *2730:Q 0.00016604
3 *3024:A *649:14 0.000177941
4 aempty *3024:A 7.71417e-05
5 *3019:A *3024:A 0.000117421
*RES
1 *2730:Q *3024:A 32.0018 
*END

*D_NET *621 0.000399031
*CONN
*I *3025:A I *D sky130_fd_sc_hd__buf_2
*I *2741:Q O *D sky130_fd_sc_hd__dfrtp_1
*CAP
1 *3025:A 0.000182582
2 *2741:Q 0.000182582
3 afull *3025:A 3.38674e-05
4 *2293:A *3025:A 0
*RES
1 *2741:Q *3025:A 30.4929 
*END

*D_NET *622 0.0019963
*CONN
*I *2390:A_N I *D sky130_fd_sc_hd__and2b_2
*I *3026:A I *D sky130_fd_sc_hd__buf_2
*I *2721:Q O *D sky130_fd_sc_hd__dfstp_1
*CAP
1 *2390:A_N 0
2 *3026:A 0.000410226
3 *2721:Q 0.000130695
4 *622:12 0.000540921
5 *3026:A *2431:A0 0.000396892
6 *622:12 *625:10 5.41797e-06
7 rd_data[1] *622:12 8.84829e-05
8 *2390:B *622:12 7.39637e-05
9 *2618:D *3026:A 5.71472e-05
10 *518:25 *622:12 0.000292558
*RES
1 *2721:Q *622:12 22.3982 
2 *622:12 *3026:A 16.425 
3 *622:12 *2390:A_N 9.3 
*END

*D_NET *623 0.00099608
*CONN
*I *3027:A I *D sky130_fd_sc_hd__buf_2
*I *2364:A_N I *D sky130_fd_sc_hd__and2b_1
*I *2740:Q O *D sky130_fd_sc_hd__dfrtp_1
*CAP
1 *3027:A 0.000110923
2 *2364:A_N 0.000173102
3 *2740:Q 0.000198742
4 *623:10 0.000482768
5 *623:10 *2740:RESET_B 3.05446e-05
6 *2364:B *3027:A 0
7 *2364:B *623:10 0
*RES
1 *2740:Q *623:10 16.9964 
2 *623:10 *2364:A_N 16.3893 
3 *623:10 *3027:A 15.7464 
*END

*D_NET *624 0.00146825
*CONN
*I *3028:A I *D sky130_fd_sc_hd__buf_2
*I *2423:A0 I *D sky130_fd_sc_hd__mux2_1
*I *2617:Q O *D sky130_fd_sc_hd__dfrtp_1
*CAP
1 *3028:A 0.000263299
2 *2423:A0 0.000169847
3 *2617:Q 6.94382e-05
4 *624:8 0.000502584
5 *2423:A0 *677:73 3.40128e-05
6 *3028:A *677:73 4.75812e-05
7 *624:8 *2617:RESET_B 5.33433e-05
8 *2617:D *2423:A0 0
9 *2857:A *2423:A0 5.71472e-05
10 *3007:A *3028:A 0
11 *540:10 *2423:A0 9.74027e-05
12 *540:10 *3028:A 0.000173597
*RES
1 *2617:Q *624:8 14.7464 
2 *624:8 *2423:A0 17.8 
3 *624:8 *3028:A 20.3 
*END

*D_NET *625 0.00169306
*CONN
*I *2431:A0 I *D sky130_fd_sc_hd__mux2_1
*I *3029:A I *D sky130_fd_sc_hd__buf_2
*I *2618:Q O *D sky130_fd_sc_hd__dfrtp_1
*CAP
1 *2431:A0 0.000133217
2 *3029:A 0.000143192
3 *2618:Q 9.56676e-05
4 *625:10 0.000372077
5 *2431:A0 *2431:S 5.03772e-05
6 *3029:A *678:54 0
7 rd_data[1] *3029:A 0.000150263
8 rd_data[1] *625:10 0.000112777
9 *2390:B *3029:A 5.83233e-05
10 *2390:B *625:10 0.000116481
11 *3026:A *2431:A0 0.000396892
12 *264:10 *2431:A0 3.14163e-05
13 *518:25 *3029:A 2.69534e-05
14 *622:12 *625:10 5.41797e-06
*RES
1 *2618:Q *625:10 15.9786 
2 *625:10 *3029:A 17.1929 
3 *625:10 *2431:A0 17.6214 
*END

*D_NET *626 0.00941971
*CONN
*I *2437:A0 I *D sky130_fd_sc_hd__mux2_1
*I *3030:A I *D sky130_fd_sc_hd__buf_2
*I *2619:Q O *D sky130_fd_sc_hd__dfrtp_1
*CAP
1 *2437:A0 0.000487562
2 *3030:A 0.00139035
3 *2619:Q 0
4 *626:20 0.00245225
5 *626:4 0.00154947
6 *2437:A0 *633:129 0
7 *2437:A0 *643:31 6.4952e-05
8 *3030:A *2472:A1 5.52302e-05
9 *626:20 *2436:S1 9.71197e-05
10 *626:20 *2460:S1 0.000195481
11 *626:20 *639:124 1.52978e-05
12 *626:20 *663:10 1.17968e-05
13 *2434:A0 *626:20 5.38242e-05
14 *2436:A0 *626:20 5.03772e-05
15 *2585:A0 *3030:A 8.84211e-05
16 *2585:S *3030:A 0.000183022
17 *2619:D *2437:A0 0.000185643
18 *2627:D *3030:A 9.71197e-05
19 *2635:CLK *3030:A 0.000111699
20 *2635:D *626:20 5.7362e-05
21 *2643:CLK *2437:A0 0.000199009
22 *2724:D *3030:A 0.000100262
23 *3009:A *3030:A 3.31648e-05
24 *292:16 *626:20 0.000348213
25 *327:53 *626:20 0.000219711
26 *327:65 *626:20 0.000364967
27 *338:109 *2437:A0 0.000177941
28 *356:20 *3030:A 7.02611e-05
29 *401:8 *626:20 1.32552e-05
30 *562:10 *3030:A 0.000195438
31 *562:29 *3030:A 0.000442074
32 *562:29 *626:20 0.000108433
*RES
1 *2619:Q *626:4 9.3 
2 *626:4 *626:20 29.1786 
3 *626:20 *3030:A 35.6214 
4 *626:4 *2437:A0 27.5143 
*END

*D_NET *627 0.00109825
*CONN
*I *2354:A I *D sky130_fd_sc_hd__or3_1
*I *2355:B1 I *D sky130_fd_sc_hd__o21a_1
*I *3017:X O *D sky130_fd_sc_hd__clkbuf_1
*CAP
1 *2354:A 0
2 *2355:B1 0.000157111
3 *3017:X 0.00029577
4 *627:8 0.000452881
5 *2353:A *2355:B1 0
6 *2354:B *627:8 1.04232e-05
7 *2354:C *2355:B1 5.85965e-05
8 *2355:A1 *2355:B1 9.90367e-05
9 *236:6 *2355:B1 2.44318e-05
*RES
1 *3017:X *627:8 13.9607 
2 *627:8 *2355:B1 12.6393 
3 *627:8 *2354:A 9.3 
*END

*D_NET *628 0.00518334
*CONN
*I *2443:A0 I *D sky130_fd_sc_hd__mux2_1
*I *3031:A I *D sky130_fd_sc_hd__buf_2
*I *2620:Q O *D sky130_fd_sc_hd__dfrtp_1
*CAP
1 *2443:A0 0.000566135
2 *3031:A 0.00132888
3 *2620:Q 0.000119433
4 *628:8 0.00201445
5 *2443:A0 *2551:A0 8.50152e-05
6 *2443:A0 *2596:A1 0
7 *628:8 *678:12 0.000186662
8 *2523:A0 *3031:A 0.000122485
9 *2533:S *3031:A 0
10 *2560:S *2443:A0 0.000618899
11 *2596:S *2443:A0 0
12 *2653:D *3031:A 0
13 *2669:D *3031:A 0
14 *2701:D *2443:A0 3.15832e-05
15 *2709:D *3031:A 0
16 *2751:D *2443:A0 0
17 *2791:CLK *3031:A 0.0001098
18 *2791:D *3031:A 0
19 *2952:A *3031:A 0
20 *3011:A *3031:A 0
21 *347:34 *2443:A0 0
*RES
1 *2620:Q *628:8 15.5679 
2 *628:8 *3031:A 37.6036 
3 *628:8 *2443:A0 24.9607 
*END

*D_NET *629 0.00616546
*CONN
*I *3032:A I *D sky130_fd_sc_hd__buf_2
*I *2449:A0 I *D sky130_fd_sc_hd__mux2_1
*I *2621:Q O *D sky130_fd_sc_hd__dfrtp_1
*CAP
1 *3032:A 0.00130632
2 *2449:A0 0.000897882
3 *2621:Q 0
4 *629:4 0.0022042
5 *2449:A0 *2449:S 0
6 *2449:A0 *648:20 2.90655e-05
7 *3032:A *2338:A 5.62995e-05
8 *3032:A *648:20 0.000217094
9 *3032:A *678:10 0.000439641
10 *2361:A1 *3032:A 2.89016e-05
11 *2361:A2 *3032:A 0.000228558
12 *2361:B1 *3032:A 0.000377212
13 *2362:B2 *3032:A 0
14 *2621:D *2449:A0 0.000193637
15 *221:14 *3032:A 0.000186662
*RES
1 *2621:Q *629:4 9.3 
2 *629:4 *2449:A0 20.7286 
3 *629:4 *3032:A 44.9786 
*END

*D_NET *630 0.00450794
*CONN
*I *2455:A0 I *D sky130_fd_sc_hd__mux2_1
*I *3033:A I *D sky130_fd_sc_hd__buf_2
*I *2622:Q O *D sky130_fd_sc_hd__dfrtp_1
*CAP
1 *2455:A0 0.000236927
2 *3033:A 0.00122479
3 *2622:Q 0.000134903
4 *630:10 0.00159662
5 *2455:A0 *2455:S 5.52302e-05
6 *3033:A *2540:A1 0.000364967
7 *3033:A *659:29 8.60205e-05
8 *3033:A *659:58 0
9 *3033:A *659:84 0
10 *3033:A *659:95 0
11 *3033:A *659:116 0
12 *630:10 *659:116 0
13 *630:10 *678:26 5.52302e-05
14 rd_data[5] *3033:A 2.89114e-05
15 *2441:A2 *3033:A 0
16 *2455:A1 *2455:A0 2.89016e-05
17 *2503:A1 *3033:A 0.000127446
18 *2503:S *3033:A 1.17968e-05
19 *2568:A0 *2455:A0 9.76946e-05
20 *2708:D *3033:A 3.5707e-05
21 *2716:D *3033:A 5.9483e-05
22 *2790:D *3033:A 0
23 *2852:A *3033:A 0
24 *2852:A *630:10 0
25 *2928:A *3033:A 7.36248e-05
26 *573:12 *3033:A 0.000289682
*RES
1 *2622:Q *630:10 15.9786 
2 *630:10 *3033:A 39.7464 
3 *630:10 *2455:A0 18.4429 
*END

*D_NET *631 0.00186392
*CONN
*I *3034:A I *D sky130_fd_sc_hd__buf_2
*I *2461:A0 I *D sky130_fd_sc_hd__mux2_1
*I *2623:Q O *D sky130_fd_sc_hd__dfrtp_1
*CAP
1 *3034:A 0.000415621
2 *2461:A0 0.00034949
3 *2623:Q 4.65431e-05
4 *631:6 0.000811654
5 *2461:A0 *2617:CLK 0.000154027
6 *3034:A *677:73 7.78042e-05
7 *631:6 *677:73 8.7762e-06
*RES
1 *2623:Q *631:6 9.83571 
2 *631:6 *2461:A0 23.4429 
3 *631:6 *3034:A 24.9607 
*END

*D_NET *632 0.00827687
*CONN
*I *2467:A0 I *D sky130_fd_sc_hd__mux2_1
*I *3035:A I *D sky130_fd_sc_hd__buf_2
*I *2624:Q O *D sky130_fd_sc_hd__dfrtp_1
*CAP
1 *2467:A0 0
2 *3035:A 0
3 *2624:Q 0.000315631
4 *632:26 0.00250839
5 *632:14 0.00282402
6 *632:14 *2467:S 5.52238e-05
7 *632:14 *2473:A1 9.41642e-05
8 *632:14 *2624:RESET_B 0.000128686
9 *632:26 *651:29 2.42516e-05
10 *2473:A0 *632:14 6.86792e-05
11 *2473:S *632:26 0.000771615
12 *2552:S *632:26 0.000136951
13 *2590:A0 *632:26 6.66667e-05
14 *2590:S *632:26 0.000224348
15 *2624:D *632:26 2.27416e-05
16 *2664:CLK *632:26 0.000148177
17 *2664:D *632:26 2.85826e-05
18 *2729:D *632:26 0.000230432
19 *331:80 *632:14 0.000200413
20 *336:81 *632:26 0.000268403
21 *353:95 *632:26 2.59355e-05
22 *353:102 *632:26 0.000124319
23 *410:12 *632:14 9.25014e-06
*RES
1 *2624:Q *632:14 25.6214 
2 *632:14 *632:26 41.1786 
3 *632:26 *3035:A 9.3 
4 *632:14 *2467:A0 9.3 
*END

*D_NET *633 0.0436433
*CONN
*I *2414:B I *D sky130_fd_sc_hd__and2b_1
*I *2386:B I *D sky130_fd_sc_hd__xnor2_1
*I *2600:S I *D sky130_fd_sc_hd__mux2_1
*I *2602:S I *D sky130_fd_sc_hd__mux2_1
*I *2607:S I *D sky130_fd_sc_hd__mux2_1
*I *2415:B I *D sky130_fd_sc_hd__xnor2_1
*I *2601:S I *D sky130_fd_sc_hd__mux2_1
*I *2604:S I *D sky130_fd_sc_hd__mux2_1
*I *2603:S I *D sky130_fd_sc_hd__mux2_1
*I *2605:S I *D sky130_fd_sc_hd__mux2_1
*I *2827:X O *D sky130_fd_sc_hd__buf_4
*CAP
1 *2414:B 0
2 *2386:B 9.38195e-05
3 *2600:S 0
4 *2602:S 0
5 *2607:S 0.000928695
6 *2415:B 2.91597e-05
7 *2601:S 0.000578635
8 *2604:S 0
9 *2603:S 0
10 *2605:S 0
11 *2827:X 0
12 *633:129 0.00286267
13 *633:123 0.00529208
14 *633:99 0.00371559
15 *633:93 0.000437984
16 *633:50 0.00195672
17 *633:34 0.00427097
18 *633:22 0.00374755
19 *633:14 0.00286782
20 *633:8 0.00123514
21 *633:6 0.000524413
22 *2386:B *2755:D 0
23 *2386:B *677:31 0.00012401
24 *2601:S *2601:A0 0.000655802
25 *2601:S *670:64 7.47252e-05
26 *2607:S *2464:S1 0
27 *2607:S *2487:A1 0.000128154
28 *2607:S *2607:A0 5.39166e-06
29 *2607:S *644:55 0
30 *2607:S *650:84 9.72812e-05
31 *633:8 *2415:A 0
32 *633:14 *2761:CLK 4.58194e-05
33 *633:14 *2761:D 0
34 *633:14 *2775:D 0.000125057
35 *633:14 *2936:A 9.90431e-05
36 *633:14 *670:64 2.59355e-05
37 *633:14 *675:32 1.97381e-05
38 *633:22 *2491:A0 0
39 *633:22 *2755:D 2.49484e-05
40 *633:22 *2759:D 0
41 *633:22 *2760:CLK 6.0038e-05
42 *633:22 *2770:D 0.000100831
43 *633:22 *639:26 0.000372277
44 *633:22 *639:49 6.05161e-06
45 *633:22 *642:37 2.54295e-05
46 *633:22 *650:22 0.000129175
47 *633:22 *670:58 0.000284887
48 *633:34 *2474:A1 3.91002e-05
49 *633:50 *2624:RESET_B 0
50 *633:50 *634:98 0.000243956
51 *633:50 *645:30 0.000307349
52 *633:50 *659:116 0.000991729
53 *633:50 *661:60 0.000259227
54 *633:93 *2745:D 0.000227532
55 *633:93 *2829:A 0.000169366
56 *633:93 *732:25 0.00014285
57 *633:99 *2755:D 0
58 *633:99 *2829:A 0.000267383
59 *633:99 *677:31 0.000293422
60 *633:123 *2372:A 2.59355e-05
61 *633:123 *2384:A 9.71197e-05
62 *633:123 *2619:RESET_B 2.06112e-05
63 *633:123 *635:38 8.22793e-06
64 *633:123 *635:63 1.01487e-05
65 *633:129 *2600:A0 1.00375e-05
66 *633:129 *2602:A0 0.000285837
67 *633:129 *2619:RESET_B 0.000506829
68 *633:129 *666:28 0
69 *633:129 *670:76 0.000950178
70 *2383:A *2386:B 2.59355e-05
71 *2388:B *633:123 0.0001399
72 *2388:C *633:123 0.00010946
73 *2418:A1 *633:129 0.000245335
74 *2430:A0 *633:22 0.000242589
75 *2437:A0 *633:129 0
76 *2454:A1 *633:50 1.02504e-05
77 *2479:B *633:123 1.21258e-05
78 *2485:S *2607:S 0.000128154
79 *2547:A1 *633:123 0
80 *2559:A0 *633:50 9.60939e-05
81 *2575:S *633:22 4.19624e-06
82 *2583:S *633:129 2.95746e-06
83 *2600:A1 *633:123 6.37883e-06
84 *2600:A1 *633:129 5.80706e-06
85 *2603:A1 *633:50 0.000128154
86 *2604:A1 *633:22 9.71197e-05
87 *2604:A1 *633:34 5.33005e-05
88 *2605:A1 *633:50 1.02504e-05
89 *2607:A1 *2607:S 6.78055e-06
90 *2637:CLK *633:34 0.000322999
91 *2637:D *633:34 4.87669e-06
92 *2640:CLK *2607:S 2.89114e-05
93 *2640:D *2607:S 7.32903e-05
94 *2642:D *633:22 7.92879e-05
95 *2644:CLK *633:34 5.52302e-05
96 *2644:D *633:34 0.000271663
97 *2646:D *633:50 0.000257582
98 *2674:D *633:22 7.95581e-05
99 *2700:CLK *633:50 3.30352e-05
100 *2700:D *633:50 0.000494696
101 *2750:CLK *633:50 6.33028e-05
102 *2784:D *633:50 0
103 *2827:A *633:93 2.15245e-05
104 *2827:A *633:99 6.5349e-05
105 *2878:A *2601:S 6.71755e-05
106 *2879:A *2607:S 6.26559e-05
107 *2922:A *633:129 0.000361914
108 *2939:A *633:129 0.000186451
109 *3001:A *633:50 0.000109174
110 *174:8 *2386:B 5.33005e-05
111 *249:37 *633:123 0.000351156
112 *251:10 *633:123 4.05247e-05
113 *297:24 *633:50 0.000168777
114 *323:32 *633:34 7.61932e-05
115 *325:67 *633:123 1.39148e-05
116 *325:93 *2607:S 0.000326537
117 *329:20 *633:123 0.000131176
118 *331:102 *633:22 1.05898e-05
119 *333:74 *633:34 0.000130577
120 *333:98 *633:22 0.00116613
121 *333:108 *633:22 0.0004317
122 *338:109 *633:129 0
123 *339:44 *633:50 4.53031e-05
124 *340:73 *633:129 7.35817e-05
125 *345:72 *633:129 0.000217006
126 *345:174 *2415:B 1.92905e-05
127 *354:26 *633:50 0.000142847
128 *355:10 *633:50 2.8046e-05
129 *363:10 *633:8 0
130 *363:10 *633:14 0
131 *364:8 *633:8 0.000197768
132 *364:8 *633:93 8.5896e-05
133 *394:12 *633:34 2.89016e-05
134 *403:8 *633:34 0.000137983
*RES
1 *2827:X *633:6 13.8 
2 *633:6 *633:8 7.41071 
3 *633:8 *633:14 19.9464 
4 *633:14 *633:22 46.8036 
5 *633:22 *633:34 38.3036 
6 *633:34 *633:50 49.6429 
7 *633:50 *2605:S 13.8 
8 *633:34 *2603:S 9.3 
9 *633:22 *2604:S 9.3 
10 *633:14 *2601:S 20.1393 
11 *633:8 *2415:B 14.3357 
12 *633:6 *633:93 9.75 
13 *633:93 *633:99 10.8571 
14 *633:99 *633:123 37.2318 
15 *633:123 *633:129 46.5536 
16 *633:129 *2607:S 33.8714 
17 *633:129 *2602:S 9.3 
18 *633:123 *2600:S 13.8 
19 *633:99 *2386:B 15.9786 
20 *633:93 *2414:B 9.3 
*END

*D_NET *634 0.0399848
*CONN
*I *2431:S I *D sky130_fd_sc_hd__mux2_1
*I *2395:C I *D sky130_fd_sc_hd__and3_1
*I *2394:A2 I *D sky130_fd_sc_hd__a21oi_1
*I *2437:S I *D sky130_fd_sc_hd__mux2_1
*I *2392:B I *D sky130_fd_sc_hd__and2_1
*I *2391:B I *D sky130_fd_sc_hd__nor2_1
*I *2449:S I *D sky130_fd_sc_hd__mux2_1
*I *2443:S I *D sky130_fd_sc_hd__mux2_1
*I *2467:S I *D sky130_fd_sc_hd__mux2_1
*I *2455:S I *D sky130_fd_sc_hd__mux2_1
*I *2828:X O *D sky130_fd_sc_hd__clkbuf_4
*CAP
1 *2431:S 0.000157991
2 *2395:C 0.000111887
3 *2394:A2 0
4 *2437:S 0
5 *2392:B 0.000123202
6 *2391:B 8.91175e-05
7 *2449:S 6.71929e-05
8 *2443:S 0
9 *2467:S 0.00109675
10 *2455:S 0.000415126
11 *2828:X 0
12 *634:176 0.00297912
13 *634:168 0.00427017
14 *634:136 0.000394284
15 *634:98 0.00247943
16 *634:78 0.00252498
17 *634:60 0.00181938
18 *634:52 0.0010778
19 *634:44 0.0020187
20 *634:40 0.000805536
21 *634:26 0.00243508
22 *634:6 0.00170222
23 *2391:B *2391:A 0.000173797
24 *2391:B *650:22 5.3167e-05
25 *2391:B *668:26 0.000175519
26 *2391:B *669:28 0
27 *2392:B *2391:A 0.000344617
28 *2392:B *2840:A 0.0003081
29 *2392:B *647:21 0.000192428
30 *2395:C *2395:B 0.000103974
31 *2395:C *2835:A 1.95435e-05
32 *2395:C *639:49 0
33 *2395:C *648:53 4.66203e-05
34 *2431:S *2862:A 9.71867e-05
35 *2431:S *739:10 9.94831e-05
36 *2455:S *645:18 0
37 *2467:S *2473:A1 0
38 *2467:S *2624:CLK 0
39 *2467:S *2624:RESET_B 0
40 *2467:S *661:47 0
41 *634:26 *2336:A 2.78608e-05
42 *634:26 *2401:A 0.000137983
43 *634:26 *2735:D 4.21105e-05
44 *634:26 *2862:A 0.000157622
45 *634:26 *668:79 7.48091e-05
46 *634:26 *708:10 0.000146533
47 *634:26 *720:18 0.000584621
48 *634:26 *739:10 0.000157622
49 *634:40 *639:49 0
50 *634:40 *648:53 8.359e-05
51 *634:40 *668:79 0.00053128
52 *634:40 *669:87 0.000123288
53 *634:40 *705:12 3.42639e-05
54 *634:52 *2394:A1 6.57026e-05
55 *634:52 *2529:A1 0
56 *634:52 *2769:D 0.00010326
57 *634:52 *669:40 0.000129194
58 *634:52 *669:87 0.000265191
59 *634:60 *669:40 0.000340781
60 *634:78 *2444:S0 1.40306e-05
61 *634:78 *2551:A0 0.000114111
62 *634:98 *637:90 0.00026649
63 *634:98 *641:143 0.000128154
64 *634:98 *650:32 6.5185e-05
65 *634:136 *2391:A 5.52302e-05
66 *634:168 *2429:S 0
67 *634:168 *2491:A0 0
68 *634:168 *2759:D 0.000104786
69 *634:168 *669:87 0.000576862
70 *634:168 *669:100 0.000400497
71 *634:168 *670:45 5.00524e-05
72 *634:176 *2501:A0 3.3824e-05
73 *634:176 *643:23 3.69697e-05
74 *634:176 *643:116 2.72545e-05
75 *2393:A *2392:B 5.52302e-05
76 *2393:B *2392:B 4.43256e-05
77 *2403:C *2395:C 1.95435e-05
78 *2407:A1 *634:26 0.000285198
79 *2425:A1 *634:52 0
80 *2425:A1 *634:168 0
81 *2431:A0 *2431:S 5.03772e-05
82 *2437:A1 *634:176 6.42242e-05
83 *2438:A2 *634:98 8.00742e-05
84 *2444:A0 *634:78 4.00704e-05
85 *2444:A1 *634:78 9.71197e-05
86 *2444:A2 *634:78 9.77375e-05
87 *2448:A2 *634:78 0.000104328
88 *2449:A0 *2449:S 0
89 *2455:A0 *2455:S 5.52302e-05
90 *2455:A1 *2455:S 0.000268521
91 *2467:A1 *2467:S 2.56694e-05
92 *2473:A0 *2467:S 2.79092e-05
93 *2494:A0 *2449:S 1.39726e-05
94 *2494:A0 *634:78 5.33005e-05
95 *2494:S *634:52 0.000724528
96 *2538:A0 *634:176 9.20581e-06
97 *2559:A0 *634:98 2.44318e-05
98 *2560:S *634:78 0.000565605
99 *2560:S *634:98 0.000538631
100 *2586:S *634:78 8.50152e-05
101 *2595:S *634:78 0.000576118
102 *2595:S *634:98 0.000358971
103 *2626:CLK *634:176 0.000103004
104 *2626:D *634:176 0.000110277
105 *2628:D *2467:S 0.000290279
106 *2692:D *2467:S 0
107 *2700:D *634:98 0.000316184
108 *2750:D *634:98 0.00023366
109 *2774:CLK *634:52 0
110 *2814:A *634:60 0.000171368
111 *2814:A *634:78 0.000522439
112 *2852:A *2455:S 0
113 *2855:A *634:52 7.4545e-06
114 *2881:A *634:52 0
115 *2907:A *634:78 9.64979e-05
116 *2953:A *634:176 1.92905e-05
117 *2964:A *634:78 9.02331e-05
118 *2967:A *634:98 0.00010096
119 *2969:A *634:168 0
120 *2969:A *634:176 0.00063576
121 *2983:A *2467:S 0
122 *265:6 *2391:B 5.52238e-05
123 *267:12 *634:40 3.69047e-06
124 *297:24 *634:98 0.000161869
125 *329:96 *634:176 0.000351156
126 *329:105 *634:176 1.98839e-05
127 *331:80 *2467:S 0
128 *333:108 *634:52 0
129 *339:40 *2467:S 0
130 *348:8 *634:60 2.59355e-05
131 *348:10 *634:60 0.000177948
132 *348:63 *634:52 0
133 *348:76 *634:52 0
134 *354:30 *2455:S 0
135 *354:30 *2467:S 0
136 *354:32 *2455:S 0
137 *355:90 *2467:S 0
138 *363:10 *634:40 0.000121573
139 *363:10 *634:168 0.000176847
140 *408:6 *634:176 0.000356015
141 *410:12 *2467:S 0
142 *466:6 *634:98 4.13595e-05
143 *551:18 *634:26 7.36921e-05
144 *551:26 *634:40 4.08637e-05
145 *551:26 *634:44 5.52238e-05
146 *632:14 *2467:S 5.52238e-05
147 *633:50 *634:98 0.000243956
*RES
1 *2828:X *634:6 13.8 
2 *634:6 *634:26 35.0893 
3 *634:26 *634:40 25.8571 
4 *634:40 *634:44 5.03571 
5 *634:44 *634:52 22.2857 
6 *634:52 *634:60 14.7321 
7 *634:60 *634:78 39.0893 
8 *634:78 *634:98 36.8214 
9 *634:98 *2455:S 21.7464 
10 *634:98 *2467:S 34.1929 
11 *634:78 *2443:S 9.3 
12 *634:60 *2449:S 10.5679 
13 *634:52 *634:136 3 
14 *634:136 *2391:B 21.5143 
15 *634:136 *2392:B 14.7821 
16 *634:44 *634:168 30.1429 
17 *634:168 *634:176 46.5 
18 *634:176 *2437:S 9.3 
19 *634:40 *2394:A2 9.3 
20 *634:26 *2395:C 16.55 
21 *634:6 *2431:S 17.7286 
*END

*D_NET *635 0.00792837
*CONN
*I *2385:A I *D sky130_fd_sc_hd__nand2_1
*I *2374:A I *D sky130_fd_sc_hd__nor2_1
*I *2377:A I *D sky130_fd_sc_hd__xnor2_1
*I *2508:A I *D sky130_fd_sc_hd__or2_2
*I *2573:A I *D sky130_fd_sc_hd__or3b_4
*I *2498:B I *D sky130_fd_sc_hd__nand2b_2
*I *2499:C I *D sky130_fd_sc_hd__nand3b_4
*I *2384:A I *D sky130_fd_sc_hd__nand2_2
*I *2546:A_N I *D sky130_fd_sc_hd__nand2b_4
*I *2545:A_N I *D sky130_fd_sc_hd__nand2b_2
*I *2829:X O *D sky130_fd_sc_hd__clkbuf_4
*CAP
1 *2385:A 9.6319e-05
2 *2374:A 0.000143653
3 *2377:A 0
4 *2508:A 2.06112e-05
5 *2573:A 0
6 *2498:B 9.80195e-05
7 *2499:C 1.11927e-05
8 *2384:A 0.000241514
9 *2546:A_N 0
10 *2545:A_N 1.59834e-05
11 *2829:X 0
12 *635:101 0.000225967
13 *635:63 0.000267348
14 *635:38 0.000525398
15 *635:24 0.000278532
16 *635:18 0.000441135
17 *635:14 0.000178138
18 *635:8 0.00022168
19 *635:6 0.000173059
20 *635:4 0.000111294
21 *2374:A *636:8 8.56752e-05
22 *2374:A *746:6 0.000229456
23 *2385:A *2829:A 4.88637e-05
24 *2385:A *639:26 0.000213172
25 *2498:B *636:82 9.90367e-05
26 *2545:A_N *2545:B 5.62995e-05
27 *635:6 *639:26 4.08637e-05
28 *635:8 *2422:S1 1.38323e-05
29 *635:8 *2508:B 5.33005e-05
30 *635:8 *639:26 0.00022266
31 *635:14 *2422:S1 0.000353079
32 *635:14 *2573:B 2.44318e-05
33 *635:14 *639:26 1.04232e-05
34 *635:18 *2422:S1 6.12434e-05
35 *635:18 *2573:B 5.52302e-05
36 *635:24 *2545:B 0.000122091
37 *635:63 *636:82 0.000183355
38 *635:101 *2744:D 1.00375e-05
39 *635:101 *2756:D 0.000195555
40 *2373:B *2508:A 3.99614e-06
41 *2374:B *2374:A 0.000214926
42 *2377:B *635:101 0.000173083
43 *2385:B *2385:A 0.000227532
44 *2385:B *635:6 5.33005e-05
45 *2385:B *635:8 7.21667e-05
46 *2479:B *2384:A 2.89016e-05
47 *2564:A *635:24 0
48 *249:29 *2498:B 4.43698e-05
49 *252:36 *635:8 4.27437e-05
50 *252:36 *635:14 5.01483e-05
51 *259:8 *2498:B 4.88637e-05
52 *259:8 *635:63 0.000136908
53 *259:23 *2498:B 4.94362e-05
54 *260:12 *635:14 7.48301e-06
55 *260:12 *635:18 2.42516e-05
56 *322:31 *2384:A 0.000172026
57 *324:12 *2498:B 9.25014e-06
58 *324:18 *635:38 4.73656e-05
59 *324:18 *635:63 0.000168939
60 *324:20 *635:24 0.000363245
61 *324:20 *635:38 0.000198698
62 *325:26 *635:24 6.38485e-05
63 *325:26 *635:38 0
64 *325:67 *635:63 0
65 *329:20 *2384:A 0.00022459
66 *329:20 *635:63 2.28428e-05
67 *330:10 *635:14 5.52238e-05
68 *336:8 *2545:A_N 5.62995e-05
69 *336:8 *635:24 6.87574e-05
70 *339:12 *635:14 5.52238e-05
71 *633:123 *2384:A 9.71197e-05
72 *633:123 *635:38 8.22793e-06
73 *633:123 *635:63 1.01487e-05
*RES
1 *2829:X *635:4 9.3 
2 *635:4 *635:6 0.535714 
3 *635:6 *635:8 2.58929 
4 *635:8 *635:14 4.26786 
5 *635:14 *635:18 5.85714 
6 *635:18 *635:24 11.3571 
7 *635:24 *2545:A_N 10.2464 
8 *635:24 *2546:A_N 9.3 
9 *635:18 *635:38 3.16071 
10 *635:38 *2384:A 28.4607 
11 *635:38 *635:63 9.07143 
12 *635:63 *2499:C 9.72857 
13 *635:63 *2498:B 21.1929 
14 *635:14 *2573:A 9.3 
15 *635:8 *2508:A 9.72857 
16 *635:6 *635:101 11.5536 
17 *635:101 *2377:A 9.3 
18 *635:101 *2374:A 13.9786 
19 *635:4 *2385:A 12.7286 
*END

*D_NET *636 0.0124699
*CONN
*I *2372:A I *D sky130_fd_sc_hd__and2_1
*I *2303:A I *D sky130_fd_sc_hd__nand2_1
*I *2379:A I *D sky130_fd_sc_hd__xnor2_1
*I *2498:A_N I *D sky130_fd_sc_hd__nand2b_2
*I *2499:A_N I *D sky130_fd_sc_hd__nand3b_4
*I *2384:B I *D sky130_fd_sc_hd__nand2_2
*I *2371:A I *D sky130_fd_sc_hd__nor2_1
*I *2573:B I *D sky130_fd_sc_hd__or3b_4
*I *2508:B I *D sky130_fd_sc_hd__or2_2
*I *2545:B I *D sky130_fd_sc_hd__nand2b_2
*I *2830:X O *D sky130_fd_sc_hd__buf_2
*CAP
1 *2372:A 2.3932e-05
2 *2303:A 0.00122165
3 *2379:A 0
4 *2498:A_N 0
5 *2499:A_N 0
6 *2384:B 0.000136552
7 *2371:A 0
8 *2573:B 0.000173126
9 *2508:B 1.69531e-05
10 *2545:B 0.000877304
11 *2830:X 0.000370117
12 *636:117 0.00133517
13 *636:104 0.000161232
14 *636:82 0.000610107
15 *636:70 0.000559773
16 *636:46 0.000425623
17 *636:38 0.000386893
18 *636:34 0.000192866
19 *636:23 0.000163457
20 *636:8 0.00132087
21 *2303:A *745:10 5.33334e-05
22 *2545:B *2744:D 0.000196337
23 *636:8 *746:6 9.90367e-05
24 *2303:B *2303:A 5.91094e-05
25 *2304:A *2303:A 9.90431e-05
26 *2304:B *2303:A 0.00010096
27 *2310:B *2303:A 0.00010096
28 *2374:A *636:8 8.56752e-05
29 *2374:B *636:8 4.40008e-05
30 *2379:B *2303:A 5.33005e-05
31 *2479:A *636:46 3.71496e-05
32 *2498:B *636:82 9.90367e-05
33 *2545:A_N *2545:B 5.62995e-05
34 *2573:C_N *2573:B 1.28585e-05
35 *2573:C_N *636:46 5.80706e-06
36 *2681:CLK *2384:B 5.42755e-05
37 *2681:CLK *636:46 0.00022266
38 *2681:CLK *636:82 1.65169e-05
39 *186:16 *2303:A 6.57815e-05
40 *249:37 *636:46 3.2534e-05
41 *251:10 *2372:A 2.59355e-05
42 *252:10 *2573:B 9.22948e-05
43 *252:12 *2573:B 3.34366e-05
44 *252:36 *2508:B 5.33005e-05
45 *259:8 *2384:B 9.90431e-05
46 *259:8 *636:82 0.000236566
47 *260:12 *2573:B 5.03772e-05
48 *323:10 *636:117 5.83304e-05
49 *323:20 *2545:B 0.000197984
50 *323:20 *636:23 0.000137224
51 *323:20 *636:34 0.000161933
52 *323:20 *636:38 0.000132594
53 *323:20 *636:46 0
54 *323:20 *636:70 0.000119618
55 *323:20 *636:104 0.000116474
56 *323:20 *636:117 0.00016284
57 *326:29 *2573:B 8.53881e-05
58 *326:29 *636:46 0
59 *336:8 *2545:B 3.1521e-05
60 *350:54 *2545:B 8.15095e-05
61 *350:54 *636:8 1.58163e-05
62 *350:54 *636:23 0.000144038
63 *350:54 *636:34 0.00019384
64 *350:54 *636:38 5.51406e-05
65 *350:54 *636:70 1.52978e-05
66 *350:71 *636:70 5.31541e-05
67 *350:71 *636:104 6.42242e-05
68 *350:71 *636:117 0.000117378
69 *633:123 *2372:A 2.59355e-05
70 *635:8 *2508:B 5.33005e-05
71 *635:14 *2573:B 2.44318e-05
72 *635:18 *2573:B 5.52302e-05
73 *635:24 *2545:B 0.000122091
74 *635:63 *636:82 0.000183355
*RES
1 *2830:X *636:8 18.4429 
2 *636:8 *2545:B 26.2464 
3 *636:8 *636:23 1.94643 
4 *636:23 *2508:B 14.3357 
5 *636:23 *636:34 2.55357 
6 *636:34 *636:38 2.17857 
7 *636:38 *636:46 13.125 
8 *636:46 *2573:B 18.0679 
9 *636:46 *2371:A 13.8 
10 *636:38 *636:70 1.64286 
11 *636:70 *636:82 12.3036 
12 *636:82 *2384:B 12.5857 
13 *636:82 *2499:A_N 9.3 
14 *636:70 *636:104 1.64286 
15 *636:104 *2498:A_N 13.8 
16 *636:104 *636:117 7.89286 
17 *636:117 *2379:A 9.3 
18 *636:117 *2303:A 30.5321 
19 *636:34 *2372:A 14.3357 
*END

*D_NET *637 0.0499807
*CONN
*I *2331:A I *D sky130_fd_sc_hd__or2_1
*I *2332:A I *D sky130_fd_sc_hd__nand2_1
*I *2408:B1 I *D sky130_fd_sc_hd__a21oi_1
*I *2448:S0 I *D sky130_fd_sc_hd__mux4_1
*I *2442:S0 I *D sky130_fd_sc_hd__mux4_1
*I *2454:S0 I *D sky130_fd_sc_hd__mux4_1
*I *2436:S0 I *D sky130_fd_sc_hd__mux4_1
*I *2466:S0 I *D sky130_fd_sc_hd__mux4_1
*I *2422:S0 I *D sky130_fd_sc_hd__mux4_1
*I *2460:S0 I *D sky130_fd_sc_hd__mux4_1
*I *2831:X O *D sky130_fd_sc_hd__buf_4
*CAP
1 *2331:A 6.98956e-05
2 *2332:A 0
3 *2408:B1 6.29611e-05
4 *2448:S0 3.36155e-05
5 *2442:S0 0
6 *2454:S0 1.12282e-05
7 *2436:S0 0
8 *2466:S0 6.89514e-05
9 *2422:S0 0.00012468
10 *2460:S0 0.00172665
11 *2831:X 0.0001281
12 *637:174 0.00136159
13 *637:157 0.00160523
14 *637:125 0.00138683
15 *637:104 0.0022211
16 *637:98 0.00281114
17 *637:90 0.00383578
18 *637:62 0.00270448
19 *637:30 0.00244423
20 *637:28 0.00228656
21 *637:16 0.0038118
22 *637:10 0.00162715
23 *2422:S0 *2421:S0 0.000258851
24 *2422:S0 *2421:S1 0.000268101
25 *2454:S0 *641:42 5.01876e-06
26 *2460:S0 *2422:S1 0.000351156
27 *2460:S0 *2460:S1 0.000152908
28 *637:10 *2403:A 0
29 *637:10 *2832:A 6.76116e-05
30 *637:10 *672:30 5.52238e-05
31 *637:10 *707:6 5.52238e-05
32 *637:10 *753:10 0
33 *637:10 *754:10 0.000211948
34 *637:16 *2832:A 2.06178e-05
35 *637:16 *754:10 1.90936e-05
36 *637:28 *648:117 0.000746985
37 *637:30 *2421:S0 0.000551623
38 *637:30 *2421:S1 0.000726099
39 *637:30 *644:82 0.000722836
40 *637:62 *2446:S1 6.80581e-05
41 *637:62 *2604:A0 0.000606632
42 *637:62 *647:67 0
43 *637:62 *647:78 0
44 *637:62 *658:51 0.000118015
45 *637:90 *647:41 0.000572482
46 *637:90 *658:10 0.000426267
47 *637:90 *658:51 5.62125e-05
48 *637:104 *2463:S1 0.000315873
49 *637:104 *2581:A0 0.000104227
50 *637:104 *639:111 0
51 *637:104 *641:42 9.8296e-05
52 *637:104 *641:110 6.65302e-05
53 *637:104 *645:30 9.91086e-05
54 *637:104 *645:121 0
55 *637:104 *652:33 5.33978e-05
56 *637:125 *2466:S1 5.33334e-05
57 *637:125 *2624:CLK 0.000127083
58 *637:125 *639:124 9.61553e-05
59 *637:125 *663:16 0.000177948
60 *637:125 *663:33 0.00020103
61 *637:157 *2408:A1 1.32552e-05
62 *637:174 *2330:A 0
63 *637:174 *2345:B 0
64 *637:174 *2734:D 2.24782e-05
65 *637:174 *668:55 0
66 *637:174 *668:112 0
67 *637:174 *708:10 0
68 *2331:B *2331:A 5.71472e-05
69 *2347:C *637:174 0
70 *2408:A2 *2408:B1 3.37729e-05
71 *2408:A2 *637:157 0.000268396
72 *2416:B *2408:B1 4.81734e-05
73 *2416:B *637:174 7.16452e-05
74 *2419:A1 *637:30 1.95705e-05
75 *2419:A2 *637:30 0.000359839
76 *2429:A0 *637:28 7.83659e-05
77 *2430:A0 *637:62 3.27428e-05
78 *2431:A1 *637:16 0.000702187
79 *2438:A3 *637:98 0
80 *2446:A1 *637:62 0.000363252
81 *2448:A0 *637:90 7.41433e-05
82 *2448:A1 *637:90 0.000224596
83 *2454:A3 *637:104 0
84 *2460:A2 *2460:S0 0.000107264
85 *2463:A0 *637:104 0.000128154
86 *2463:A1 *637:104 4.25716e-05
87 *2466:A2 *637:125 1.32276e-05
88 *2466:A3 *2466:S0 6.05161e-06
89 *2466:A3 *637:125 5.33433e-05
90 *2473:S *637:125 9.7659e-05
91 *2485:S *637:104 8.48756e-05
92 *2495:S *637:125 0
93 *2497:A0 *637:125 0
94 *2556:A0 *2460:S0 0.000271352
95 *2559:S *637:90 5.36441e-05
96 *2559:S *637:98 0.000618451
97 *2560:A0 *637:90 0.000176876
98 *2595:S *637:90 0.00117478
99 *2606:S *2460:S0 7.4021e-06
100 *2610:A0 *637:28 0.000135559
101 *2624:D *637:125 6.42242e-05
102 *2626:CLK *637:28 0
103 *2680:D *637:104 0
104 *2707:CLK *637:125 3.97356e-05
105 *2750:D *637:90 5.41794e-05
106 *2850:A *637:90 5.33005e-05
107 *2892:A *637:62 0.00022117
108 *2898:A *637:28 6.05161e-06
109 *2907:A *637:90 2.14658e-05
110 *2964:A *637:62 0
111 *2987:A *637:28 0.000175519
112 *2998:A *637:30 5.88938e-06
113 *2999:A *637:30 0
114 *228:10 *637:174 0
115 *260:12 *2460:S0 0.000752411
116 *264:18 *637:16 0.000898873
117 *264:18 *637:28 0.000641394
118 *264:20 *637:30 0
119 *299:16 *637:90 5.34648e-05
120 *327:65 *637:125 0.000300635
121 *327:103 *637:62 0.00111301
122 *329:20 *2422:S0 9.60875e-05
123 *331:80 *2466:S0 4.45768e-06
124 *331:80 *637:125 2.55165e-05
125 *331:102 *637:62 0.00137195
126 *334:31 *2460:S0 0.000201989
127 *337:24 *637:30 7.69776e-06
128 *337:30 *637:90 5.33882e-05
129 *339:32 *637:125 7.51597e-05
130 *339:40 *637:125 0.00156114
131 *340:16 *637:28 4.038e-06
132 *341:103 *637:28 0
133 *342:75 *637:90 0
134 *345:12 *637:28 6.5163e-05
135 *349:16 *637:28 0
136 *354:19 *637:104 0.000133437
137 *361:10 *637:28 0.000272384
138 *441:12 *637:125 0.000268521
139 *450:12 *637:90 5.52302e-05
140 *634:98 *637:90 0.00026649
*RES
1 *2831:X *637:10 17.1929 
2 *637:10 *637:16 7.62539 
3 *637:16 *637:28 35.0795 
4 *637:28 *637:30 18.6429 
5 *637:30 *2460:S0 46.5321 
6 *637:30 *2422:S0 18.2107 
7 *637:16 *637:62 38.2404 
8 *637:62 *637:90 39.5179 
9 *637:90 *637:98 11.0354 
10 *637:98 *637:104 24.1339 
11 *637:104 *2466:S0 10.2643 
12 *637:104 *637:125 44.5179 
13 *637:125 *2436:S0 9.3 
14 *637:98 *2454:S0 14.0768 
15 *637:90 *2442:S0 13.8 
16 *637:62 *2448:S0 9.83571 
17 *637:10 *637:157 7.91071 
18 *637:157 *2408:B1 10.8714 
19 *637:157 *637:174 29.3393 
20 *637:174 *2332:A 9.3 
21 *637:174 *2331:A 10.6571 
*END

*D_NET *638 0.000383967
*CONN
*I *2298:A I *D sky130_fd_sc_hd__inv_2
*I *3018:X O *D sky130_fd_sc_hd__clkbuf_1
*CAP
1 *2298:A 0.000159871
2 *3018:X 0.000159871
3 *2298:A *678:10 6.42242e-05
4 *3019:A *2298:A 0
*RES
1 *3018:X *2298:A 30.1893 
*END

*D_NET *639 0.043196
*CONN
*I *2408:A1 I *D sky130_fd_sc_hd__a21oi_1
*I *2397:A I *D sky130_fd_sc_hd__nor2_1
*I *2398:A I *D sky130_fd_sc_hd__and2_1
*I *2448:S1 I *D sky130_fd_sc_hd__mux4_1
*I *2442:S1 I *D sky130_fd_sc_hd__mux4_1
*I *2454:S1 I *D sky130_fd_sc_hd__mux4_1
*I *2460:S1 I *D sky130_fd_sc_hd__mux4_1
*I *2436:S1 I *D sky130_fd_sc_hd__mux4_1
*I *2466:S1 I *D sky130_fd_sc_hd__mux4_1
*I *2422:S1 I *D sky130_fd_sc_hd__mux4_1
*I *2832:X O *D sky130_fd_sc_hd__buf_4
*CAP
1 *2408:A1 0.000149096
2 *2397:A 2.23854e-05
3 *2398:A 0
4 *2448:S1 6.17285e-05
5 *2442:S1 0
6 *2454:S1 0
7 *2460:S1 0.00106155
8 *2436:S1 0.000600829
9 *2466:S1 2.57117e-05
10 *2422:S1 0.00165298
11 *2832:X 0
12 *639:124 0.00268466
13 *639:111 0.00207877
14 *639:105 0.00186731
15 *639:73 0.00292622
16 *639:59 0.00258406
17 *639:49 0.002329
18 *639:26 0.00357352
19 *639:18 0.00276292
20 *639:10 0.00282114
21 *639:8 0.000204489
22 *639:6 0.000369592
23 *639:4 0.000374206
24 *2460:S1 *2516:A1 0.000280663
25 *2460:S1 *2534:A0 0.000151333
26 *2460:S1 *2556:A1 0
27 *2460:S1 *643:39 4.16114e-05
28 *2460:S1 *654:64 1.50181e-05
29 *2460:S1 *663:10 0
30 *639:6 *2832:A 5.33005e-05
31 *639:18 *2737:D 0.000425885
32 *639:18 *2737:RESET_B 2.85276e-05
33 *639:18 *2770:D 8.46507e-06
34 *639:26 *2755:D 0
35 *639:26 *2830:A 6.65398e-05
36 *639:49 *2395:B 0
37 *639:49 *2737:D 0
38 *639:49 *2769:D 3.96654e-05
39 *639:49 *2774:D 0
40 *639:49 *2774:RESET_B 0.000225293
41 *639:49 *2869:A 0.000116535
42 *639:49 *642:99 0
43 *639:49 *648:53 0
44 *639:49 *668:26 0.000216862
45 *639:49 *673:58 5.66647e-05
46 *639:49 *673:74 6.1684e-05
47 *639:49 *720:18 0
48 *639:59 *650:22 9.24395e-05
49 *639:59 *669:40 0
50 *639:73 *2445:S0 2.94103e-05
51 *639:73 *647:29 4.43256e-05
52 *639:73 *647:35 0.000381755
53 *639:73 *661:31 5.30637e-06
54 *639:73 *669:40 0
55 *639:105 *2439:S0 0.000260009
56 *639:105 *641:143 7.58103e-05
57 *639:105 *645:18 0.000763702
58 *639:105 *645:145 5.88536e-05
59 *639:105 *659:116 0
60 *639:105 *661:10 5.52238e-05
61 *639:105 *661:16 0.000312215
62 *639:105 *661:31 0.000497553
63 *639:111 *2535:A0 4.15914e-05
64 *639:111 *2624:CLK 0
65 *639:111 *641:40 3.92854e-05
66 *639:111 *645:121 3.17067e-05
67 *639:124 *2497:A1 0.000322453
68 *639:124 *643:39 6.07719e-05
69 *2385:A *639:26 0.000213172
70 *2395:C *639:49 0
71 *2397:B *639:8 5.52238e-05
72 *2398:B *639:49 2.09846e-05
73 *2399:A *639:10 0.000125547
74 *2399:A *639:18 0.000269422
75 *2399:B *639:49 0
76 *2408:A2 *2408:A1 6.79057e-05
77 *2408:A2 *639:6 0.000549968
78 *2408:A2 *639:8 5.52302e-05
79 *2422:A2 *2422:S1 0.000245342
80 *2430:A0 *639:26 0.000220085
81 *2434:A3 *2460:S1 0
82 *2436:A0 *639:124 0.000376615
83 *2436:A2 *2436:S1 1.66856e-05
84 *2436:A3 *2436:S1 0.000141445
85 *2442:A0 *639:105 5.52302e-05
86 *2443:A1 *639:73 1.50524e-05
87 *2448:A2 *639:59 6.05161e-06
88 *2448:A3 *639:59 0.000340073
89 *2454:A3 *639:111 2.46318e-05
90 *2455:A1 *639:105 0.000216852
91 *2457:A1 *2460:S1 0
92 *2460:S0 *2422:S1 0.000351156
93 *2460:S0 *2460:S1 0.000152908
94 *2463:A0 *639:111 0
95 *2463:A1 *639:111 0
96 *2463:A1 *639:124 0
97 *2464:A1 *639:124 0
98 *2466:A2 *639:124 0
99 *2495:A0 *639:111 2.6949e-05
100 *2495:S *639:111 0
101 *2495:S *639:124 0.00115978
102 *2556:A0 *2460:S1 0
103 *2559:S *639:105 1.31525e-05
104 *2580:S *2460:S1 0.000171011
105 *2604:A1 *639:49 1.21258e-05
106 *2606:S *2460:S1 8.18783e-05
107 *2637:CLK *639:49 3.22663e-05
108 *2642:D *639:26 0.000153047
109 *2646:D *639:111 0.000173097
110 *2680:D *639:111 4.03318e-05
111 *2700:D *639:105 1.55885e-05
112 *2701:D *639:73 8.48623e-05
113 *2751:D *639:73 3.0627e-05
114 *2814:A *639:59 0.000181796
115 *2872:A *639:49 7.3237e-05
116 *2921:A *639:124 0
117 *2982:A *639:73 0.00015732
118 *260:12 *2422:S1 0.000113198
119 *260:12 *2460:S1 2.89016e-05
120 *268:21 *639:49 0.000129633
121 *268:27 *639:8 1.69961e-05
122 *269:6 *639:8 0.000210223
123 *269:6 *639:10 5.52302e-05
124 *295:16 *639:124 0.000181388
125 *297:24 *639:105 2.524e-05
126 *300:14 *639:105 5.46939e-05
127 *325:83 *2460:S1 0
128 *327:65 *639:124 0.000231069
129 *327:99 *639:26 0
130 *327:103 *639:26 0.00020992
131 *331:80 *2466:S1 3.67142e-05
132 *331:80 *639:124 7.04947e-05
133 *331:102 *639:59 7.35223e-05
134 *333:108 *639:59 0.00077892
135 *333:108 *639:73 5.29554e-05
136 *334:31 *2422:S1 1.65169e-05
137 *339:32 *2460:S1 9.50083e-05
138 *342:67 *2422:S1 0
139 *347:47 *639:73 0.00024946
140 *354:19 *639:111 0
141 *467:10 *639:73 7.75724e-05
142 *562:29 *2460:S1 0
143 *626:20 *2436:S1 9.71197e-05
144 *626:20 *2460:S1 0.000195481
145 *626:20 *639:124 1.52978e-05
146 *633:22 *639:26 0.000372277
147 *633:22 *639:49 6.05161e-06
148 *634:40 *639:49 0
149 *635:6 *639:26 4.08637e-05
150 *635:8 *2422:S1 1.38323e-05
151 *635:8 *639:26 0.00022266
152 *635:14 *2422:S1 0.000353079
153 *635:14 *639:26 1.04232e-05
154 *635:18 *2422:S1 6.12434e-05
155 *637:104 *639:111 0
156 *637:125 *2466:S1 5.33334e-05
157 *637:125 *639:124 9.61553e-05
158 *637:157 *2408:A1 1.32552e-05
*RES
1 *2832:X *639:4 9.3 
2 *639:4 *639:6 5.46429 
3 *639:6 *639:8 3 
4 *639:8 *639:10 1.76786 
5 *639:10 *639:18 17.8036 
6 *639:18 *639:26 44 
7 *639:26 *2422:S1 40.4786 
8 *639:10 *639:49 44.875 
9 *639:49 *639:59 22.25 
10 *639:59 *639:73 38.3571 
11 *639:73 *639:105 35.6607 
12 *639:105 *639:111 28.25 
13 *639:111 *2466:S1 10.2464 
14 *639:111 *639:124 34.0179 
15 *639:124 *2436:S1 22.5857 
16 *639:124 *2460:S1 37.4607 
17 *639:105 *2454:S1 9.3 
18 *639:73 *2442:S1 9.3 
19 *639:59 *2448:S1 14.7464 
20 *639:8 *2398:A 9.3 
21 *639:6 *2397:A 9.72857 
22 *639:4 *2408:A1 12.2107 
*END

*D_NET *640 0.00971602
*CONN
*I *2403:B I *D sky130_fd_sc_hd__and3_1
*I *2341:A I *D sky130_fd_sc_hd__and2_1
*I *2335:A I *D sky130_fd_sc_hd__nor2_1
*I *2400:A I *D sky130_fd_sc_hd__xnor2_1
*I *2429:S I *D sky130_fd_sc_hd__mux2_1
*I *2426:S I *D sky130_fd_sc_hd__mux2_1
*I *2833:X O *D sky130_fd_sc_hd__clkbuf_2
*CAP
1 *2403:B 1.65179e-05
2 *2341:A 0
3 *2335:A 0.000118975
4 *2400:A 0
5 *2429:S 0.000757635
6 *2426:S 3.08226e-05
7 *2833:X 3.49792e-05
8 *640:55 0.00117233
9 *640:49 0.00118793
10 *640:20 0.00110108
11 *640:14 0.00135793
12 *640:6 0.00119834
13 *2429:S *2737:RESET_B 9.82592e-05
14 *2429:S *644:27 0.000297852
15 *2429:S *648:78 0.000142053
16 *640:6 *706:8 1.92905e-05
17 *640:14 *2733:CLK 0.000152861
18 *640:14 *2733:D 0.000228558
19 *640:14 *642:12 0
20 *640:14 *706:8 4.88515e-05
21 *640:20 *2732:D 0.000184745
22 *640:49 *2402:B 3.17163e-05
23 *640:49 *2403:A 5.01117e-05
24 *640:49 *753:10 0
25 *640:49 *754:10 0
26 *640:49 *754:18 0
27 *640:55 *2336:A 0
28 *640:55 *2338:A 0
29 *640:55 *2402:B 7.2754e-05
30 *640:55 *753:10 0
31 *2341:B *2335:A 9.62596e-05
32 *2342:B *2335:A 3.18676e-05
33 *2396:B *640:20 1.74352e-05
34 *2400:B *640:20 0.000224583
35 *2403:C *2403:B 1.23419e-06
36 *2406:B1 *640:55 0.000159868
37 *2407:C1 *640:55 0
38 *2425:A1 *2429:S 4.58096e-05
39 *2910:A *2429:S 6.25007e-05
40 *219:8 *640:55 0.000197787
41 *285:24 *640:20 1.3701e-05
42 *333:98 *2429:S 0.000561385
43 *363:10 *640:14 0
44 *634:168 *2429:S 0
*RES
1 *2833:X *640:6 9.83571 
2 *640:6 *640:14 21.8571 
3 *640:14 *640:20 6.21429 
4 *640:20 *2426:S 9.83571 
5 *640:20 *2429:S 36.0679 
6 *640:14 *2400:A 9.3 
7 *640:6 *640:49 7.05357 
8 *640:49 *640:55 25.3214 
9 *640:55 *2335:A 12.3357 
10 *640:55 *2341:A 9.3 
11 *640:49 *2403:B 13.9652 
*END

*D_NET *641 0.0236434
*CONN
*I *2440:S1 I *D sky130_fd_sc_hd__mux4_1
*I *2439:S1 I *D sky130_fd_sc_hd__mux4_1
*I *2441:S1 I *D sky130_fd_sc_hd__mux4_1
*I *2438:S1 I *D sky130_fd_sc_hd__mux4_1
*I *2463:S1 I *D sky130_fd_sc_hd__mux4_1
*I *2452:S1 I *D sky130_fd_sc_hd__mux4_1
*I *2451:S1 I *D sky130_fd_sc_hd__mux4_1
*I *2465:S1 I *D sky130_fd_sc_hd__mux4_1
*I *2450:S1 I *D sky130_fd_sc_hd__mux4_1
*I *2453:S1 I *D sky130_fd_sc_hd__mux4_1
*I *2834:X O *D sky130_fd_sc_hd__clkbuf_4
*CAP
1 *2440:S1 3.52996e-06
2 *2439:S1 0.000209488
3 *2441:S1 0.000443945
4 *2438:S1 0
5 *2463:S1 0.000595834
6 *2452:S1 0
7 *2451:S1 0
8 *2465:S1 0.000939759
9 *2450:S1 0
10 *2453:S1 0.00023834
11 *2834:X 0.000304995
12 *641:143 0.00130026
13 *641:110 0.000649122
14 *641:77 0.00200108
15 *641:50 0.00215134
16 *641:42 0.00135574
17 *641:40 0.00194717
18 *641:18 0.00143275
19 *641:12 0.00112848
20 *641:10 0.000747241
21 *2441:S1 *659:29 0
22 *2441:S1 *659:58 0
23 *2441:S1 *659:84 0
24 *2453:S1 *2524:A1 0
25 *2463:S1 *645:68 0
26 *641:10 *650:32 1.59352e-06
27 *641:10 *650:66 0.000264252
28 *641:12 *650:32 0
29 *641:40 *2495:A1 4.87953e-05
30 *641:42 *2495:A1 9.99989e-05
31 *641:42 *645:30 0.000100823
32 *641:42 *645:121 0
33 *641:42 *656:56 0.000246076
34 *641:50 *2453:S0 0
35 *641:77 *2450:S0 0.000278347
36 *641:110 *2495:A1 3.34687e-05
37 *641:143 *2439:S0 6.87975e-06
38 *641:143 *650:32 9.55968e-05
39 *641:143 *659:116 0
40 *2438:A2 *641:18 3.34366e-05
41 *2438:A2 *641:143 0.000148903
42 *2438:A3 *641:40 0.000165858
43 *2439:A2 *641:143 3.88799e-05
44 *2440:A2 *641:10 0.000176955
45 *2450:A0 *641:77 4.93196e-05
46 *2450:A2 *641:77 3.92656e-05
47 *2450:A3 *641:77 5.99023e-05
48 *2451:A2 *641:42 0.000229691
49 *2451:A3 *641:42 4.1331e-06
50 *2451:A3 *641:50 7.49239e-05
51 *2452:A3 *2463:S1 9.11365e-06
52 *2452:A3 *641:110 1.78353e-05
53 *2453:A2 *2453:S1 0.000105487
54 *2454:A1 *641:50 0
55 *2454:A2 *641:77 1.3763e-05
56 *2454:S0 *641:42 5.01876e-06
57 *2466:A1 *2463:S1 9.88232e-05
58 *2475:S *2463:S1 0
59 *2485:S *2463:S1 0.000200406
60 *2495:A0 *641:40 7.6644e-05
61 *2505:A1 *2453:S1 7.70035e-05
62 *2552:A1 *2465:S1 7.83659e-05
63 *2552:S *2465:S1 0
64 *2561:S *2465:S1 0
65 *2577:A1 *641:143 3.92757e-05
66 *2579:A1 *641:50 0.00010509
67 *2581:A1 *2463:S1 0
68 *2581:S *2463:S1 4.56437e-05
69 *2588:S *2465:S1 0
70 *2688:D *2465:S1 0.000102925
71 *2692:CLK *641:40 0.000230066
72 *2692:D *641:40 7.01199e-06
73 *2718:CLK *641:50 0.000303931
74 *2718:D *641:50 1.76204e-05
75 *2727:D *2465:S1 8.39e-05
76 *2750:CLK *641:12 4.78056e-06
77 *2750:CLK *641:18 7.15987e-05
78 *2750:CLK *641:143 1.91418e-05
79 *2752:D *641:77 0.000150625
80 *2790:D *2441:S1 4.48113e-05
81 *2794:D *2465:S1 0
82 *2883:A *2463:S1 5.52302e-05
83 *2890:A *2465:S1 0
84 *2924:A *641:42 0.000153054
85 *2975:A *641:10 2.26973e-05
86 *2975:A *641:12 0.000123362
87 *2983:A *641:40 5.71472e-05
88 *2989:A *641:143 4.79842e-05
89 *3001:A *641:40 6.4443e-05
90 *297:24 *641:18 0
91 *297:24 *641:40 0.000159251
92 *297:24 *641:143 0
93 *300:14 *2441:S1 0.000388506
94 *300:14 *641:143 0.000400875
95 *320:22 *2463:S1 3.97677e-05
96 *334:80 *641:77 0
97 *338:44 *2439:S1 0.00019867
98 *339:44 *2463:S1 0.000150632
99 *339:44 *641:42 0
100 *345:22 *641:10 0
101 *345:52 *2463:S1 0.000353073
102 *346:63 *2465:S1 5.66157e-05
103 *346:63 *641:77 0
104 *354:26 *641:40 0.000137437
105 *355:8 *641:12 0.000106542
106 *355:10 *641:12 6.5185e-05
107 *355:45 *641:12 0.0001098
108 *355:56 *641:12 0.000107503
109 *355:67 *2440:S1 7.05143e-06
110 *355:67 *641:10 0
111 *355:67 *641:12 9.29571e-05
112 *380:10 *2453:S1 0.000125992
113 *380:10 *641:77 7.90803e-05
114 *418:10 *641:10 7.29667e-05
115 *444:8 *641:50 0.000188586
116 *494:14 *2465:S1 0
117 *634:98 *641:143 0.000128154
118 *637:104 *2463:S1 0.000315873
119 *637:104 *641:42 9.8296e-05
120 *637:104 *641:110 6.65302e-05
121 *639:105 *641:143 7.58103e-05
122 *639:111 *641:40 3.92854e-05
*RES
1 *2834:X *641:10 22.3089 
2 *641:10 *641:12 11.3393 
3 *641:12 *641:18 5.9375 
4 *641:18 *641:40 34.0893 
5 *641:40 *641:42 13.1786 
6 *641:42 *641:50 25.125 
7 *641:50 *2453:S1 18.8357 
8 *641:50 *641:77 28.3214 
9 *641:77 *2450:S1 13.8 
10 *641:77 *2465:S1 30.3357 
11 *641:42 *2451:S1 13.8 
12 *641:40 *641:110 1.64286 
13 *641:110 *2452:S1 13.8 
14 *641:110 *2463:S1 38.6036 
15 *641:18 *2438:S1 9.3 
16 *641:12 *641:143 16.0089 
17 *641:143 *2441:S1 23.3357 
18 *641:143 *2439:S1 18.0321 
19 *641:10 *2440:S1 14.0768 
*END

*D_NET *642 0.0309117
*CONN
*I *2404:A I *D sky130_fd_sc_hd__xnor2_1
*I *2337:A_N I *D sky130_fd_sc_hd__and2b_1
*I *2339:A I *D sky130_fd_sc_hd__xor2_1
*I *2445:S1 I *D sky130_fd_sc_hd__mux4_1
*I *2447:S1 I *D sky130_fd_sc_hd__mux4_1
*I *2424:S1 I *D sky130_fd_sc_hd__mux4_1
*I *2834:A I *D sky130_fd_sc_hd__clkbuf_4
*I *2462:S1 I *D sky130_fd_sc_hd__mux4_1
*I *2444:S1 I *D sky130_fd_sc_hd__mux4_1
*I *2394:B1 I *D sky130_fd_sc_hd__a21oi_1
*I *2835:X O *D sky130_fd_sc_hd__clkbuf_4
*CAP
1 *2404:A 0
2 *2337:A_N 9.13033e-05
3 *2339:A 0
4 *2445:S1 8.95557e-05
5 *2447:S1 0.000778078
6 *2424:S1 0
7 *2834:A 0
8 *2462:S1 0
9 *2444:S1 0.00115516
10 *2394:B1 5.26817e-05
11 *2835:X 0.000124138
12 *642:137 0.000718899
13 *642:113 0.00209496
14 *642:101 0.00232203
15 *642:99 0.00131441
16 *642:78 0.00269417
17 *642:64 0.00342669
18 *642:54 0.00164417
19 *642:37 0.00339454
20 *642:12 0.00169695
21 *642:6 0.00128796
22 *2394:B1 *2732:D 0
23 *2394:B1 *2733:CLK 0
24 *2444:S1 *657:104 0
25 *642:12 *2732:D 0
26 *642:12 *2733:CLK 0
27 *642:37 *2394:A1 3.6994e-05
28 *642:54 *664:28 6.9253e-05
29 *642:64 *664:10 2.16719e-05
30 *642:78 *2624:CLK 9.71197e-05
31 *642:78 *2624:RESET_B 0.000177052
32 *642:78 *651:103 3.14193e-05
33 *642:99 *2733:CLK 0.000298273
34 *642:99 *2737:D 0.000120325
35 *642:99 *2869:A 0.000118775
36 *642:99 *668:26 5.44167e-05
37 *642:99 *668:79 0.000121573
38 *642:99 *669:87 0
39 *642:99 *673:58 0
40 *642:99 *720:18 0.000129868
41 *642:101 *2621:CLK 7.58571e-05
42 *642:101 *2621:RESET_B 0
43 *642:101 *2731:D 0.000128146
44 *642:101 *647:27 0
45 *642:101 *668:26 6.44542e-05
46 *642:101 *673:58 0
47 *642:113 *647:27 0
48 *2337:B *2337:A_N 9.31893e-05
49 *2337:B *642:137 2.44318e-05
50 *2393:A *642:99 1.17968e-05
51 *2393:A *642:101 9.24491e-05
52 *2396:B *642:6 0.000171283
53 *2396:B *642:12 0.000266473
54 *2424:A2 *642:54 1.02504e-05
55 *2424:A2 *642:64 0.000137611
56 *2424:A3 *642:54 0
57 *2430:A0 *642:37 0.000105689
58 *2444:A3 *2444:S1 5.26091e-05
59 *2447:A0 *2447:S1 0.000208422
60 *2466:A2 *642:78 0.000299462
61 *2474:A0 *2444:S1 0
62 *2477:A0 *642:78 5.52238e-05
63 *2575:S *642:37 2.83129e-05
64 *2593:A0 *2444:S1 0
65 *2629:D *2444:S1 0
66 *2658:CLK *642:37 0.000396905
67 *2658:CLK *642:54 3.44348e-05
68 *2658:D *642:37 0.000143447
69 *2661:D *2445:S1 0
70 *2661:D *2447:S1 0
71 *2677:D *642:113 0.000139907
72 *2698:CLK *642:64 0.000169163
73 *2698:D *642:64 8.82363e-05
74 *2714:D *642:54 7.32903e-05
75 *2723:D *642:64 0.000363994
76 *2726:D *2444:S1 4.57445e-05
77 *2797:A *2444:S1 0
78 *2826:A *2444:S1 0
79 *2855:A *642:37 0.000271847
80 *2889:A *642:113 5.52302e-05
81 *2935:A *642:78 3.67142e-05
82 *219:14 *642:137 0.00010096
83 *222:12 *2337:A_N 5.71472e-05
84 *264:18 *642:37 0
85 *285:24 *642:37 0.000223631
86 *323:32 *2444:S1 0.000579895
87 *323:32 *642:37 6.5185e-05
88 *323:126 *642:78 0.00017218
89 *329:107 *642:54 0
90 *329:107 *642:64 0
91 *331:102 *2445:S1 0.000173083
92 *331:102 *2447:S1 0.000189448
93 *331:102 *642:37 0.000187466
94 *331:110 *2447:S1 5.41794e-05
95 *333:122 *642:113 6.28241e-05
96 *338:123 *642:78 0.000374315
97 *341:103 *2444:S1 0
98 *341:103 *642:37 0
99 *341:105 *2444:S1 0
100 *345:128 *2444:S1 0
101 *361:97 *642:54 7.45454e-05
102 *361:101 *642:54 9.9322e-05
103 *363:10 *2394:B1 9.26125e-05
104 *363:10 *642:12 0.000176303
105 *363:10 *642:99 0
106 *371:10 *642:113 0.000188586
107 *443:10 *642:113 7.06444e-05
108 *464:6 *642:64 0.000136951
109 *633:22 *642:37 2.54295e-05
110 *639:49 *642:99 0
111 *640:14 *642:12 0
*RES
1 *2835:X *642:6 11.0679 
2 *642:6 *642:12 9.49107 
3 *642:12 *2394:B1 14.9875 
4 *642:12 *642:37 30.7803 
5 *642:37 *2444:S1 37.3 
6 *642:37 *642:54 21.3393 
7 *642:54 *642:64 19.3393 
8 *642:64 *642:78 47.0714 
9 *642:78 *2462:S1 9.3 
10 *642:64 *2834:A 9.3 
11 *642:54 *2424:S1 13.8 
12 *642:6 *642:99 22.5357 
13 *642:99 *642:101 9.83929 
14 *642:101 *642:113 31.6071 
15 *642:113 *2447:S1 29.2018 
16 *642:113 *2445:S1 16.05 
17 *642:101 *642:137 15.3036 
18 *642:137 *2339:A 9.3 
19 *642:137 *2337:A_N 11.4786 
20 *642:99 *2404:A 13.8 
*END

*D_NET *643 0.0294325
*CONN
*I *2418:S1 I *D sky130_fd_sc_hd__mux4_1
*I *2459:S1 I *D sky130_fd_sc_hd__mux4_1
*I *2458:S1 I *D sky130_fd_sc_hd__mux4_1
*I *2420:S1 I *D sky130_fd_sc_hd__mux4_1
*I *2434:S1 I *D sky130_fd_sc_hd__mux4_1
*I *2464:S1 I *D sky130_fd_sc_hd__mux4_1
*I *2456:S1 I *D sky130_fd_sc_hd__mux4_1
*I *2432:S1 I *D sky130_fd_sc_hd__mux4_1
*I *2435:S1 I *D sky130_fd_sc_hd__mux4_1
*I *2433:S1 I *D sky130_fd_sc_hd__mux4_1
*I *2836:X O *D sky130_fd_sc_hd__clkbuf_4
*CAP
1 *2418:S1 3.0927e-05
2 *2459:S1 0.000781902
3 *2458:S1 0
4 *2420:S1 0
5 *2434:S1 0
6 *2464:S1 0.000362303
7 *2456:S1 0.000877821
8 *2432:S1 0.0003267
9 *2435:S1 0.000184003
10 *2433:S1 0.000621898
11 *2836:X 0
12 *643:157 0.00223031
13 *643:126 0.00219675
14 *643:116 0.00151091
15 *643:58 0.00158029
16 *643:41 0.00157903
17 *643:39 0.00225338
18 *643:31 0.00203861
19 *643:23 0.00226942
20 *643:4 0.000992894
21 *2433:S1 *644:49 3.97657e-05
22 *2433:S1 *644:55 0.000118604
23 *2456:S1 *646:27 3.27187e-05
24 *2456:S1 *646:42 3.77426e-05
25 *2464:S1 *2487:A1 0
26 *643:23 *644:49 7.48301e-06
27 *643:39 *644:55 0.000386293
28 *643:41 *2435:S0 3.50137e-05
29 *643:41 *646:16 0.000101759
30 *643:116 *2619:RESET_B 0
31 *643:126 *670:80 0
32 *643:157 *2470:A1 1.33343e-05
33 *643:157 *2519:A1 3.9846e-05
34 *643:157 *2600:A0 7.83659e-05
35 *643:157 *666:28 0.000270243
36 *643:157 *667:51 5.52302e-05
37 *2418:A2 *643:116 5.55449e-05
38 *2418:A3 *643:126 0.00012553
39 *2420:A1 *643:157 0.000125731
40 *2432:A3 *2456:S1 0.000176477
41 *2433:A2 *2433:S1 1.76039e-05
42 *2435:A2 *2435:S1 4.07853e-05
43 *2435:A3 *2435:S1 3.69087e-05
44 *2437:A0 *643:31 6.4952e-05
45 *2456:A3 *2456:S1 0.000439649
46 *2458:A2 *2459:S1 5.80706e-06
47 *2458:A2 *643:157 7.83366e-05
48 *2459:A0 *2459:S1 3.69047e-06
49 *2460:A1 *2459:S1 0.00027032
50 *2460:S1 *643:39 4.16114e-05
51 *2464:A2 *2464:S1 4.6025e-06
52 *2496:A0 *643:157 0.000267383
53 *2496:S *643:157 1.40131e-05
54 *2558:A0 *2432:S1 0
55 *2589:S *2456:S1 0.000147718
56 *2592:A0 *643:126 0.000149904
57 *2606:S *2459:S1 8.6229e-06
58 *2607:S *2464:S1 0
59 *2616:S *643:58 0.000247778
60 *2619:D *643:31 3.80953e-06
61 *2619:D *643:116 0
62 *2640:D *2464:S1 0.000150625
63 *2641:D *643:126 0
64 *2641:D *643:157 0.000348207
65 *2643:CLK *643:31 3.8469e-05
66 *2643:D *643:31 0.0001306
67 *2647:D *2459:S1 0
68 *2666:CLK *643:23 3.69047e-06
69 *2666:D *643:23 0
70 *2675:CLK *2433:S1 0.000105582
71 *2724:D *2432:S1 5.996e-05
72 *2747:D *643:116 3.72596e-05
73 *2779:CLK *643:157 0.000142856
74 *2823:A *643:116 0
75 *2846:A *2459:S1 0.000299432
76 *2870:A *643:126 0.000118189
77 *2874:A *643:41 0.000161868
78 *2875:A *643:126 0.000198698
79 *2895:A *643:126 1.78147e-05
80 *2905:A *2456:S1 9.96242e-05
81 *2942:A *2456:S1 0
82 *2950:A *2456:S1 0.000113594
83 *2997:A *643:157 0.000707252
84 *292:16 *2432:S1 4.96113e-05
85 *295:16 *2435:S1 3.06878e-06
86 *295:16 *643:39 0.000350081
87 *295:16 *643:41 0.000137976
88 *323:86 *643:157 0.000117528
89 *323:102 *643:157 2.14658e-05
90 *323:114 *2459:S1 0
91 *323:114 *643:157 0
92 *323:120 *2464:S1 0
93 *325:93 *643:39 0
94 *327:26 *643:157 5.33005e-05
95 *327:34 *643:126 0.000247778
96 *327:34 *643:157 0.000165254
97 *332:38 *643:157 6.41063e-05
98 *338:109 *2433:S1 0
99 *341:40 *643:126 4.98117e-05
100 *342:26 *2459:S1 0.000191325
101 *342:36 *2456:S1 6.73939e-05
102 *342:36 *2459:S1 0
103 *342:36 *643:58 0.000457255
104 *345:72 *2433:S1 0
105 *345:72 *643:23 0
106 *345:72 *643:116 0
107 *356:107 *2432:S1 0.000266846
108 *358:10 *643:116 0.000334532
109 *359:55 *643:116 0
110 *359:55 *643:126 0
111 *359:66 *643:126 0
112 *359:82 *643:157 0.000180777
113 *359:84 *643:157 0.000358965
114 *391:10 *643:157 3.55407e-05
115 *393:10 *643:31 2.02679e-05
116 *447:10 *643:116 0
117 *465:18 *2432:S1 2.05694e-05
118 *562:29 *643:39 0
119 *634:176 *643:23 3.69697e-05
120 *634:176 *643:116 2.72545e-05
121 *639:124 *643:39 6.07719e-05
*RES
1 *2836:X *643:4 9.3 
2 *643:4 *2433:S1 28.425 
3 *643:4 *643:23 10.9286 
4 *643:23 *643:31 19.4464 
5 *643:31 *643:39 24.125 
6 *643:39 *643:41 12.8571 
7 *643:41 *2435:S1 20.8 
8 *643:41 *643:58 13.4286 
9 *643:58 *2432:S1 28.2821 
10 *643:58 *2456:S1 33.1036 
11 *643:39 *2464:S1 25.1036 
12 *643:31 *2434:S1 9.3 
13 *643:23 *643:116 13.5357 
14 *643:116 *643:126 16.0179 
15 *643:126 *2420:S1 13.8 
16 *643:126 *643:157 47.8393 
17 *643:157 *2458:S1 13.8 
18 *643:157 *2459:S1 28.0694 
19 *643:116 *2418:S1 14.3357 
*END

*D_NET *644 0.0263554
*CONN
*I *2427:S1 I *D sky130_fd_sc_hd__mux4_1
*I *2421:S1 I *D sky130_fd_sc_hd__mux4_1
*I *2419:S1 I *D sky130_fd_sc_hd__mux4_1
*I *2428:S1 I *D sky130_fd_sc_hd__mux4_1
*I *2836:A I *D sky130_fd_sc_hd__clkbuf_4
*I *2457:S1 I *D sky130_fd_sc_hd__mux4_1
*I *2395:B I *D sky130_fd_sc_hd__and3_1
*I *2837:X O *D sky130_fd_sc_hd__buf_2
*CAP
1 *2427:S1 0.000263617
2 *2421:S1 0.000725438
3 *2419:S1 0
4 *2428:S1 0
5 *2836:A 0
6 *2457:S1 2.56851e-05
7 *2395:B 0.000296904
8 *2837:X 0
9 *644:82 0.00130439
10 *644:55 0.002031
11 *644:49 0.00294252
12 *644:37 0.00101144
13 *644:35 0.00169144
14 *644:27 0.00304146
15 *644:6 0.00203649
16 *2395:B *2835:A 1.58163e-05
17 *2395:B *648:53 0.000105696
18 *2395:B *648:78 0.000393708
19 *2421:S1 *2421:S0 0.000109914
20 *644:27 *2764:RESET_B 0
21 *644:27 *2765:CLK 4.59075e-05
22 *644:27 *2765:D 0.000230482
23 *644:27 *648:78 0.000327951
24 *644:27 *669:100 0.000134471
25 *644:27 *672:40 0
26 *644:27 *721:8 0
27 *644:55 *2434:S0 0
28 *644:55 *646:61 0
29 *644:55 *654:20 0
30 *644:82 *664:54 5.84267e-05
31 *2395:C *2395:B 0.000103974
32 *2398:B *2395:B 0
33 *2411:B *2395:B 3.66509e-05
34 *2411:B *644:27 4.65603e-05
35 *2422:S0 *2421:S1 0.000268101
36 *2423:A1 *2421:S1 4.48113e-05
37 *2427:A2 *2427:S1 2.524e-05
38 *2428:A0 *644:49 8.36075e-05
39 *2428:A1 *644:49 6.25193e-05
40 *2428:A2 *644:49 0.000285366
41 *2429:A1 *2427:S1 0.000368227
42 *2429:A1 *644:27 7.83587e-05
43 *2429:S *644:27 0.000297852
44 *2433:S1 *644:49 3.97657e-05
45 *2433:S1 *644:55 0.000118604
46 *2460:A0 *2457:S1 3.67257e-05
47 *2538:S *2421:S1 0.000811038
48 *2538:S *644:82 0.00115323
49 *2580:S *2457:S1 5.33433e-05
50 *2602:A1 *644:55 9.97744e-05
51 *2607:S *644:55 0
52 *2634:CLK *644:35 2.59355e-05
53 *2634:D *644:35 1.76204e-05
54 *2663:D *644:55 0.000146063
55 *2666:CLK *644:49 9.90431e-05
56 *2666:D *644:49 0.000192872
57 *2679:CLK *644:55 0
58 *2681:CLK *2421:S1 3.02415e-05
59 *2681:D *2421:S1 3.42577e-05
60 *2781:D *644:55 0
61 *2879:A *644:55 0.000609724
62 *2894:A *644:55 0
63 *2898:A *644:82 0.00050705
64 *2987:A *644:35 0.000315165
65 *264:20 *2421:S1 6.42242e-05
66 *264:20 *644:82 0
67 *268:21 *2395:B 0
68 *295:16 *644:55 0.000349897
69 *323:114 *644:55 0
70 *323:120 *644:55 0
71 *325:34 *2427:S1 3.53786e-05
72 *333:98 *644:27 1.03037e-05
73 *334:12 *2421:S1 0.000400369
74 *338:22 *2427:S1 0.000248486
75 *338:22 *644:27 7.6644e-05
76 *376:6 *644:49 0.000265447
77 *400:10 *644:35 8.31747e-05
78 *409:8 *644:55 0.000194299
79 *637:30 *2421:S1 0.000726099
80 *637:30 *644:82 0.000722836
81 *639:49 *2395:B 0
82 *643:23 *644:49 7.48301e-06
83 *643:39 *644:55 0.000386293
*RES
1 *2837:X *644:6 13.8 
2 *644:6 *2395:B 20.8357 
3 *644:6 *644:27 34.0357 
4 *644:27 *644:35 18.9286 
5 *644:35 *644:37 1.76786 
6 *644:37 *644:49 18.5 
7 *644:49 *644:55 45.5 
8 *644:55 *2457:S1 14.7464 
9 *644:49 *2836:A 9.3 
10 *644:37 *2428:S1 9.3 
11 *644:35 *644:82 24.0357 
12 *644:82 *2419:S1 13.8 
13 *644:82 *2421:S1 43.4607 
14 *644:27 *2427:S1 20.7821 
*END

*D_NET *645 0.0277713
*CONN
*I *2440:S0 I *D sky130_fd_sc_hd__mux4_1
*I *2438:S0 I *D sky130_fd_sc_hd__mux4_1
*I *2441:S0 I *D sky130_fd_sc_hd__mux4_1
*I *2451:S0 I *D sky130_fd_sc_hd__mux4_1
*I *2453:S0 I *D sky130_fd_sc_hd__mux4_1
*I *2463:S0 I *D sky130_fd_sc_hd__mux4_1
*I *2462:S0 I *D sky130_fd_sc_hd__mux4_1
*I *2465:S0 I *D sky130_fd_sc_hd__mux4_1
*I *2452:S0 I *D sky130_fd_sc_hd__mux4_1
*I *2450:S0 I *D sky130_fd_sc_hd__mux4_1
*I *2838:X O *D sky130_fd_sc_hd__buf_4
*CAP
1 *2440:S0 0.000499834
2 *2438:S0 3.78071e-05
3 *2441:S0 0.00101189
4 *2451:S0 2.53081e-05
5 *2453:S0 0.000983083
6 *2463:S0 0.000134781
7 *2462:S0 0
8 *2465:S0 0.000314407
9 *2452:S0 0
10 *2450:S0 0.000756985
11 *2838:X 2.03168e-05
12 *645:162 0.000881946
13 *645:145 0.00144138
14 *645:121 0.00158203
15 *645:101 0.000758918
16 *645:72 0.00166701
17 *645:68 0.00121069
18 *645:55 0.000552127
19 *645:30 0.00114408
20 *645:18 0.00220105
21 *645:6 0.0014157
22 *2440:S0 *650:32 0.000542657
23 *2441:S0 *2439:S0 0
24 *2450:S0 *2597:A1 5.83344e-05
25 *2450:S0 *655:75 0.000120587
26 *645:18 *2624:RESET_B 6.87839e-06
27 *645:18 *661:10 8.34186e-05
28 *645:18 *661:47 2.14378e-05
29 *645:72 *2581:A0 8.15416e-05
30 *645:101 *651:44 5.12584e-05
31 *645:101 *651:59 0.000141729
32 *645:121 *2515:A1 0
33 *645:121 *2624:CLK 0
34 *645:145 *2439:S0 0.000181803
35 *645:162 *650:32 0
36 *2439:A2 *2441:S0 0
37 *2439:A3 *2441:S0 0
38 *2442:A0 *2441:S0 0.000287749
39 *2442:A0 *645:145 5.52302e-05
40 *2442:A0 *645:162 8.44271e-06
41 *2451:A2 *645:121 0
42 *2451:A3 *2453:S0 0
43 *2452:A3 *645:55 3.28804e-05
44 *2452:A3 *645:68 2.10446e-05
45 *2453:A3 *2453:S0 5.33005e-05
46 *2454:A1 *2450:S0 0.000137983
47 *2454:A2 *2450:S0 0.000399668
48 *2454:A2 *645:18 3.29506e-06
49 *2454:A2 *645:30 9.58478e-05
50 *2454:A3 *645:121 5.83233e-05
51 *2455:S *645:18 0
52 *2462:A1 *645:101 0.000181374
53 *2463:A3 *2463:S0 3.17163e-05
54 *2463:S1 *645:68 0
55 *2465:A1 *2465:S0 5.49544e-05
56 *2466:A1 *2463:S0 1.00375e-05
57 *2485:S *2463:S0 0.000129175
58 *2485:S *645:68 9.55418e-05
59 *2513:S *2441:S0 0
60 *2515:S *2441:S0 0
61 *2524:A0 *2453:S0 0.000268403
62 *2544:S *2465:S0 7.71662e-05
63 *2559:S *645:162 5.53719e-05
64 *2577:S *2451:S0 3.52867e-05
65 *2581:A1 *645:72 0.000142856
66 *2581:S *645:72 5.33005e-05
67 *2588:S *645:101 0.000295844
68 *2590:A0 *645:101 4.16517e-05
69 *2614:S *2441:S0 5.03787e-05
70 *2616:A0 *645:101 1.34548e-05
71 *2616:S *645:101 0.000631782
72 *2644:D *2440:S0 1.08359e-05
73 *2662:D *2453:S0 0
74 *2678:D *2453:S0 7.63758e-05
75 *2678:D *645:121 5.35423e-05
76 *2700:D *645:18 9.25014e-06
77 *2720:CLK *645:101 3.69047e-06
78 *2720:D *645:72 3.88139e-05
79 *2729:D *645:101 9.83388e-05
80 *2813:A *645:72 0.000428274
81 *2852:A *645:18 7.92169e-05
82 *2880:A *2450:S0 9.44259e-05
83 *2880:A *645:55 5.43491e-05
84 *2882:A *2441:S0 0.000315179
85 *2883:A *2463:S0 8.2395e-05
86 *2883:A *645:68 7.6021e-05
87 *2891:A *2441:S0 0
88 *2968:A *2453:S0 2.89114e-05
89 *2984:A *2441:S0 0
90 *3001:A *645:30 0.000307349
91 *300:14 *2441:S0 0
92 *300:14 *645:145 9.60939e-05
93 *332:92 *2453:S0 0.00118166
94 *333:74 *2440:S0 0.000150618
95 *337:30 *2440:S0 0
96 *337:30 *645:162 0.000108304
97 *339:40 *645:72 0.000178847
98 *339:44 *2450:S0 0.000193125
99 *339:44 *645:55 0.000189448
100 *339:44 *645:68 0.00058272
101 *353:6 *2465:S0 9.58126e-05
102 *353:6 *645:72 5.33005e-05
103 *353:22 *645:101 3.17148e-05
104 *353:80 *645:101 0.000189448
105 *353:95 *645:101 7.22594e-05
106 *354:32 *645:121 0
107 *354:40 *2453:S0 0
108 *354:42 *2453:S0 0
109 *386:14 *2441:S0 0
110 *428:10 *2453:S0 0
111 *633:50 *645:30 0.000307349
112 *637:104 *645:30 9.91086e-05
113 *637:104 *645:121 0
114 *639:105 *645:18 0.000763702
115 *639:105 *645:145 5.88536e-05
116 *639:111 *645:121 3.17067e-05
117 *641:42 *645:30 0.000100823
118 *641:42 *645:121 0
119 *641:50 *2453:S0 0
120 *641:77 *2450:S0 0.000278347
*RES
1 *2838:X *645:6 9.72857 
2 *645:6 *645:18 27.75 
3 *645:18 *645:30 20.4286 
4 *645:30 *2450:S0 31.6929 
5 *645:30 *645:55 2.55357 
6 *645:55 *2452:S0 13.8 
7 *645:55 *645:68 11.3214 
8 *645:68 *645:72 16.125 
9 *645:72 *2465:S0 14.3536 
10 *645:72 *645:101 44.8929 
11 *645:101 *2462:S0 9.3 
12 *645:68 *2463:S0 17.4964 
13 *645:18 *645:121 15.25 
14 *645:121 *2453:S0 34.6929 
15 *645:121 *2451:S0 14.3357 
16 *645:6 *645:145 7.08929 
17 *645:145 *2441:S0 33.5857 
18 *645:145 *645:162 10.4286 
19 *645:162 *2438:S0 9.83571 
20 *645:162 *2440:S0 31.175 
*END

*D_NET *646 0.0272614
*CONN
*I *2464:S0 I *D sky130_fd_sc_hd__mux4_1
*I *2458:S0 I *D sky130_fd_sc_hd__mux4_1
*I *2459:S0 I *D sky130_fd_sc_hd__mux4_1
*I *2456:S0 I *D sky130_fd_sc_hd__mux4_1
*I *2420:S0 I *D sky130_fd_sc_hd__mux4_1
*I *2418:S0 I *D sky130_fd_sc_hd__mux4_1
*I *2457:S0 I *D sky130_fd_sc_hd__mux4_1
*I *2434:S0 I *D sky130_fd_sc_hd__mux4_1
*I *2432:S0 I *D sky130_fd_sc_hd__mux4_1
*I *2435:S0 I *D sky130_fd_sc_hd__mux4_1
*I *2839:X O *D sky130_fd_sc_hd__buf_4
*CAP
1 *2464:S0 0.000720633
2 *2458:S0 0.00122162
3 *2459:S0 0.000142403
4 *2456:S0 0.000235569
5 *2420:S0 0.000304215
6 *2418:S0 0.000228326
7 *2457:S0 2.87056e-05
8 *2434:S0 0.000543427
9 *2432:S0 4.30044e-05
10 *2435:S0 3.35552e-05
11 *2839:X 0
12 *646:141 0.00185205
13 *646:120 0.00115202
14 *646:82 0.00161403
15 *646:61 0.0012632
16 *646:48 0.00182811
17 *646:42 0.0019721
18 *646:27 0.000913279
19 *646:16 0.000974372
20 *646:6 0.00120316
21 *2418:S0 *2619:RESET_B 0.0002152
22 *2418:S0 *670:80 3.17148e-05
23 *2420:S0 *2583:A0 0.000146275
24 *2420:S0 *2619:RESET_B 0.00016202
25 *2420:S0 *670:80 0.000921746
26 *2458:S0 *2486:A1 1.21289e-05
27 *2458:S0 *2606:A0 0
28 *2458:S0 *653:105 1.95646e-05
29 *2458:S0 *653:112 0.000327901
30 *2464:S0 *2607:A0 0.000120788
31 *646:16 *2607:A0 0.000100823
32 *646:16 *650:84 1.00375e-05
33 *646:42 *2589:A1 7.6644e-05
34 *646:48 *654:32 7.88561e-05
35 *646:61 *654:20 0.000148911
36 *646:82 *2534:A0 3.06878e-06
37 *646:82 *654:20 7.39741e-05
38 *646:82 *670:76 9.41642e-05
39 *646:120 *2589:A1 0.000310999
40 *646:120 *653:71 0.00019187
41 *2418:A1 *646:82 9.60939e-05
42 *2434:A1 *2434:S0 9.25014e-06
43 *2434:A2 *2434:S0 5.52238e-05
44 *2434:A3 *2434:S0 1.07719e-05
45 *2456:A1 *646:120 0.000213799
46 *2456:A2 *646:120 1.36327e-05
47 *2456:S1 *646:27 3.27187e-05
48 *2456:S1 *646:42 3.77426e-05
49 *2459:A0 *2458:S0 3.34104e-05
50 *2459:A0 *646:141 4.58252e-05
51 *2459:A3 *646:141 0.00024292
52 *2466:A3 *2464:S0 9.02701e-05
53 *2476:A0 *2458:S0 2.69245e-05
54 *2482:A0 *2434:S0 4.5435e-05
55 *2485:S *2464:S0 9.91086e-05
56 *2516:A0 *2434:S0 7.17932e-05
57 *2580:S *2457:S0 3.23206e-05
58 *2580:S *646:82 9.02977e-05
59 *2598:A0 *2456:S0 0
60 *2598:A0 *646:120 0.000202835
61 *2615:S *2458:S0 5.33005e-05
62 *2640:CLK *646:16 0.000120636
63 *2647:D *2458:S0 0.000177428
64 *2648:CLK *2464:S0 9.9322e-05
65 *2648:D *2464:S0 0.000125279
66 *2663:D *2434:S0 0
67 *2679:D *646:48 0.000450883
68 *2687:D *2459:S0 7.14196e-06
69 *2689:D *646:82 0.000101117
70 *2711:D *646:48 0.000229613
71 *2747:D *2418:S0 4.02345e-05
72 *2749:D *646:27 0.00021693
73 *2749:D *646:42 9.9129e-05
74 *2786:D *2464:S0 0.000174534
75 *2786:D *646:16 4.66203e-05
76 *2870:A *646:82 8.27532e-05
77 *2874:A *646:16 0.000309266
78 *2893:A *646:141 0.000126439
79 *2894:A *2434:S0 0.000312743
80 *2915:A *646:82 7.61932e-05
81 *2942:A *646:42 0.000123072
82 *2942:A *646:120 9.58119e-05
83 *2960:A *2458:S0 0.000223745
84 *28:17 *2464:S0 1.07719e-05
85 *292:16 *2432:S0 0.000140088
86 *295:16 *2435:S0 0.000141729
87 *295:16 *646:16 0.000645386
88 *316:14 *2420:S0 0.000523792
89 *323:102 *2458:S0 9.98458e-05
90 *323:114 *2458:S0 5.52238e-05
91 *323:120 *646:16 0
92 *325:83 *2434:S0 0
93 *325:83 *646:61 0
94 *325:83 *646:82 0
95 *332:38 *2458:S0 3.10499e-05
96 *334:66 *646:16 0
97 *337:95 *2434:S0 9.2539e-06
98 *340:100 *646:27 8.81025e-05
99 *340:100 *646:42 0.000271502
100 *340:110 *646:27 0.000260431
101 *341:59 *646:16 0
102 *342:36 *2432:S0 3.16617e-05
103 *342:36 *646:42 0
104 *356:24 *646:16 8.56716e-05
105 *357:12 *646:48 6.06725e-05
106 *357:26 *646:48 1.72798e-05
107 *373:12 *646:61 6.09476e-05
108 *373:12 *646:82 7.09568e-05
109 *453:12 *2456:S0 3.4846e-06
110 *471:8 *646:82 1.65169e-05
111 *562:29 *2434:S0 0.000437227
112 *643:41 *2435:S0 3.50137e-05
113 *643:41 *646:16 0.000101759
114 *644:55 *2434:S0 0
115 *644:55 *646:61 0
*RES
1 *2839:X *646:6 13.8 
2 *646:6 *646:16 18.4464 
3 *646:16 *2435:S0 10.6571 
4 *646:16 *646:27 14.3393 
5 *646:27 *2432:S0 15.1571 
6 *646:27 *646:42 9.28571 
7 *646:42 *646:48 23.5 
8 *646:48 *2434:S0 26.3 
9 *646:48 *646:61 3.16071 
10 *646:61 *2457:S0 14.3357 
11 *646:61 *646:82 24.6786 
12 *646:82 *2418:S0 18.3893 
13 *646:82 *2420:S0 25.7643 
14 *646:42 *646:120 19.1607 
15 *646:120 *2456:S0 21.8124 
16 *646:120 *646:141 9.91964 
17 *646:141 *2459:S0 15.4339 
18 *646:141 *2458:S0 42.3625 
19 *646:6 *2464:S0 34.5679 
*END

*D_NET *647 0.0228898
*CONN
*I *2392:A I *D sky130_fd_sc_hd__and2_1
*I *2340:A1 I *D sky130_fd_sc_hd__a21oi_1
*I *2445:S0 I *D sky130_fd_sc_hd__mux4_1
*I *2424:S0 I *D sky130_fd_sc_hd__mux4_1
*I *2394:A1 I *D sky130_fd_sc_hd__a21oi_1
*I *2425:S0 I *D sky130_fd_sc_hd__mux4_1
*I *2446:S0 I *D sky130_fd_sc_hd__mux4_1
*I *2444:S0 I *D sky130_fd_sc_hd__mux4_1
*I *2447:S0 I *D sky130_fd_sc_hd__mux4_1
*I *2391:A I *D sky130_fd_sc_hd__nor2_1
*I *2840:X O *D sky130_fd_sc_hd__clkbuf_4
*CAP
1 *2392:A 0
2 *2340:A1 0.000668195
3 *2445:S0 0.000321529
4 *2424:S0 0.000646827
5 *2394:A1 0.000743468
6 *2425:S0 1.66503e-05
7 *2446:S0 0
8 *2444:S0 0.000286586
9 *2447:S0 0.00107048
10 *2391:A 0.000298577
11 *2840:X 0
12 *647:89 0.00145199
13 *647:78 0.000816935
14 *647:67 0.00115048
15 *647:41 0.001823
16 *647:35 0.00140475
17 *647:29 0.0018843
18 *647:27 0.00216153
19 *647:21 0.000620507
20 *647:4 0.000461609
21 *2391:A *2731:D 9.60875e-05
22 *2391:A *668:26 2.39876e-05
23 *2394:A1 *669:87 6.39808e-05
24 *2424:S0 *2566:A0 0.000262498
25 *2424:S0 *2566:A1 5.1588e-05
26 *2425:S0 *2425:S1 5.52302e-05
27 *2444:S0 *658:10 0
28 *2445:S0 *669:40 0
29 *2447:S0 *2596:A1 0
30 *647:21 *2840:A 1.21258e-05
31 *647:27 *2338:A 0
32 *647:27 *2621:RESET_B 1.00375e-05
33 *647:27 *2842:A 0
34 *647:27 *648:20 0.000320031
35 *647:67 *658:51 0
36 *647:78 *2446:S1 0
37 *647:78 *2484:A0 0
38 *2391:B *2391:A 0.000173797
39 *2392:B *2391:A 0.000344617
40 *2392:B *647:21 0.000192428
41 *2425:A0 *647:78 0
42 *2425:A0 *647:89 0
43 *2425:A3 *2424:S0 1.43349e-05
44 *2425:A3 *647:89 4.89311e-05
45 *2426:A0 *2425:S0 1.40415e-05
46 *2444:A0 *2444:S0 5.52238e-05
47 *2446:A0 *647:67 0
48 *2446:A1 *647:78 0
49 *2446:A2 *647:78 4.47843e-05
50 *2446:A3 *647:78 7.6369e-05
51 *2448:A0 *647:35 3.69697e-05
52 *2448:A0 *647:67 3.92854e-05
53 *2448:A1 *647:35 3.92757e-05
54 *2448:A1 *647:67 2.16719e-05
55 *2484:S *647:78 0.000245444
56 *2494:S *2391:A 0
57 *2560:A0 *647:41 5.52302e-05
58 *2587:A0 *647:67 9.32966e-05
59 *2706:D *2424:S0 0.000578359
60 *2709:D *2447:S0 0
61 *2717:D *2447:S0 0.000149904
62 *2855:A *2394:A1 0.000520402
63 *2886:A *2445:S0 0.00036083
64 *2952:A *2447:S0 0
65 *2956:A *2445:S0 0
66 *2958:A *2424:S0 4.13496e-05
67 *2961:A *647:78 0.000105142
68 *2964:A *647:67 0
69 *2985:A *2447:S0 0.000173804
70 *221:18 *2340:A1 2.27416e-05
71 *285:24 *2424:S0 0.000603927
72 *325:34 *647:78 7.95674e-05
73 *325:34 *647:89 4.97121e-06
74 *327:103 *2424:S0 0
75 *327:103 *647:89 0
76 *333:108 *2445:S0 0.000249728
77 *338:22 *2424:S0 4.27935e-05
78 *338:32 *2424:S0 0.00026353
79 *338:44 *2447:S0 0.000117144
80 *339:142 *647:67 0
81 *339:142 *647:78 0
82 *341:105 *2444:S0 0
83 *347:47 *2447:S0 0
84 *347:49 *2447:S0 0
85 *347:55 *2447:S0 0
86 *371:10 *2445:S0 0
87 *432:6 *2424:S0 4.43256e-05
88 *443:10 *2445:S0 9.25014e-06
89 *491:10 *2447:S0 9.25014e-06
90 *551:26 *2394:A1 9.41642e-05
91 *634:52 *2394:A1 6.57026e-05
92 *634:78 *2444:S0 1.40306e-05
93 *634:136 *2391:A 5.52302e-05
94 *637:62 *647:67 0
95 *637:62 *647:78 0
96 *637:90 *647:41 0.000572482
97 *639:73 *2445:S0 2.94103e-05
98 *639:73 *647:29 4.43256e-05
99 *639:73 *647:35 0.000381755
100 *642:37 *2394:A1 3.6994e-05
101 *642:101 *647:27 0
102 *642:113 *647:27 0
*RES
1 *2840:X *647:4 9.3 
2 *647:4 *2391:A 24.9786 
3 *647:4 *647:21 3.01786 
4 *647:21 *647:27 17.9286 
5 *647:27 *647:29 12.0357 
6 *647:29 *647:35 12.2321 
7 *647:35 *647:41 15.2857 
8 *647:41 *2447:S0 32.4429 
9 *647:41 *2444:S0 18.2643 
10 *647:35 *647:67 7.71429 
11 *647:67 *2446:S0 13.8 
12 *647:67 *647:78 15.6429 
13 *647:78 *2425:S0 14.3357 
14 *647:78 *647:89 1.49107 
15 *647:89 *2394:A1 24.1549 
16 *647:89 *2424:S0 31.0232 
17 *647:29 *2445:S0 26.3179 
18 *647:27 *2340:A1 17.2286 
19 *647:21 *2392:A 9.3 
*END

*D_NET *648 0.027384
*CONN
*I *2427:S0 I *D sky130_fd_sc_hd__mux4_1
*I *2421:S0 I *D sky130_fd_sc_hd__mux4_1
*I *2419:S0 I *D sky130_fd_sc_hd__mux4_1
*I *2428:S0 I *D sky130_fd_sc_hd__mux4_1
*I *2395:A I *D sky130_fd_sc_hd__and3_1
*I *2840:A I *D sky130_fd_sc_hd__clkbuf_4
*I *2356:A I *D sky130_fd_sc_hd__and3_1
*I *2359:A I *D sky130_fd_sc_hd__xor2_1
*I *2841:X O *D sky130_fd_sc_hd__clkbuf_4
*CAP
1 *2427:S0 0.000121167
2 *2421:S0 0.000592488
3 *2419:S0 0.000202592
4 *2428:S0 0.000456993
5 *2395:A 0
6 *2840:A 0.000117494
7 *2356:A 6.15101e-05
8 *2359:A 0
9 *2841:X 0
10 *648:117 0.00193947
11 *648:86 0.00186407
12 *648:78 0.00233797
13 *648:53 0.00282369
14 *648:20 0.00128797
15 *648:8 0.00146478
16 *648:6 0.000990399
17 *648:8 *2842:A 0
18 *648:8 *673:58 0.000211212
19 *648:8 *719:10 0
20 *648:20 *2338:A 5.33433e-05
21 *648:20 *2621:RESET_B 4.98872e-05
22 *648:20 *2842:A 0
23 *648:20 *673:58 0.000272665
24 *648:53 *2338:A 0
25 *648:53 *2405:B 0
26 *648:53 *2774:D 0.000103253
27 *648:53 *2774:RESET_B 0.000111779
28 *648:53 *2837:A 2.41865e-05
29 *648:53 *673:58 0.000165269
30 *648:53 *673:74 0.000126446
31 *648:53 *705:12 0.000198698
32 *648:53 *705:40 0.000256842
33 *648:53 *719:10 0
34 *648:53 *753:10 0
35 *648:78 *2765:CLK 6.97409e-05
36 *648:78 *2765:D 3.97657e-05
37 *648:78 *2837:A 0.000355375
38 *648:78 *669:100 9.05499e-05
39 *648:78 *672:40 0
40 *648:78 *707:23 9.60875e-05
41 *648:78 *721:8 0
42 *648:117 *666:106 3.16135e-05
43 *2340:B1 *2356:A 0
44 *2356:C *2356:A 0.000126639
45 *2360:A3 *2356:A 5.71472e-05
46 *2392:B *2840:A 0.0003081
47 *2393:B *2840:A 0.000232399
48 *2395:B *648:53 0.000105696
49 *2395:B *648:78 0.000393708
50 *2395:C *648:53 4.66203e-05
51 *2411:B *648:78 5.80706e-06
52 *2419:A1 *2419:S0 1.58163e-05
53 *2421:S1 *2421:S0 0.000109914
54 *2422:A0 *648:117 7.92757e-05
55 *2422:S0 *2421:S0 0.000258851
56 *2428:A1 *2428:S0 0
57 *2429:A0 *648:86 0.00113288
58 *2429:S *648:78 0.000142053
59 *2430:A1 *648:78 4.46186e-06
60 *2449:A0 *648:20 2.90655e-05
61 *2528:A0 *648:117 9.62287e-05
62 *2534:S *2419:S0 7.97597e-05
63 *2534:S *648:117 9.68025e-06
64 *2634:CLK *648:86 0.00106465
65 *2657:CLK *648:117 1.24368e-05
66 *2657:D *648:117 0.000197929
67 *2673:D *648:117 0.000331369
68 *2681:D *2421:S0 9.1469e-05
69 *2953:A *2428:S0 0.00018234
70 *2998:A *2421:S0 0.000100969
71 *3032:A *648:20 0.000217094
72 *221:14 *648:20 0
73 *222:12 *648:20 7.92879e-05
74 *223:14 *2356:A 9.77274e-05
75 *223:14 *648:20 0
76 *225:12 *648:20 0
77 *264:20 *2419:S0 0.000187398
78 *264:20 *2421:S0 0
79 *264:20 *2428:S0 0.000106099
80 *325:34 *2427:S0 0.000312736
81 *325:34 *648:78 0.000103974
82 *331:31 *2419:S0 2.89016e-05
83 *333:12 *648:117 0
84 *333:46 *2427:S0 0.000153003
85 *333:46 *648:78 3.17067e-05
86 *333:58 *648:78 0
87 *333:58 *648:86 1.74352e-05
88 *333:98 *648:78 0.0007299
89 *333:98 *648:86 3.67142e-05
90 *334:12 *2421:S0 4.97825e-05
91 *336:10 *2419:S0 9.17026e-05
92 *337:24 *2419:S0 0.000175892
93 *340:10 *648:117 6.89152e-05
94 *340:16 *648:117 0.000663569
95 *345:152 *648:78 0
96 *349:16 *648:117 0
97 *361:12 *2428:S0 0.000348207
98 *361:75 *2428:S0 5.52302e-05
99 *361:75 *648:86 1.04232e-05
100 *384:10 *2428:S0 4.34472e-05
101 *634:40 *648:53 8.359e-05
102 *637:28 *648:117 0.000746985
103 *637:30 *2421:S0 0.000551623
104 *639:49 *648:53 0
105 *644:27 *648:78 0.000327951
106 *647:21 *2840:A 1.21258e-05
107 *647:27 *648:20 0.000320031
*RES
1 *2841:X *648:6 13.8 
2 *648:6 *648:8 2.85714 
3 *648:8 *648:20 34.1607 
4 *648:20 *2359:A 9.3 
5 *648:20 *2356:A 11.9071 
6 *648:8 *2840:A 17.7643 
7 *648:6 *648:53 18.7143 
8 *648:53 *2395:A 13.8 
9 *648:53 *648:78 48.875 
10 *648:78 *648:86 16.6786 
11 *648:86 *2428:S0 26.3536 
12 *648:86 *648:117 36.2143 
13 *648:117 *2419:S0 23.5679 
14 *648:117 *2421:S0 33.3 
15 *648:78 *2427:S0 17.8714 
*END

*D_NET *649 0.00132105
*CONN
*I *2349:A_N I *D sky130_fd_sc_hd__and3b_1
*I *2350:B1_N I *D sky130_fd_sc_hd__a21bo_1
*I *3019:X O *D sky130_fd_sc_hd__clkbuf_1
*CAP
1 *2349:A_N 0
2 *2350:B1_N 0.000132535
3 *3019:X 0.000223377
4 *649:14 0.000355913
5 *649:14 *678:10 0
6 aempty *649:14 0.000128154
7 rd_data[4] *649:14 0
8 *2349:B *2350:B1_N 3.14078e-05
9 *2349:C *2350:B1_N 0.00014285
10 *2363:B1 *2350:B1_N 5.71472e-05
11 *3019:A *649:14 7.1721e-05
12 *3024:A *649:14 0.000177941
*RES
1 *3019:X *649:14 23.4429 
2 *649:14 *2350:B1_N 12.3 
3 *649:14 *2349:A_N 9.3 
*END

*D_NET *650 0.021636
*CONN
*I *2841:A I *D sky130_fd_sc_hd__clkbuf_4
*I *2433:S0 I *D sky130_fd_sc_hd__mux4_1
*I *2839:A I *D sky130_fd_sc_hd__buf_4
*I *2838:A I *D sky130_fd_sc_hd__buf_4
*I *2439:S0 I *D sky130_fd_sc_hd__mux4_1
*I *2842:X O *D sky130_fd_sc_hd__clkbuf_2
*CAP
1 *2841:A 0
2 *2433:S0 0
3 *2839:A 0
4 *2838:A 0
5 *2439:S0 0.000858798
6 *2842:X 0.000106238
7 *650:84 0.00148988
8 *650:66 0.00243868
9 *650:32 0.00157059
10 *650:30 0.0037433
11 *650:22 0.00287541
12 *650:6 0.000898941
13 *650:6 *669:28 0.000226507
14 *650:22 *669:28 0.000293818
15 *650:22 *669:40 9.58593e-05
16 *650:66 *2530:A0 5.24274e-05
17 *650:66 *2530:A1 0.00022266
18 *650:84 *2530:A1 0
19 *2391:B *650:22 5.3167e-05
20 *2404:B *650:22 2.28598e-05
21 *2433:A0 *650:66 5.52238e-05
22 *2433:A0 *650:84 0
23 *2433:A2 *650:84 6.20706e-05
24 *2433:A3 *650:66 0
25 *2433:A3 *650:84 5.37473e-05
26 *2436:A0 *650:84 1.53267e-05
27 *2439:A2 *2439:S0 0
28 *2439:A3 *2439:S0 1.41706e-05
29 *2440:A0 *650:30 0.000102197
30 *2440:S0 *650:32 0.000542657
31 *2441:S0 *2439:S0 0
32 *2442:A0 *2439:S0 2.20608e-05
33 *2446:A3 *650:22 0.000268396
34 *2474:A0 *650:30 5.38072e-05
35 *2513:A0 *2439:S0 0.00034421
36 *2607:S *650:84 9.72812e-05
37 *2640:CLK *650:84 6.05161e-06
38 *2640:D *650:84 0.000192872
39 *2659:D *650:84 8.15095e-05
40 *2675:D *650:66 5.01213e-05
41 *2707:CLK *650:84 0.000309542
42 *2715:D *650:84 1.76204e-05
43 *2786:D *650:84 0.000127439
44 *2892:A *650:30 2.59355e-05
45 *2912:A *650:30 0.00019243
46 *2961:A *650:30 0.00025665
47 *2975:A *650:32 0.000362531
48 *2992:A *2439:S0 2.82057e-05
49 *3000:A *650:66 8.91542e-05
50 *265:6 *650:22 1.98839e-05
51 *299:16 *650:30 5.95659e-05
52 *300:14 *2439:S0 5.32956e-05
53 *323:120 *650:84 7.8327e-05
54 *331:102 *650:22 0.000462113
55 *333:74 *650:30 1.96874e-05
56 *333:74 *650:32 5.90443e-06
57 *333:74 *650:66 0.000494588
58 *333:108 *650:22 1.50087e-05
59 *342:75 *2439:S0 0.000119267
60 *348:36 *650:22 0.000351162
61 *406:8 *650:84 9.3562e-05
62 *418:10 *650:32 8.32171e-05
63 *441:12 *650:84 0.000353079
64 *633:22 *650:22 0.000129175
65 *634:98 *650:32 6.5185e-05
66 *639:59 *650:22 9.24395e-05
67 *639:105 *2439:S0 0.000260009
68 *641:10 *650:32 1.59352e-06
69 *641:10 *650:66 0.000264252
70 *641:12 *650:32 0
71 *641:143 *2439:S0 6.87975e-06
72 *641:143 *650:32 9.55968e-05
73 *645:145 *2439:S0 0.000181803
74 *645:162 *650:32 0
75 *646:16 *650:84 1.00375e-05
*RES
1 *2842:X *650:6 11.4786 
2 *650:6 *650:22 28.0357 
3 *650:22 *650:30 37.6696 
4 *650:30 *650:32 17.7768 
5 *650:32 *2439:S0 38.5321 
6 *650:32 *2838:A 13.8 
7 *650:30 *650:66 27.8839 
8 *650:66 *650:84 43.8393 
9 *650:84 *2839:A 9.3 
10 *650:66 *2433:S0 9.3 
11 *650:6 *2841:A 9.3 
*END

*D_NET *651 0.0137826
*CONN
*I *2599:A1 I *D sky130_fd_sc_hd__mux2_1
*I *2487:A1 I *D sky130_fd_sc_hd__mux2_1
*I *2477:A1 I *D sky130_fd_sc_hd__mux2_1
*I *2544:A1 I *D sky130_fd_sc_hd__mux2_1
*I *2526:A1 I *D sky130_fd_sc_hd__mux2_1
*I *2554:A0 I *D sky130_fd_sc_hd__mux2_1
*I *2507:A0 I *D sky130_fd_sc_hd__mux2_1
*I *2616:A1 I *D sky130_fd_sc_hd__mux2_1
*I *2590:A1 I *D sky130_fd_sc_hd__mux2_1
*I *2563:A1 I *D sky130_fd_sc_hd__mux2_1
*I *2843:X O *D sky130_fd_sc_hd__clkbuf_2
*CAP
1 *2599:A1 2.65014e-05
2 *2487:A1 0.000802562
3 *2477:A1 0
4 *2544:A1 0
5 *2526:A1 0
6 *2554:A0 0.000163563
7 *2507:A0 0
8 *2616:A1 5.15814e-05
9 *2590:A1 0.000170968
10 *2563:A1 0.000269546
11 *2843:X 0
12 *651:103 0.00127908
13 *651:71 0.000390635
14 *651:65 0.000591689
15 *651:59 0.000566712
16 *651:44 0.000470164
17 *651:29 0.000593475
18 *651:23 0.000768307
19 *651:21 0.00088278
20 *651:4 0.00104006
21 *651:65 *2526:A0 0.000445571
22 *651:71 *2526:A0 5.52302e-05
23 *2462:A2 *2563:A1 5.74562e-05
24 *2462:A3 *2563:A1 0.000128875
25 *2464:A3 *2487:A1 2.11419e-05
26 *2464:S1 *2487:A1 0
27 *2466:A2 *2487:A1 0.000535248
28 *2466:A2 *651:103 0.00061302
29 *2477:A0 *2487:A1 8.16036e-05
30 *2485:S *2487:A1 0.000457226
31 *2507:A1 *651:71 0.000128154
32 *2507:S *2563:A1 0
33 *2544:A0 *651:59 5.43122e-05
34 *2544:A0 *651:65 5.49489e-05
35 *2561:S *2563:A1 8.15095e-05
36 *2563:S *2563:A1 4.884e-05
37 *2588:S *2616:A1 7.65336e-06
38 *2588:S *651:29 5.83304e-05
39 *2588:S *651:44 0.000163911
40 *2590:A0 *2590:A1 0.000225385
41 *2590:S *2590:A1 4.48647e-05
42 *2590:S *651:29 6.05161e-06
43 *2607:S *2487:A1 0.000128154
44 *2616:A0 *2616:A1 2.41972e-05
45 *2616:A0 *651:44 4.63699e-05
46 *2616:S *651:44 0
47 *2616:S *651:59 0.000183477
48 *2656:D *651:71 0
49 *2688:D *651:65 7.8613e-05
50 *2754:CLK *651:21 0.000269801
51 *2844:A *651:21 0.000259406
52 *2888:A *2616:A1 1.00399e-05
53 *2888:A *651:59 2.14757e-05
54 *2906:A *651:71 8.50152e-05
55 *323:120 *2487:A1 0
56 *332:70 *2554:A0 3.92757e-05
57 *332:70 *651:71 6.37464e-05
58 *332:80 *651:71 1.31516e-05
59 *334:74 *2599:A1 1.88048e-05
60 *334:74 *651:23 7.04538e-05
61 *334:74 *651:29 5.85135e-05
62 *336:81 *2554:A0 4.53889e-05
63 *338:123 *651:29 8.89385e-05
64 *340:110 *2599:A1 2.21728e-05
65 *340:110 *651:23 9.31534e-05
66 *340:110 *651:29 0.00015049
67 *353:39 *2554:A0 0
68 *353:39 *651:71 0
69 *353:95 *651:29 3.34366e-05
70 *422:10 *2487:A1 0.000295803
71 *470:8 *651:21 9.71197e-05
72 *632:26 *651:29 2.42516e-05
73 *642:78 *651:103 3.14193e-05
74 *645:101 *651:44 5.12584e-05
75 *645:101 *651:59 0.000141729
*RES
1 *2843:X *651:4 9.3 
2 *651:4 *2563:A1 23.0321 
3 *651:4 *651:21 14.8929 
4 *651:21 *651:23 2.55357 
5 *651:23 *651:29 10.125 
6 *651:29 *2590:A1 12.3 
7 *651:29 *651:44 9.64286 
8 *651:44 *2616:A1 14.8357 
9 *651:44 *651:59 9.05357 
10 *651:59 *651:65 7.66071 
11 *651:65 *651:71 9.625 
12 *651:71 *2507:A0 13.8 
13 *651:71 *2554:A0 16.1929 
14 *651:65 *2526:A1 9.3 
15 *651:59 *2544:A1 9.3 
16 *651:23 *651:103 11.1964 
17 *651:103 *2477:A1 9.3 
18 *651:103 *2487:A1 36.2286 
19 *651:21 *2599:A1 14.5321 
*END

*D_NET *652 0.0107202
*CONN
*I *2497:A1 I *D sky130_fd_sc_hd__mux2_1
*I *2517:A1 I *D sky130_fd_sc_hd__mux2_1
*I *2572:A1 I *D sky130_fd_sc_hd__mux2_1
*I *2535:A1 I *D sky130_fd_sc_hd__mux2_1
*I *2581:A0 I *D sky130_fd_sc_hd__mux2_1
*I *2607:A0 I *D sky130_fd_sc_hd__mux2_1
*I *2844:X O *D sky130_fd_sc_hd__buf_1
*CAP
1 *2497:A1 0.000397038
2 *2517:A1 0
3 *2572:A1 0.000507114
4 *2535:A1 0.000382618
5 *2581:A0 0.000267674
6 *2607:A0 0.000507861
7 *2844:X 0
8 *652:63 0.000723109
9 *652:33 0.000717624
10 *652:31 0.000585262
11 *652:12 0.000959074
12 *652:4 0.000546316
13 *2463:A1 *652:33 0
14 *2464:A0 *2497:A1 0
15 *2464:S0 *2607:A0 0.000120788
16 *2466:A0 *652:63 5.52302e-05
17 *2466:A3 *652:12 3.5707e-05
18 *2466:A3 *652:31 0.000428264
19 *2466:A3 *652:33 4.46186e-06
20 *2485:S *2581:A0 0.000200406
21 *2485:S *652:31 0.000922339
22 *2485:S *652:33 0.000142797
23 *2535:S *2535:A1 0
24 *2581:A1 *2581:A0 3.18676e-05
25 *2581:S *2581:A0 2.59355e-05
26 *2607:A1 *2607:A0 0
27 *2607:S *2607:A0 5.39166e-06
28 *2632:D *2607:A0 9.25014e-06
29 *2648:CLK *2607:A0 0.000356035
30 *2648:D *2497:A1 0
31 *2648:D *2607:A0 0.00035441
32 *2648:D *652:12 0.000225616
33 *2680:D *2535:A1 1.40415e-05
34 *2786:D *2607:A0 3.47468e-05
35 *2988:A *2607:A0 0.000219711
36 *2988:A *652:12 4.08637e-05
37 *2988:A *652:31 0.000125724
38 *331:80 *2572:A1 5.31719e-05
39 *331:80 *652:63 0.000431803
40 *339:40 *2581:A0 3.30526e-05
41 *341:59 *2607:A0 0
42 *353:128 *2607:A0 1.08359e-05
43 *374:6 *2581:A0 0.00026353
44 *414:6 *2607:A0 0.000318101
45 *637:104 *2581:A0 0.000104227
46 *637:104 *652:33 5.33978e-05
47 *639:124 *2497:A1 0.000322453
48 *645:72 *2581:A0 8.15416e-05
49 *646:16 *2607:A0 0.000100823
*RES
1 *2844:X *652:4 9.3 
2 *652:4 *652:12 12.5179 
3 *652:12 *2607:A0 31.4429 
4 *652:12 *652:31 16.4643 
5 *652:31 *652:33 1.94643 
6 *652:33 *2581:A0 20.9964 
7 *652:33 *2535:A1 19.2821 
8 *652:31 *652:63 10.1071 
9 *652:63 *2572:A1 17.1571 
10 *652:63 *2517:A1 9.3 
11 *652:4 *2497:A1 25.3714 
*END

*D_NET *653 0.0120526
*CONN
*I *2486:A1 I *D sky130_fd_sc_hd__mux2_1
*I *2476:A1 I *D sky130_fd_sc_hd__mux2_1
*I *2615:A1 I *D sky130_fd_sc_hd__mux2_1
*I *2598:A1 I *D sky130_fd_sc_hd__mux2_1
*I *2589:A1 I *D sky130_fd_sc_hd__mux2_1
*I *2543:A1 I *D sky130_fd_sc_hd__mux2_1
*I *2506:A0 I *D sky130_fd_sc_hd__mux2_1
*I *2562:A1 I *D sky130_fd_sc_hd__mux2_1
*I *2553:A0 I *D sky130_fd_sc_hd__mux2_1
*I *2525:A1 I *D sky130_fd_sc_hd__mux2_1
*I *2845:X O *D sky130_fd_sc_hd__clkbuf_2
*CAP
1 *2486:A1 0.000455901
2 *2476:A1 0
3 *2615:A1 0
4 *2598:A1 4.59739e-05
5 *2589:A1 0.000591207
6 *2543:A1 0
7 *2506:A0 0
8 *2562:A1 0
9 *2553:A0 0.000270116
10 *2525:A1 1.40568e-05
11 *2845:X 0.000117177
12 *653:112 0.000588585
13 *653:105 0.000376595
14 *653:71 0.00100464
15 *653:65 0.000710049
16 *653:56 0.00042172
17 *653:43 0.000471983
18 *653:25 0.000607679
19 *653:19 0.000711244
20 *653:6 0.000355971
21 *2458:S0 *2486:A1 1.21289e-05
22 *2458:S0 *653:105 1.95646e-05
23 *2458:S0 *653:112 0.000327901
24 *2476:A0 *2486:A1 9.90367e-05
25 *2476:A0 *653:112 5.71472e-05
26 *2486:A0 *2486:A1 3.18676e-05
27 *2506:A1 *653:25 0
28 *2525:A0 *2525:A1 5.52238e-05
29 *2525:A0 *653:6 5.52302e-05
30 *2543:A0 *653:56 6.82897e-05
31 *2543:A0 *653:65 0.000269378
32 *2543:A0 *653:105 0.000250846
33 *2543:S *653:65 0.000272321
34 *2543:S *653:71 0.000128154
35 *2562:A0 *2553:A0 1.76135e-05
36 *2562:A0 *653:25 6.97972e-05
37 *2589:A0 *2589:A1 2.44318e-05
38 *2589:S *2589:A1 2.60984e-05
39 *2598:A0 *653:71 4.31104e-05
40 *2615:S *653:112 5.33005e-05
41 *2647:CLK *2486:A1 0.000174239
42 *2655:D *653:25 4.20414e-05
43 *2655:D *653:43 5.23057e-05
44 *2687:D *653:56 5.65955e-05
45 *2753:CLK *2598:A1 1.40415e-05
46 *2846:A *653:19 0
47 *2905:A *2589:A1 0.000143652
48 *2960:A *653:105 8.25512e-05
49 *2978:A *653:19 0
50 *323:102 *2486:A1 5.71472e-05
51 *329:48 *2553:A0 0
52 *329:48 *653:25 0
53 *332:38 *653:105 9.60939e-05
54 *332:38 *653:112 0.00036329
55 *332:42 *653:6 0.000125057
56 *332:52 *2525:A1 2.89016e-05
57 *332:52 *2553:A0 0.00029324
58 *332:52 *653:6 2.28598e-05
59 *332:52 *653:19 0.000125613
60 *332:52 *653:25 0.000329742
61 *336:65 *2589:A1 2.44836e-05
62 *342:26 *653:112 0.000106944
63 *342:36 *2589:A1 0
64 *357:16 *2589:A1 3.2006e-05
65 *357:71 *2589:A1 3.06406e-05
66 *357:84 *2589:A1 5.28037e-05
67 *357:84 *653:71 6.74911e-05
68 *357:95 *653:71 0.000166935
69 *357:106 *653:71 2.59795e-05
70 *357:119 *653:71 6.8646e-06
71 *357:119 *653:105 9.05381e-05
72 *389:8 *653:43 5.30209e-05
73 *389:8 *653:56 0.000183676
74 *607:10 *653:19 0
75 *646:42 *2589:A1 7.6644e-05
76 *646:120 *2589:A1 0.000310999
77 *646:120 *653:71 0.00019187
*RES
1 *2845:X *653:6 11.8893 
2 *653:6 *2525:A1 9.83571 
3 *653:6 *653:19 13.9821 
4 *653:19 *653:25 12.75 
5 *653:25 *2553:A0 20.6036 
6 *653:25 *2562:A1 13.8 
7 *653:19 *653:43 3 
8 *653:43 *2506:A0 9.3 
9 *653:43 *653:56 7.16071 
10 *653:56 *2543:A1 9.3 
11 *653:56 *653:65 7.91071 
12 *653:65 *653:71 9.89286 
13 *653:71 *2589:A1 24.4964 
14 *653:71 *2598:A1 14.3357 
15 *653:65 *653:105 11.0893 
16 *653:105 *2615:A1 9.3 
17 *653:105 *653:112 6.69643 
18 *653:112 *2476:A1 9.3 
19 *653:112 *2486:A1 25.1214 
*END

*D_NET *654 0.00962219
*CONN
*I *2606:A0 I *D sky130_fd_sc_hd__mux2_1
*I *2496:A1 I *D sky130_fd_sc_hd__mux2_1
*I *2534:A1 I *D sky130_fd_sc_hd__mux2_1
*I *2516:A1 I *D sky130_fd_sc_hd__mux2_1
*I *2580:A0 I *D sky130_fd_sc_hd__mux2_1
*I *2571:A1 I *D sky130_fd_sc_hd__mux2_1
*I *2846:X O *D sky130_fd_sc_hd__buf_1
*CAP
1 *2606:A0 0.000357945
2 *2496:A1 0
3 *2534:A1 0
4 *2516:A1 0.000307175
5 *2580:A0 0.00011905
6 *2571:A1 0.000152506
7 *2846:X 0.000251569
8 *654:64 0.000624021
9 *654:32 0.00088089
10 *654:20 0.00149882
11 *654:16 0.000661192
12 *654:14 0.000698061
13 *654:64 *2534:A0 6.06083e-05
14 *2457:A1 *2516:A1 2.15363e-05
15 *2457:A1 *654:64 0.000108111
16 *2457:A3 *654:20 7.63758e-05
17 *2458:A0 *2606:A0 3.34295e-05
18 *2458:A2 *2606:A0 2.3541e-05
19 *2458:A3 *654:16 0
20 *2458:A3 *654:20 0
21 *2458:S0 *2606:A0 0
22 *2460:A1 *2606:A0 0.000225609
23 *2460:A2 *654:20 0
24 *2460:A3 *2606:A0 0.000219591
25 *2460:A3 *654:14 7.37829e-05
26 *2460:A3 *654:16 6.19037e-05
27 *2460:A3 *654:20 0.00019452
28 *2460:S1 *2516:A1 0.000280663
29 *2460:S1 *654:64 1.50181e-05
30 *2476:A0 *2606:A0 0
31 *2476:A0 *654:14 6.8646e-06
32 *2516:A0 *2516:A1 4.88637e-05
33 *2516:S *2516:A1 0.00018077
34 *2571:A0 *2571:A1 0.000175512
35 *2571:A0 *2580:A0 0.000173804
36 *2571:S *2571:A1 2.89114e-05
37 *2606:A1 *2606:A0 1.98839e-05
38 *2606:S *2606:A0 4.27934e-05
39 *2631:D *2606:A0 7.72906e-05
40 *2647:D *2606:A0 0
41 *2647:D *654:16 0
42 *2679:D *654:32 0.000129274
43 *2679:D *654:64 8.18783e-05
44 *2711:D *2571:A1 3.25247e-05
45 *2846:A *2606:A0 0.000622788
46 *2846:A *654:14 4.55516e-05
47 *2946:A *2516:A1 1.65558e-05
48 *2995:A *654:20 0
49 *323:114 *2571:A1 0
50 *325:83 *2516:A1 0
51 *325:83 *654:20 0
52 *334:66 *2571:A1 0
53 *334:66 *2580:A0 0
54 *336:65 *2571:A1 1.32552e-05
55 *340:73 *2516:A1 0.000525388
56 *341:42 *2580:A0 5.33005e-05
57 *345:76 *2516:A1 9.93135e-05
58 *357:12 *2571:A1 0
59 *644:55 *654:20 0
60 *646:48 *654:32 7.88561e-05
61 *646:61 *654:20 0.000148911
62 *646:82 *654:20 7.39741e-05
*RES
1 *2846:X *654:14 17.9339 
2 *654:14 *654:16 1.79464 
3 *654:16 *654:20 16.1607 
4 *654:20 *654:32 13.5357 
5 *654:32 *2571:A1 17.3 
6 *654:32 *2580:A0 16.5857 
7 *654:20 *654:64 14.6964 
8 *654:64 *2516:A1 27.55 
9 *654:64 *2534:A1 9.3 
10 *654:16 *2496:A1 13.8 
11 *654:14 *2606:A0 35.0411 
*END

*D_NET *655 0.0135235
*CONN
*I *2485:A1 I *D sky130_fd_sc_hd__mux2_1
*I *2475:A1 I *D sky130_fd_sc_hd__mux2_1
*I *2552:A0 I *D sky130_fd_sc_hd__mux2_1
*I *2561:A1 I *D sky130_fd_sc_hd__mux2_1
*I *2588:A1 I *D sky130_fd_sc_hd__mux2_1
*I *2597:A1 I *D sky130_fd_sc_hd__mux2_1
*I *2614:A1 I *D sky130_fd_sc_hd__mux2_1
*I *2542:A1 I *D sky130_fd_sc_hd__mux2_1
*I *2505:A0 I *D sky130_fd_sc_hd__mux2_1
*I *2524:A1 I *D sky130_fd_sc_hd__mux2_1
*I *2847:X O *D sky130_fd_sc_hd__clkbuf_2
*CAP
1 *2485:A1 0.000529699
2 *2475:A1 0
3 *2552:A0 0
4 *2561:A1 0.000275589
5 *2588:A1 0
6 *2597:A1 2.8057e-05
7 *2614:A1 0.000149198
8 *2542:A1 0.000209577
9 *2505:A0 2.38169e-05
10 *2524:A1 0.000494322
11 *2847:X 0
12 *655:112 0.000699346
13 *655:92 0.000535595
14 *655:83 0.00101088
15 *655:75 0.00121622
16 *655:62 0.00107484
17 *655:38 0.000601836
18 *655:36 0.00106249
19 *655:10 0.000734435
20 *655:4 0.00028464
21 *2450:S0 *2597:A1 5.83344e-05
22 *2450:S0 *655:75 0.000120587
23 *2452:A0 *655:75 0
24 *2452:A0 *655:112 0
25 *2452:A1 *655:112 0
26 *2453:A0 *2542:A1 9.24299e-05
27 *2453:A0 *655:38 7.50601e-05
28 *2453:A3 *655:38 5.86416e-05
29 *2453:S1 *2524:A1 0
30 *2454:A2 *2597:A1 5.03772e-05
31 *2454:A2 *655:75 0.000130058
32 *2475:A0 *655:112 7.83659e-05
33 *2475:S *2485:A1 0.000123903
34 *2475:S *655:112 5.80706e-06
35 *2485:A0 *2485:A1 0.000226507
36 *2505:A1 *2524:A1 1.24368e-05
37 *2505:A1 *655:10 5.33005e-05
38 *2524:A0 *655:38 2.56694e-05
39 *2542:A0 *2542:A1 0.000124706
40 *2561:S *2561:A1 0.00031914
41 *2588:S *655:83 2.89114e-05
42 *2597:A0 *655:62 4.06782e-05
43 *2597:S *2485:A1 0
44 *2597:S *655:62 1.52978e-05
45 *2597:S *655:75 0
46 *2597:S *655:112 0
47 *2630:D *655:83 0.000173492
48 *2630:D *655:112 0
49 *2654:D *2524:A1 9.83442e-05
50 *2670:D *2524:A1 0
51 *2694:D *2561:A1 6.8646e-06
52 *2718:D *655:62 0
53 *2727:D *655:92 1.92789e-05
54 *2784:D *655:75 3.34672e-05
55 *2792:D *2614:A1 0.000139913
56 *2848:A *655:62 0
57 *2971:A *655:10 0.000137983
58 *2971:A *655:36 8.46829e-05
59 *2993:A *655:38 5.86416e-05
60 *2993:A *655:62 5.97719e-05
61 *310:22 *2505:A0 5.04579e-06
62 *310:22 *2524:A1 0.000272422
63 *310:22 *655:10 9.05667e-05
64 *332:80 *2561:A1 0
65 *332:92 *2524:A1 0.000228931
66 *334:80 *2542:A1 5.62995e-05
67 *334:80 *655:62 0
68 *334:93 *2542:A1 7.43578e-06
69 *346:29 *655:83 2.95848e-05
70 *346:33 *2561:A1 5.52302e-05
71 *346:33 *655:83 4.25396e-05
72 *346:33 *655:92 0.000659725
73 *346:37 *2561:A1 0.000123912
74 *346:71 *2524:A1 0
75 *412:6 *655:83 0.000186662
76 *492:12 *2614:A1 0.000183726
77 *595:12 *2542:A1 0.000145724
78 *595:12 *655:38 5.2514e-05
*RES
1 *2847:X *655:4 9.3 
2 *655:4 *655:10 3.55357 
3 *655:10 *2524:A1 26.8357 
4 *655:10 *2505:A0 9.72857 
5 *655:4 *655:36 5.44643 
6 *655:36 *655:38 5.28571 
7 *655:38 *2542:A1 19.7286 
8 *655:38 *2614:A1 17.2107 
9 *655:36 *655:62 18.5893 
10 *655:62 *2597:A1 10.2464 
11 *655:62 *655:75 10.75 
12 *655:75 *655:83 14.9286 
13 *655:83 *2588:A1 9.3 
14 *655:83 *655:92 6.71429 
15 *655:92 *2561:A1 26.2464 
16 *655:92 *2552:A0 9.3 
17 *655:75 *655:112 3.46429 
18 *655:112 *2475:A1 13.8 
19 *655:112 *2485:A1 23.3536 
*END

*D_NET *656 0.00749275
*CONN
*I *2495:A1 I *D sky130_fd_sc_hd__mux2_1
*I *2605:A0 I *D sky130_fd_sc_hd__mux2_1
*I *2533:A1 I *D sky130_fd_sc_hd__mux2_1
*I *2515:A1 I *D sky130_fd_sc_hd__mux2_1
*I *2570:A1 I *D sky130_fd_sc_hd__mux2_1
*I *2579:A0 I *D sky130_fd_sc_hd__mux2_1
*I *2848:X O *D sky130_fd_sc_hd__buf_1
*CAP
1 *2495:A1 0.000621641
2 *2605:A0 0.000323594
3 *2533:A1 0
4 *2515:A1 0.000187381
5 *2570:A1 6.40371e-05
6 *2579:A0 0.000122564
7 *2848:X 0
8 *656:56 0.00108643
9 *656:32 0.000396163
10 *656:23 0.000332947
11 *656:19 0.000514131
12 *656:4 0.000435372
13 *2451:A0 *2515:A1 0.000188793
14 *2451:A2 *656:23 5.41794e-05
15 *2452:A2 *2495:A1 1.14548e-05
16 *2452:A3 *2495:A1 7.83659e-05
17 *2454:A0 *656:23 0.000171375
18 *2454:A0 *656:56 0.00041107
19 *2454:A1 *2579:A0 0.000106507
20 *2454:A2 *2605:A0 0.000255905
21 *2454:A3 *2495:A1 2.89114e-05
22 *2515:A0 *2515:A1 5.71472e-05
23 *2515:S *2515:A1 0
24 *2533:A0 *656:32 5.52238e-05
25 *2570:S *2515:A1 0.000125724
26 *2570:S *2570:A1 5.33005e-05
27 *2570:S *656:32 0.000614033
28 *2577:S *2515:A1 0.000194662
29 *2678:D *2515:A1 6.74815e-05
30 *2678:D *656:32 7.48091e-05
31 *2848:A *2579:A0 0.000108747
32 *2880:A *2495:A1 8.87691e-05
33 *2880:A *656:56 3.57844e-05
34 *2924:A *656:23 0.000117196
35 *2924:A *656:56 3.34366e-05
36 *354:38 *2515:A1 0
37 *436:8 *2570:A1 4.72818e-05
38 *641:40 *2495:A1 4.87953e-05
39 *641:42 *2495:A1 9.99989e-05
40 *641:42 *656:56 0.000246076
41 *641:110 *2495:A1 3.34687e-05
42 *645:121 *2515:A1 0
*RES
1 *2848:X *656:4 9.3 
2 *656:4 *2579:A0 22.0679 
3 *656:4 *656:19 8.73214 
4 *656:19 *656:23 6.75 
5 *656:23 *2570:A1 10.6571 
6 *656:23 *656:32 5.875 
7 *656:32 *2515:A1 24.1036 
8 *656:32 *2533:A1 9.3 
9 *656:19 *656:56 6.19643 
10 *656:56 *2605:A0 18.0321 
11 *656:56 *2495:A1 24.4071 
*END

*D_NET *657 0.0157854
*CONN
*I *2484:A1 I *D sky130_fd_sc_hd__mux2_1
*I *2474:A1 I *D sky130_fd_sc_hd__mux2_1
*I *2532:A1 I *D sky130_fd_sc_hd__mux2_1
*I *2569:A1 I *D sky130_fd_sc_hd__mux2_1
*I *2578:A0 I *D sky130_fd_sc_hd__mux2_1
*I *2514:A1 I *D sky130_fd_sc_hd__mux2_1
*I *2613:A1 I *D sky130_fd_sc_hd__mux2_1
*I *2523:A1 I *D sky130_fd_sc_hd__mux2_1
*I *2541:A1 I *D sky130_fd_sc_hd__mux2_1
*I *2504:A0 I *D sky130_fd_sc_hd__mux2_1
*I *2849:X O *D sky130_fd_sc_hd__clkbuf_2
*CAP
1 *2484:A1 0
2 *2474:A1 0.000520689
3 *2532:A1 0.000646902
4 *2569:A1 0.000136796
5 *2578:A0 2.76349e-05
6 *2514:A1 0.000275159
7 *2613:A1 0
8 *2523:A1 0.000452725
9 *2541:A1 4.26984e-05
10 *2504:A0 0.000367671
11 *2849:X 0.000240483
12 *657:104 0.00109276
13 *657:84 0.000783698
14 *657:82 0.000717964
15 *657:71 0.000390197
16 *657:60 0.000694087
17 *657:34 0.000737693
18 *657:32 0.000799975
19 *657:19 0.000462971
20 *657:8 0.000715675
21 *2474:A1 *2484:A0 0.000243627
22 *2444:A0 *657:104 3.38229e-05
23 *2444:A2 *657:104 0.000197977
24 *2444:S1 *657:104 0
25 *2447:A3 *657:32 3.90513e-05
26 *2484:S *2474:A1 0.000243627
27 *2504:A1 *2504:A0 0.000125057
28 *2504:S *657:19 0
29 *2504:S *657:32 0
30 *2514:A0 *2514:A1 5.71472e-05
31 *2523:A0 *2523:A1 5.12869e-05
32 *2523:S *2523:A1 1.74352e-05
33 *2532:A0 *2532:A1 5.71472e-05
34 *2532:S *2532:A1 6.12434e-05
35 *2569:A0 *2569:A1 0.000184745
36 *2596:A0 *657:104 7.83462e-05
37 *2613:A0 *2523:A1 2.89114e-05
38 *2613:A0 *657:34 9.47613e-05
39 *2613:S *2523:A1 6.4443e-05
40 *2637:CLK *2474:A1 0.000348213
41 *2661:CLK *2532:A1 0.000163455
42 *2661:CLK *2569:A1 0.000184745
43 *2661:D *2532:A1 0.000144186
44 *2685:D *657:32 0
45 *2791:D *2523:A1 0.00020112
46 *2797:A *657:104 0.000270236
47 *2849:A *657:8 5.52238e-05
48 *2850:A *657:32 0
49 *2850:A *657:60 7.60306e-05
50 *2850:A *657:71 0.000193175
51 *2850:A *657:82 9.9784e-05
52 *2876:A *2532:A1 1.65169e-05
53 *2896:A *657:19 0.000151333
54 *2896:A *657:32 0.000126439
55 *2952:A *2523:A1 0
56 *2985:A *657:34 7.65689e-05
57 *2985:A *657:60 1.56e-05
58 *323:32 *2474:A1 5.23142e-05
59 *331:110 *2514:A1 0.000330013
60 *338:32 *2569:A1 4.43256e-05
61 *338:32 *657:82 5.41794e-05
62 *338:32 *657:104 0.00130563
63 *345:128 *657:104 0.000150625
64 *347:47 *657:104 0
65 *347:49 *657:82 0
66 *347:51 *657:71 0
67 *347:55 *657:32 0.000437941
68 *347:55 *657:60 0
69 *347:55 *657:71 0
70 *348:38 *657:104 0.000221641
71 *379:10 *2523:A1 0
72 *411:12 *657:104 0.000157327
73 *427:10 *2532:A1 3.30237e-05
74 *435:6 *2578:A0 2.89114e-05
75 *467:10 *657:104 0.000123295
76 *491:10 *657:32 0
77 *633:34 *2474:A1 3.91002e-05
*RES
1 *2849:X *657:8 12.3179 
2 *657:8 *2504:A0 13.9429 
3 *657:8 *657:19 6.44643 
4 *657:19 *2541:A1 14.3357 
5 *657:19 *657:32 12.5179 
6 *657:32 *657:34 3.82143 
7 *657:34 *2523:A1 25.9071 
8 *657:34 *2613:A1 9.3 
9 *657:32 *657:60 7.80357 
10 *657:60 *2514:A1 20.0857 
11 *657:60 *657:71 4.67857 
12 *657:71 *2578:A0 14.3357 
13 *657:71 *657:82 3.16071 
14 *657:82 *657:84 4.5 
15 *657:84 *2569:A1 12.7107 
16 *657:84 *2532:A1 19.6929 
17 *657:82 *657:104 23.5 
18 *657:104 *2474:A1 27.3357 
19 *657:104 *2484:A1 9.3 
*END

*D_NET *658 0.00937594
*CONN
*I *2494:A1 I *D sky130_fd_sc_hd__mux2_1
*I *2604:A0 I *D sky130_fd_sc_hd__mux2_1
*I *2587:A1 I *D sky130_fd_sc_hd__mux2_1
*I *2560:A1 I *D sky130_fd_sc_hd__mux2_1
*I *2551:A0 I *D sky130_fd_sc_hd__mux2_1
*I *2596:A1 I *D sky130_fd_sc_hd__mux2_1
*I *2850:X O *D sky130_fd_sc_hd__buf_1
*CAP
1 *2494:A1 0.000347565
2 *2604:A0 0.000158115
3 *2587:A1 0.000206348
4 *2560:A1 0
5 *2551:A0 0.000575908
6 *2596:A1 0.000307176
7 *2850:X 0
8 *658:60 0.000622323
9 *658:51 0.000702676
10 *658:25 0.000808234
11 *658:10 0.000845282
12 *658:4 0.000685465
13 *2596:A1 *678:12 5.52302e-05
14 *2443:A0 *2551:A0 8.50152e-05
15 *2443:A0 *2596:A1 0
16 *2444:S0 *658:10 0
17 *2447:S0 *2596:A1 0
18 *2448:A0 *658:51 0.000142856
19 *2448:A1 *658:51 8.86512e-05
20 *2560:A0 *2551:A0 5.71472e-05
21 *2560:A0 *658:25 0.000356028
22 *2560:S *2551:A0 1.5424e-05
23 *2586:S *2551:A0 7.08001e-05
24 *2587:A0 *658:10 0.000479652
25 *2587:A0 *658:51 5.52302e-05
26 *2587:S *2587:A1 3.18676e-05
27 *2596:S *2596:A1 0.000155149
28 *2596:S *658:10 4.18845e-05
29 *2645:CLK *2494:A1 9.90367e-05
30 *2645:D *2494:A1 0.000172899
31 *2693:D *2551:A0 0
32 *2701:D *2551:A0 5.80706e-06
33 *2850:A *658:10 2.59355e-05
34 *2964:A *658:51 0.000104246
35 *331:102 *2604:A0 0.000606632
36 *340:24 *2551:A0 0.000114642
37 *341:105 *658:10 1.21955e-05
38 *395:8 *2587:A1 1.92789e-05
39 *634:78 *2551:A0 0.000114111
40 *637:62 *2604:A0 0.000606632
41 *637:62 *658:51 0.000118015
42 *637:90 *658:10 0.000426267
43 *637:90 *658:51 5.62125e-05
44 *647:67 *658:51 0
*RES
1 *2850:X *658:4 9.3 
2 *658:4 *658:10 12.5357 
3 *658:10 *2596:A1 19.3179 
4 *658:10 *658:25 7.91071 
5 *658:25 *2551:A0 29.8 
6 *658:25 *2560:A1 9.3 
7 *658:4 *658:51 17.6071 
8 *658:51 *2587:A1 12.7107 
9 *658:51 *658:60 1.76786 
10 *658:60 *2604:A0 26.0143 
11 *658:60 *2494:A1 15.175 
*END

*D_NET *659 0.017185
*CONN
*I *2483:A1 I *D sky130_fd_sc_hd__mux2_1
*I *2473:A1 I *D sky130_fd_sc_hd__mux2_1
*I *2577:A0 I *D sky130_fd_sc_hd__mux2_1
*I *2568:A1 I *D sky130_fd_sc_hd__mux2_1
*I *2531:A1 I *D sky130_fd_sc_hd__mux2_1
*I *2513:A1 I *D sky130_fd_sc_hd__mux2_1
*I *2612:A1 I *D sky130_fd_sc_hd__mux2_1
*I *2503:A0 I *D sky130_fd_sc_hd__mux2_1
*I *2522:A1 I *D sky130_fd_sc_hd__mux2_1
*I *2540:A1 I *D sky130_fd_sc_hd__mux2_1
*I *2851:X O *D sky130_fd_sc_hd__clkbuf_2
*CAP
1 *2483:A1 0.000139181
2 *2473:A1 0.000309348
3 *2577:A0 9.26863e-05
4 *2568:A1 8.10178e-05
5 *2531:A1 0.000330097
6 *2513:A1 0
7 *2612:A1 0.000159709
8 *2503:A0 0
9 *2522:A1 0.000161644
10 *2540:A1 0.000642061
11 *2851:X 3.68998e-05
12 *659:116 0.00183874
13 *659:95 0.0015276
14 *659:84 0.000364375
15 *659:62 0.000816047
16 *659:58 0.000882924
17 *659:33 0.000251748
18 *659:31 0.000249813
19 *659:29 0.000281172
20 *659:8 0.000801821
21 *2483:A1 *2483:A0 2.89114e-05
22 *2531:A1 *2531:A0 5.52238e-05
23 *2540:A1 *2540:A0 5.52238e-05
24 *659:116 *2493:A1 9.69789e-05
25 *659:116 *2624:RESET_B 0
26 *659:116 *661:60 2.00751e-05
27 *2438:A3 *659:116 2.86824e-05
28 *2439:A1 *2531:A1 5.52302e-05
29 *2439:A2 *659:116 4.11196e-05
30 *2440:A2 *2473:A1 0.000186662
31 *2440:A2 *2483:A1 8.46829e-05
32 *2440:A2 *659:116 7.15687e-05
33 *2441:S1 *659:29 0
34 *2441:S1 *659:58 0
35 *2441:S1 *659:84 0
36 *2467:S *2473:A1 0
37 *2473:A0 *2473:A1 7.83587e-05
38 *2503:S *659:58 7.50601e-05
39 *2523:S *2522:A1 0.000158981
40 *2523:S *2612:A1 0.0002688
41 *2523:S *659:33 9.47028e-05
42 *2550:S *659:116 7.07155e-06
43 *2559:A0 *659:116 7.83587e-05
44 *2559:S *659:116 1.97253e-05
45 *2577:A1 *659:116 0
46 *2577:S *2568:A1 0.00053128
47 *2612:A0 *2612:A1 2.89016e-05
48 *2613:S *2531:A1 5.33433e-05
49 *2614:S *659:8 2.59355e-05
50 *2636:CLK *659:116 0.000211913
51 *2636:D *659:116 6.19181e-05
52 *2660:D *2531:A1 5.52238e-05
53 *2676:D *2531:A1 7.83366e-05
54 *2716:D *659:84 0.00017309
55 *2790:D *2540:A1 0.000147136
56 *2790:D *659:29 2.22371e-05
57 *2852:A *659:116 0
58 *2891:A *659:62 7.02611e-05
59 *2918:A *2531:A1 0.000313241
60 *2989:A *659:116 4.38511e-05
61 *3033:A *2540:A1 0.000364967
62 *3033:A *659:29 8.60205e-05
63 *3033:A *659:58 0
64 *3033:A *659:84 0
65 *3033:A *659:95 0
66 *3033:A *659:116 0
67 *329:107 *2531:A1 5.90322e-05
68 *329:111 *2531:A1 6.25878e-05
69 *329:111 *659:62 0.000318838
70 *331:80 *2473:A1 0.000148189
71 *332:92 *2522:A1 5.71472e-05
72 *334:93 *2540:A1 0.000654138
73 *338:44 *2531:A1 7.65719e-05
74 *338:44 *2568:A1 0.00053128
75 *338:44 *2577:A0 0.000142856
76 *342:77 *2531:A1 0.000111581
77 *345:22 *659:116 0
78 *355:8 *659:116 0.00019187
79 *355:10 *659:116 5.83304e-05
80 *355:45 *659:116 0.000192585
81 *355:56 *659:116 0.000193592
82 *355:67 *659:116 0.000210198
83 *370:12 *2531:A1 0.000125731
84 *410:12 *2473:A1 0.00022459
85 *630:10 *659:116 0
86 *632:14 *2473:A1 9.41642e-05
87 *633:50 *659:116 0.000991729
88 *639:105 *659:116 0
89 *641:143 *659:116 0
*RES
1 *2851:X *659:8 14.3357 
2 *659:8 *2540:A1 26.9607 
3 *659:8 *659:29 2.60714 
4 *659:29 *659:31 4.5 
5 *659:31 *659:33 1.76786 
6 *659:33 *2522:A1 12.7107 
7 *659:33 *2503:A0 9.3 
8 *659:31 *2612:A1 13.2643 
9 *659:29 *659:58 3.16071 
10 *659:58 *659:62 13.6607 
11 *659:62 *2513:A1 9.3 
12 *659:62 *2531:A1 28.2643 
13 *659:58 *659:84 4.67857 
14 *659:84 *2568:A1 18.8536 
15 *659:84 *659:95 0.732143 
16 *659:95 *2577:A0 15.1571 
17 *659:95 *659:116 45.6607 
18 *659:116 *2473:A1 25.3 
19 *659:116 *2483:A1 11.8893 
*END

*D_NET *660 0.000766445
*CONN
*I *2297:A I *D sky130_fd_sc_hd__inv_2
*I *3020:X O *D sky130_fd_sc_hd__clkbuf_1
*CAP
1 *2297:A 0.000318679
2 *3020:X 0.000318679
3 *2297:A *2295:A 0
4 *2297:A *2296:A 0.000129086
*RES
1 *3020:X *2297:A 33.3321 
*END

*D_NET *661 0.00941111
*CONN
*I *2493:A1 I *D sky130_fd_sc_hd__mux2_1
*I *2603:A0 I *D sky130_fd_sc_hd__mux2_1
*I *2550:A0 I *D sky130_fd_sc_hd__mux2_1
*I *2586:A1 I *D sky130_fd_sc_hd__mux2_1
*I *2595:A1 I *D sky130_fd_sc_hd__mux2_1
*I *2559:A1 I *D sky130_fd_sc_hd__mux2_1
*I *2852:X O *D sky130_fd_sc_hd__buf_1
*CAP
1 *2493:A1 0.000798206
2 *2603:A0 0
3 *2550:A0 5.1491e-05
4 *2586:A1 0.000171385
5 *2595:A1 0
6 *2559:A1 3.63998e-05
7 *2852:X 3.86359e-05
8 *661:60 0.00113797
9 *661:47 0.000631445
10 *661:31 0.00106414
11 *661:16 0.00107653
12 *661:10 0.000426196
13 *2493:A1 *2493:A0 2.89016e-05
14 *2586:A1 *2595:A0 0.000399848
15 *661:10 *2624:RESET_B 5.15925e-05
16 *661:47 *2624:RESET_B 0.000522955
17 *2467:S *661:47 0
18 *2493:S *2493:A1 1.97695e-05
19 *2550:S *661:60 2.32517e-05
20 *2586:A0 *2586:A1 5.52302e-05
21 *2603:A1 *661:60 0.000128154
22 *2636:CLK *2493:A1 4.02207e-05
23 *2636:D *2493:A1 7.01199e-06
24 *2700:D *661:16 2.59355e-05
25 *2700:D *661:47 9.91086e-05
26 *2804:A *2550:A0 9.71197e-05
27 *2804:A *661:60 0.000272349
28 *2983:A *661:47 0.000104236
29 *297:24 *661:31 5.92605e-05
30 *299:16 *661:31 9.047e-05
31 *342:75 *661:31 0.000183364
32 *345:22 *2493:A1 0.000146395
33 *345:22 *661:60 0.000162963
34 *345:24 *661:60 5.10822e-05
35 *402:8 *2493:A1 5.80423e-05
36 *633:50 *661:60 0.000259227
37 *639:73 *661:31 5.30637e-06
38 *639:105 *661:10 5.52238e-05
39 *639:105 *661:16 0.000312215
40 *639:105 *661:31 0.000497553
41 *645:18 *661:10 8.34186e-05
42 *645:18 *661:47 2.14378e-05
43 *659:116 *2493:A1 9.69789e-05
44 *659:116 *661:60 2.00751e-05
*RES
1 *2852:X *661:10 15.0679 
2 *661:10 *661:16 8.23214 
3 *661:16 *2559:A1 9.83571 
4 *661:16 *661:31 22.8393 
5 *661:31 *2595:A1 9.3 
6 *661:31 *2586:A1 13.1214 
7 *661:10 *661:47 11.3036 
8 *661:47 *2550:A0 10.2464 
9 *661:47 *661:60 15 
10 *661:60 *2603:A0 13.8 
11 *661:60 *2493:A1 26.4786 
*END

*D_NET *662 0.0131168
*CONN
*I *2549:A0 I *D sky130_fd_sc_hd__mux2_1
*I *2558:A1 I *D sky130_fd_sc_hd__mux2_1
*I *2611:A1 I *D sky130_fd_sc_hd__mux2_1
*I *2472:A1 I *D sky130_fd_sc_hd__mux2_1
*I *2594:A1 I *D sky130_fd_sc_hd__mux2_1
*I *2482:A1 I *D sky130_fd_sc_hd__mux2_1
*I *2539:A1 I *D sky130_fd_sc_hd__mux2_1
*I *2585:A1 I *D sky130_fd_sc_hd__mux2_1
*I *2521:A1 I *D sky130_fd_sc_hd__mux2_1
*I *2502:A0 I *D sky130_fd_sc_hd__mux2_1
*I *2853:X O *D sky130_fd_sc_hd__clkbuf_2
*CAP
1 *2549:A0 0.00039345
2 *2558:A1 0.000353458
3 *2611:A1 0
4 *2472:A1 4.73285e-05
5 *2594:A1 0.000414119
6 *2482:A1 0.000361729
7 *2539:A1 0.00018435
8 *2585:A1 0
9 *2521:A1 1.99857e-05
10 *2502:A0 0.000198608
11 *2853:X 0.000144924
12 *662:120 0.000934716
13 *662:76 0.000896514
14 *662:74 0.000529896
15 *662:55 0.00083653
16 *662:48 0.000483013
17 *662:40 0.000817619
18 *662:25 0.00068177
19 *662:21 0.00028347
20 *662:8 0.000402294
21 *2434:A0 *2482:A1 0.000137983
22 *2502:A1 *2502:A0 3.69047e-06
23 *2521:A0 *662:40 3.97657e-05
24 *2521:S *2521:A1 1.04232e-05
25 *2521:S *662:40 2.28598e-05
26 *2539:A0 *2539:A1 1.87004e-05
27 *2549:A1 *2549:A0 7.43578e-06
28 *2549:S *2549:A0 5.33433e-05
29 *2611:A0 *2539:A1 0.000153047
30 *2611:A0 *662:40 5.65955e-05
31 *2627:D *662:76 0.000295844
32 *2635:CLK *2472:A1 5.71472e-05
33 *2691:D *2549:A0 8.16036e-05
34 *2699:D *2558:A1 8.90314e-05
35 *2724:CLK *2594:A1 9.05414e-05
36 *2853:A *662:120 0
37 *3030:A *2472:A1 5.52302e-05
38 *292:16 *2482:A1 0.000257772
39 *323:114 *2472:A1 5.41797e-06
40 *323:114 *2594:A1 6.95205e-05
41 *323:114 *662:76 0.00011716
42 *323:120 *2472:A1 4.46186e-06
43 *323:120 *662:74 0
44 *325:93 *2482:A1 9.71197e-05
45 *329:48 *2549:A0 0
46 *329:48 *662:120 0
47 *332:52 *2549:A0 0.000148714
48 *332:52 *662:25 2.59355e-05
49 *332:52 *662:40 6.05161e-06
50 *332:52 *662:120 0.000317609
51 *332:70 *2502:A0 0.000396762
52 *332:70 *662:21 0.000201127
53 *332:70 *662:120 8.08022e-05
54 *334:66 *662:74 0
55 *336:81 *2502:A0 0.000141897
56 *336:81 *662:21 7.39637e-05
57 *336:81 *662:120 1.5942e-05
58 *337:107 *662:48 0
59 *340:110 *2539:A1 0
60 *341:59 *2539:A1 0.000457248
61 *342:36 *662:48 3.63281e-05
62 *356:12 *2594:A1 6.04162e-05
63 *356:14 *2594:A1 7.79781e-06
64 *356:20 *662:74 2.39923e-05
65 *356:20 *662:76 7.47029e-06
66 *356:24 *662:74 5.41794e-05
67 *356:117 *2558:A1 5.56855e-05
68 *356:157 *2594:A1 5.33334e-05
69 *385:8 *662:8 3.18676e-05
70 *465:18 *2549:A0 8.65429e-05
71 *489:12 *2539:A1 6.19181e-05
72 *562:29 *662:48 0.000180251
73 *562:29 *662:55 0.000440814
74 *562:29 *662:74 0.000441724
*RES
1 *2853:X *662:8 15.9786 
2 *662:8 *2502:A0 19.3179 
3 *662:8 *662:21 2.55357 
4 *662:21 *662:25 5.03571 
5 *662:25 *2521:A1 9.72857 
6 *662:25 *662:40 9.92857 
7 *662:40 *662:48 11.8036 
8 *662:48 *2585:A1 9.3 
9 *662:48 *662:55 4.23214 
10 *662:55 *2539:A1 24.1929 
11 *662:55 *662:74 10.4554 
12 *662:74 *662:76 4.22321 
13 *662:76 *2482:A1 21.7464 
14 *662:76 *2594:A1 21.425 
15 *662:74 *2472:A1 15.1482 
16 *662:40 *2611:A1 9.3 
17 *662:21 *662:120 4.67857 
18 *662:120 *2558:A1 18.7643 
19 *662:120 *2549:A0 21.7107 
*END

*D_NET *663 0.0104161
*CONN
*I *2492:A1 I *D sky130_fd_sc_hd__mux2_1
*I *2576:A0 I *D sky130_fd_sc_hd__mux2_1
*I *2530:A1 I *D sky130_fd_sc_hd__mux2_1
*I *2567:A1 I *D sky130_fd_sc_hd__mux2_1
*I *2512:A1 I *D sky130_fd_sc_hd__mux2_1
*I *2602:A0 I *D sky130_fd_sc_hd__mux2_1
*I *2854:X O *D sky130_fd_sc_hd__buf_1
*CAP
1 *2492:A1 0
2 *2576:A0 0.000111076
3 *2530:A1 0.000629461
4 *2567:A1 0
5 *2512:A1 0.000144912
6 *2602:A0 0.000517707
7 *2854:X 0.000496147
8 *663:43 0.000284643
9 *663:37 0.000951071
10 *663:33 0.000631805
11 *663:16 0.00117741
12 *663:10 0.000816996
13 *2512:A1 *2567:A0 0.000309266
14 *663:43 *2567:A0 2.44318e-05
15 *2433:A0 *2530:A1 0.000146474
16 *2433:A3 *2576:A0 1.98839e-05
17 *2433:A3 *663:33 0.000143557
18 *2433:A3 *663:37 0.000146474
19 *2436:A3 *663:16 5.01213e-05
20 *2460:S1 *663:10 0
21 *2482:A0 *2602:A0 0.00014183
22 *2492:A0 *663:10 0.000145753
23 *2492:A0 *663:16 1.02504e-05
24 *2576:A1 *2576:A0 2.77258e-05
25 *2675:D *2530:A1 0.000276369
26 *2707:D *663:43 0
27 *2922:A *2602:A0 0.000359997
28 *28:17 *2530:A1 0.000494494
29 *327:65 *663:10 2.31791e-05
30 *327:65 *663:16 0.00022898
31 *331:56 *2512:A1 8.76257e-05
32 *331:80 *2512:A1 5.52302e-05
33 *333:74 *2530:A1 6.05161e-06
34 *338:109 *663:37 0.000135549
35 *338:109 *663:43 0.000117144
36 *338:123 *663:43 4.46186e-06
37 *339:32 *663:16 0.00016971
38 *339:32 *663:33 0.000367396
39 *339:40 *663:37 0
40 *339:40 *663:43 0
41 *358:26 *663:37 0.000263663
42 *626:20 *663:10 1.17968e-05
43 *633:129 *2602:A0 0.000285837
44 *637:125 *663:16 0.000177948
45 *637:125 *663:33 0.00020103
46 *650:66 *2530:A1 0.00022266
47 *650:84 *2530:A1 0
*RES
1 *2854:X *663:10 20.3893 
2 *663:10 *663:16 7.875 
3 *663:16 *2602:A0 23.7821 
4 *663:16 *663:33 12.3036 
5 *663:33 *663:37 9.78571 
6 *663:37 *663:43 7.89286 
7 *663:43 *2512:A1 13.1393 
8 *663:43 *2567:A1 9.3 
9 *663:37 *2530:A1 36.2286 
10 *663:33 *2576:A0 10.6571 
11 *663:10 *2492:A1 13.8 
*END

*D_NET *664 0.0134871
*CONN
*I *2593:A1 I *D sky130_fd_sc_hd__mux2_1
*I *2501:A0 I *D sky130_fd_sc_hd__mux2_1
*I *2481:A1 I *D sky130_fd_sc_hd__mux2_1
*I *2471:A1 I *D sky130_fd_sc_hd__mux2_1
*I *2538:A1 I *D sky130_fd_sc_hd__mux2_1
*I *2520:A1 I *D sky130_fd_sc_hd__mux2_1
*I *2610:A1 I *D sky130_fd_sc_hd__mux2_1
*I *2584:A1 I *D sky130_fd_sc_hd__mux2_1
*I *2548:A0 I *D sky130_fd_sc_hd__mux2_1
*I *2557:A1 I *D sky130_fd_sc_hd__mux2_1
*I *2855:X O *D sky130_fd_sc_hd__clkbuf_2
*CAP
1 *2593:A1 0.000261775
2 *2501:A0 0.000553918
3 *2481:A1 0.000154764
4 *2471:A1 0
5 *2538:A1 0
6 *2520:A1 0.000622411
7 *2610:A1 0.00013709
8 *2584:A1 0.000239506
9 *2548:A0 0
10 *2557:A1 0.000283081
11 *2855:X 0
12 *664:82 0.00114548
13 *664:56 0.00161313
14 *664:54 0.00086105
15 *664:43 0.000684454
16 *664:28 0.000690038
17 *664:14 0.000754519
18 *664:10 0.000824442
19 *664:4 0.00040448
20 *2481:A1 *2471:A0 0.000250061
21 *664:82 *2471:A0 5.52238e-05
22 *2424:A2 *664:10 7.6644e-05
23 *2424:A2 *664:14 1.59935e-05
24 *2424:A2 *664:28 4.73656e-05
25 *2424:A3 *664:14 0.000138389
26 *2424:A3 *664:28 0
27 *2428:A1 *2520:A1 3.14163e-05
28 *2428:A2 *664:54 2.94103e-05
29 *2429:A1 *664:82 2.23758e-05
30 *2520:A0 *2520:A1 9.80173e-05
31 *2538:A0 *2501:A0 7.83587e-05
32 *2538:S *2501:A0 9.22948e-05
33 *2538:S *664:54 5.83233e-05
34 *2548:A1 *2557:A1 3.4879e-05
35 *2548:A1 *664:14 1.92789e-05
36 *2557:A0 *2557:A1 0.000230475
37 *2584:A0 *2584:A1 5.71472e-05
38 *2593:S *2593:A1 9.60939e-05
39 *2610:A0 *2610:A1 0.000318101
40 *2682:D *664:54 0.000163038
41 *2723:D *2593:A1 7.43578e-06
42 *2723:D *664:10 0.000111242
43 *2723:D *664:28 0.000140321
44 *2788:D *2520:A1 0.000185057
45 *2811:A *664:28 0
46 *2898:A *664:54 2.28159e-05
47 *2953:A *2501:A0 2.89114e-05
48 *2987:A *2520:A1 6.09773e-05
49 *2987:A *664:82 8.10731e-05
50 *264:20 *664:43 0
51 *264:20 *664:54 0
52 *323:20 *2481:A1 0.000377935
53 *323:32 *2481:A1 5.33005e-05
54 *323:32 *664:82 0.000223559
55 *325:34 *2481:A1 1.08359e-05
56 *329:96 *2501:A0 3.47797e-05
57 *329:105 *2501:A0 1.58163e-05
58 *329:107 *664:10 0
59 *333:46 *2481:A1 9.67416e-05
60 *340:16 *2501:A0 7.80714e-06
61 *340:16 *664:43 0.000124342
62 *340:16 *664:54 0.000120219
63 *340:24 *664:10 0
64 *345:12 *2584:A1 0.000244495
65 *361:10 *664:28 0
66 *361:10 *664:43 0
67 *384:10 *664:54 6.44449e-05
68 *408:6 *664:82 1.98839e-05
69 *456:10 *2593:A1 0.000128886
70 *634:176 *2501:A0 3.3824e-05
71 *642:54 *664:28 6.9253e-05
72 *642:64 *664:10 2.16719e-05
73 *644:82 *664:54 5.84267e-05
*RES
1 *2855:X *664:4 9.3 
2 *664:4 *664:10 7.80357 
3 *664:10 *664:14 10.375 
4 *664:14 *2557:A1 13.1214 
5 *664:14 *2548:A0 9.3 
6 *664:10 *664:28 5.28571 
7 *664:28 *2584:A1 17.7643 
8 *664:28 *664:43 4.98214 
9 *664:43 *2610:A1 16.8 
10 *664:43 *664:54 8.32143 
11 *664:54 *664:56 4.5 
12 *664:56 *2520:A1 18.8714 
13 *664:56 *2538:A1 9.3 
14 *664:56 *664:82 22.5357 
15 *664:82 *2471:A1 9.3 
16 *664:82 *2481:A1 23.4429 
17 *664:54 *2501:A0 21.0143 
18 *664:4 *2593:A1 14.3536 
*END

*D_NET *665 0.0100425
*CONN
*I *2529:A1 I *D sky130_fd_sc_hd__mux2_1
*I *2601:A0 I *D sky130_fd_sc_hd__mux2_1
*I *2491:A1 I *D sky130_fd_sc_hd__mux2_1
*I *2511:A1 I *D sky130_fd_sc_hd__mux2_1
*I *2575:A0 I *D sky130_fd_sc_hd__mux2_1
*I *2566:A1 I *D sky130_fd_sc_hd__mux2_1
*I *2856:X O *D sky130_fd_sc_hd__buf_1
*CAP
1 *2529:A1 0.00011278
2 *2601:A0 0.000472976
3 *2491:A1 0
4 *2511:A1 3.34369e-05
5 *2575:A0 7.05542e-05
6 *2566:A1 0.000264337
7 *2856:X 0.000148237
8 *665:57 0.000782648
9 *665:46 0.00056474
10 *665:12 0.000365199
11 *665:10 0.000629751
12 *665:6 0.000638829
13 *2511:A1 *2511:A0 2.59355e-05
14 *2566:A1 *2566:A0 0.000178847
15 *2575:A0 *2566:A0 0.000109912
16 *2601:A0 *670:64 0.000363764
17 *2424:S0 *2566:A1 5.1588e-05
18 *2425:A1 *2529:A1 6.20855e-06
19 *2425:A3 *2566:A1 2.70271e-05
20 *2426:A0 *2529:A1 0.000191629
21 *2529:S *2529:A1 1.02504e-05
22 *2575:A1 *2511:A1 7.43578e-06
23 *2575:A1 *2575:A0 3.52793e-05
24 *2575:A1 *665:12 1.08601e-05
25 *2575:A1 *665:46 0.00010689
26 *2601:S *2601:A0 0.000655802
27 *2658:D *665:46 0.000100831
28 *2770:CLK *2601:A0 0.000573188
29 *2770:CLK *665:57 0.000382573
30 *2871:A *2601:A0 0.000227539
31 *2878:A *2601:A0 9.41642e-05
32 *2958:A *2575:A0 6.84283e-05
33 *2958:A *665:6 8.36572e-05
34 *2958:A *665:10 0.00051756
35 *327:99 *2601:A0 0.000771165
36 *327:99 *665:57 3.34366e-05
37 *327:103 *665:46 0
38 *327:103 *665:57 0.000373107
39 *331:50 *665:57 0.000123889
40 *331:94 *2511:A1 9.71197e-05
41 *333:98 *2529:A1 0.000260297
42 *338:22 *2566:A1 2.64856e-05
43 *338:22 *665:12 8.51637e-06
44 *338:22 *665:46 0.000114557
45 *338:22 *665:57 0
46 *339:134 *2601:A0 0.000123067
47 *349:58 *2601:A0 0.000197977
48 *634:52 *2529:A1 0
*RES
1 *2856:X *665:6 11.0679 
2 *665:6 *665:10 9.55357 
3 *665:10 *665:12 0.580357 
4 *665:12 *2566:A1 17.7018 
5 *665:12 *2575:A0 16.4161 
6 *665:10 *665:46 5.32143 
7 *665:46 *2511:A1 14.7464 
8 *665:46 *665:57 9.83929 
9 *665:57 *2491:A1 13.8 
10 *665:57 *2601:A0 32.1214 
11 *665:6 *2529:A1 21.7643 
*END

*D_NET *666 0.014956
*CONN
*I *2480:A1 I *D sky130_fd_sc_hd__mux2_1
*I *2470:A1 I *D sky130_fd_sc_hd__mux2_1
*I *2510:A1 I *D sky130_fd_sc_hd__mux2_1
*I *2528:A1 I *D sky130_fd_sc_hd__mux2_1
*I *2574:A0 I *D sky130_fd_sc_hd__mux2_1
*I *2565:A1 I *D sky130_fd_sc_hd__mux2_1
*I *2592:A1 I *D sky130_fd_sc_hd__mux2_1
*I *2583:A1 I *D sky130_fd_sc_hd__mux2_1
*I *2556:A1 I *D sky130_fd_sc_hd__mux2_1
*I *2547:A0 I *D sky130_fd_sc_hd__mux2_1
*I *2857:X O *D sky130_fd_sc_hd__clkbuf_2
*CAP
1 *2480:A1 0
2 *2470:A1 2.33558e-05
3 *2510:A1 0.000283687
4 *2528:A1 0
5 *2574:A0 0
6 *2565:A1 0
7 *2592:A1 0
8 *2583:A1 0
9 *2556:A1 0.000424551
10 *2547:A0 0
11 *2857:X 0.00028471
12 *666:106 0.000744995
13 *666:93 0.0007309
14 *666:86 0.000869213
15 *666:69 0.000774222
16 *666:60 0.000372492
17 *666:30 0.000528082
18 *666:28 0.000873394
19 *666:20 0.000965515
20 *666:14 0.000654898
21 *666:28 *2600:A0 0.000248331
22 *2419:A0 *666:106 0.000181796
23 *2420:A1 *666:20 0.000156679
24 *2420:A1 *666:28 2.58997e-05
25 *2460:S1 *2556:A1 0
26 *2470:A0 *666:20 7.83659e-05
27 *2480:A0 *666:14 5.62995e-05
28 *2480:A0 *666:20 1.74352e-05
29 *2480:S *666:14 1.04232e-05
30 *2509:A *2510:A1 0
31 *2528:A0 *666:106 0.000262092
32 *2547:A1 *666:69 0.000154443
33 *2547:A1 *666:86 0.000186662
34 *2556:A0 *2556:A1 0.000149652
35 *2565:S *666:86 5.71472e-05
36 *2565:S *666:93 2.14658e-05
37 *2574:A1 *666:93 3.18676e-05
38 *2574:A1 *666:106 2.89016e-05
39 *2580:S *2556:A1 0.000292693
40 *2583:S *666:28 7.75093e-05
41 *2583:S *666:60 3.94443e-05
42 *2592:A0 *666:86 6.35798e-05
43 *2633:CLK *666:20 0.0001339
44 *2633:CLK *666:28 8.30773e-05
45 *2657:CLK *2510:A1 0.000307343
46 *2673:CLK *666:106 5.52238e-05
47 *2673:D *666:106 1.76204e-05
48 *2689:CLK *2556:A1 0.000197984
49 *2705:D *666:86 1.98839e-05
50 *2779:D *666:28 0.000123743
51 *2875:A *666:86 1.98839e-05
52 *2939:A *666:28 8.24047e-05
53 *2940:A *666:106 0.000694747
54 *323:102 *2470:A1 5.52302e-05
55 *325:67 *666:14 0.000227322
56 *325:77 *666:14 2.44318e-05
57 *325:77 *666:20 0.000260976
58 *327:53 *666:28 0
59 *332:155 *666:86 0
60 *333:12 *666:106 0.000354116
61 *336:51 *666:69 2.44318e-05
62 *336:51 *666:86 1.21289e-05
63 *336:61 *666:28 7.75093e-05
64 *337:26 *666:86 0
65 *337:83 *666:86 0.000186662
66 *341:8 *666:86 0.000126566
67 *341:40 *2556:A1 0.00044366
68 *341:40 *666:30 6.57815e-05
69 *341:40 *666:60 8.35951e-05
70 *341:40 *666:69 0.000434813
71 *341:40 *666:86 5.71472e-05
72 *341:103 *2510:A1 2.34204e-05
73 *359:55 *666:86 0.00012271
74 *359:66 *666:86 0.000170654
75 *439:16 *666:93 2.15245e-05
76 *439:16 *666:106 5.45662e-05
77 *447:10 *666:86 0.000407078
78 *633:129 *666:28 0
79 *643:157 *2470:A1 1.33343e-05
80 *643:157 *666:28 0.000270243
81 *648:117 *666:106 3.16135e-05
*RES
1 *2857:X *666:14 24.9071 
2 *666:14 *666:20 14.125 
3 *666:20 *666:28 18.0357 
4 *666:28 *666:30 1.35714 
5 *666:30 *2547:A0 9.3 
6 *666:30 *2556:A1 29.1571 
7 *666:28 *666:60 3.58929 
8 *666:60 *2583:A1 9.3 
9 *666:60 *666:69 5.07143 
10 *666:69 *2592:A1 9.3 
11 *666:69 *666:86 24.4464 
12 *666:86 *2565:A1 9.3 
13 *666:86 *666:93 4.23214 
14 *666:93 *2574:A0 9.3 
15 *666:93 *666:106 22.4286 
16 *666:106 *2528:A1 9.3 
17 *666:106 *2510:A1 22.3357 
18 *666:20 *2470:A1 14.3357 
19 *666:14 *2480:A1 9.3 
*END

*D_NET *667 0.00916903
*CONN
*I *2609:A1 I *D sky130_fd_sc_hd__mux2_1
*I *2537:A1 I *D sky130_fd_sc_hd__mux2_1
*I *2500:A0 I *D sky130_fd_sc_hd__mux2_1
*I *2519:A1 I *D sky130_fd_sc_hd__mux2_1
*I *2490:A1 I *D sky130_fd_sc_hd__mux2_1
*I *2600:A0 I *D sky130_fd_sc_hd__mux2_1
*I *2858:X O *D sky130_fd_sc_hd__buf_1
*CAP
1 *2609:A1 4.74997e-05
2 *2537:A1 6.9591e-05
3 *2500:A0 0
4 *2519:A1 0.000153655
5 *2490:A1 0
6 *2600:A0 0.000436461
7 *2858:X 0.000270124
8 *667:51 0.000266971
9 *667:30 0.00102725
10 *667:24 0.000889695
11 *667:14 0.000583148
12 *667:10 0.000418961
13 *2600:A0 *2619:RESET_B 0
14 *667:51 *670:80 0.000240484
15 *2420:A1 *2600:A0 3.69047e-06
16 *2420:A2 *667:30 1.29244e-05
17 *2420:A2 *667:51 2.49484e-05
18 *2421:A2 *667:24 0.000184745
19 *2421:A3 *667:14 1.36251e-05
20 *2421:A3 *667:24 8.27532e-05
21 *2422:A1 *667:24 5.71472e-05
22 *2422:A3 *667:24 0.000254049
23 *2422:A3 *667:30 0.000312209
24 *2423:A1 *667:24 2.30116e-06
25 *2500:A1 *667:24 0.00019828
26 *2500:A1 *667:30 2.89016e-05
27 *2537:A0 *2537:A1 5.71472e-05
28 *2600:A1 *2600:A0 5.7616e-05
29 *2609:S *2609:A1 0.000127446
30 *2609:S *667:14 0.000221821
31 *2858:A *667:10 0.000230043
32 *2877:A *667:24 0.00010096
33 *2895:A *667:51 8.15095e-05
34 *264:20 *2609:A1 4.06875e-05
35 *264:20 *667:14 6.98669e-05
36 *323:64 *667:30 3.19239e-05
37 *327:26 *2519:A1 0.000315417
38 *327:26 *2537:A1 0.000172309
39 *327:26 *667:24 0.000481575
40 *327:34 *667:51 3.4323e-05
41 *332:18 *667:30 9.40041e-05
42 *332:38 *2519:A1 0.000315158
43 *332:38 *667:51 2.14757e-05
44 *342:67 *667:24 0.000250594
45 *391:10 *2600:A0 7.83587e-05
46 *407:8 *2600:A0 5.31541e-05
47 *415:10 *2600:A0 7.61195e-05
48 *415:10 *667:30 1.58163e-05
49 *487:8 *667:10 0.000230475
50 *633:129 *2600:A0 1.00375e-05
51 *643:157 *2519:A1 3.9846e-05
52 *643:157 *2600:A0 7.83659e-05
53 *643:157 *667:51 5.52302e-05
54 *666:28 *2600:A0 0.000248331
*RES
1 *2858:X *667:10 20.1036 
2 *667:10 *667:14 7.35714 
3 *667:14 *667:24 20.5179 
4 *667:24 *667:30 8.07143 
5 *667:30 *2600:A0 26.0857 
6 *667:30 *667:51 12.6964 
7 *667:51 *2490:A1 9.3 
8 *667:51 *2519:A1 14.3714 
9 *667:24 *2500:A0 9.3 
10 *667:14 *2537:A1 11.0679 
11 *667:10 *2609:A1 15.4429 
*END

*D_NET *668 0.0145298
*CONN
*I *2730:CLK I *D sky130_fd_sc_hd__dfstp_1
*I *2618:CLK I *D sky130_fd_sc_hd__dfrtp_1
*I *2721:CLK I *D sky130_fd_sc_hd__dfstp_1
*I *2734:CLK I *D sky130_fd_sc_hd__dfrtp_1
*I *2735:CLK I *D sky130_fd_sc_hd__dfrtp_4
*I *2733:CLK I *D sky130_fd_sc_hd__dfrtp_1
*I *2732:CLK I *D sky130_fd_sc_hd__dfrtp_1
*I *2736:CLK I *D sky130_fd_sc_hd__dfrtp_1
*I *2731:CLK I *D sky130_fd_sc_hd__dfrtp_1
*I *2621:CLK I *D sky130_fd_sc_hd__dfrtp_1
*I *2859:X O *D sky130_fd_sc_hd__clkbuf_2
*CAP
1 *2730:CLK 0
2 *2618:CLK 0
3 *2721:CLK 9.32025e-05
4 *2734:CLK 0
5 *2735:CLK 0
6 *2733:CLK 0.000291485
7 *2732:CLK 8.35268e-05
8 *2736:CLK 0
9 *2731:CLK 3.72704e-05
10 *2621:CLK 0.000158957
11 *2859:X 7.93547e-05
12 *668:119 0.000161564
13 *668:112 0.000724336
14 *668:79 0.00136638
15 *668:57 0.000991364
16 *668:55 0.00127989
17 *668:26 0.000855497
18 *668:20 0.001248
19 *668:16 0.00144355
20 *668:10 0.000310257
21 *2621:CLK *669:40 0
22 *2721:CLK *2330:A 9.57064e-05
23 *2721:CLK *2862:A 0
24 *2733:CLK *2732:D 0.000128146
25 *2733:CLK *2733:D 5.33433e-05
26 *2733:CLK *2737:D 5.01695e-05
27 *668:16 *2736:RESET_B 0.000122321
28 *668:20 *2736:D 1.39726e-05
29 *668:20 *2736:RESET_B 0.000226144
30 *668:26 *2736:D 8.07313e-05
31 *668:26 *2736:RESET_B 8.5509e-05
32 *668:26 *2769:D 3.69047e-06
33 *668:26 *669:87 0
34 *668:55 *2735:D 0.000168217
35 *668:79 *2735:D 6.85983e-05
36 *668:79 *705:12 0.000184635
37 *668:79 *708:42 0.000125242
38 *668:112 *2330:A 0
39 *668:112 *2734:D 0
40 *668:112 *2734:RESET_B 2.58856e-05
41 *668:112 *672:16 0.000116749
42 *668:112 *672:30 1.84523e-06
43 *668:112 *708:42 0
44 *668:119 *672:16 4.70078e-05
45 *2333:A *668:55 0
46 *2333:B *668:16 0.000144773
47 *2333:B *668:55 0
48 *2336:B *668:20 0.000126629
49 *2391:A *668:26 2.39876e-05
50 *2391:B *668:26 0.000175519
51 *2393:A *668:26 0.000193833
52 *2394:B1 *2733:CLK 0
53 *2399:A *2733:CLK 3.22304e-05
54 *2406:A1 *668:79 0.000136958
55 *2406:A2 *668:79 5.33005e-05
56 *2407:B2 *668:79 3.92854e-05
57 *2407:C1 *668:79 1.92905e-05
58 *2413:A *668:112 0.000137473
59 *2416:A *668:112 0.000173211
60 *2417:B *668:79 0.000142856
61 *2494:A0 *2621:CLK 0
62 *2494:S *2621:CLK 0
63 *2494:S *668:26 0
64 *213:10 *668:55 0
65 *216:8 *668:10 0
66 *217:8 *668:55 0.000153531
67 *217:14 *668:55 1.97381e-05
68 *227:42 *668:10 0.000150618
69 *229:6 *668:79 8.57023e-05
70 *273:14 *668:79 6.8646e-06
71 *363:10 *2733:CLK 0
72 *363:10 *668:79 0
73 *551:18 *668:79 0.000208628
74 *551:26 *2732:CLK 0.000192428
75 *634:26 *668:79 7.48091e-05
76 *634:40 *668:79 0.00053128
77 *637:174 *668:55 0
78 *637:174 *668:112 0
79 *639:49 *668:26 0.000216862
80 *640:14 *2733:CLK 0.000152861
81 *642:12 *2733:CLK 0
82 *642:99 *2733:CLK 0.000298273
83 *642:99 *668:26 5.44167e-05
84 *642:99 *668:79 0.000121573
85 *642:101 *2621:CLK 7.58571e-05
86 *642:101 *668:26 6.44542e-05
*RES
1 *2859:X *668:10 20.2464 
2 *668:10 *668:16 5.19643 
3 *668:16 *668:20 10.8214 
4 *668:20 *668:26 19.5357 
5 *668:26 *2621:CLK 16.8893 
6 *668:26 *2731:CLK 14.3357 
7 *668:20 *2736:CLK 9.3 
8 *668:16 *668:55 17.0714 
9 *668:55 *668:57 4.5 
10 *668:57 *668:79 43.8393 
11 *668:79 *2732:CLK 15.9964 
12 *668:79 *2733:CLK 21.1571 
13 *668:57 *2735:CLK 9.3 
14 *668:55 *668:112 18.0536 
15 *668:112 *2734:CLK 9.3 
16 *668:112 *668:119 1.35714 
17 *668:119 *2721:CLK 20.55 
18 *668:119 *2618:CLK 9.3 
19 *668:10 *2730:CLK 9.3 
*END

*D_NET *669 0.0276494
*CONN
*I *2859:A I *D sky130_fd_sc_hd__clkbuf_2
*I *2765:CLK I *D sky130_fd_sc_hd__dfrtp_1
*I *2764:CLK I *D sky130_fd_sc_hd__dfrtp_1
*I *2759:CLK I *D sky130_fd_sc_hd__dfrtp_1
*I *2737:CLK I *D sky130_fd_sc_hd__dfrtp_1
*I *2620:CLK I *D sky130_fd_sc_hd__dfrtp_1
*I *2622:CLK I *D sky130_fd_sc_hd__dfrtp_1
*I *2624:CLK I *D sky130_fd_sc_hd__dfrtp_1
*I *2860:X O *D sky130_fd_sc_hd__buf_2
*CAP
1 *2859:A 0
2 *2765:CLK 3.31151e-05
3 *2764:CLK 0.000123753
4 *2759:CLK 0.000576946
5 *2737:CLK 0
6 *2620:CLK 2.23854e-05
7 *2622:CLK 0
8 *2624:CLK 0.00130379
9 *2860:X 0.000363116
10 *669:106 0.000793765
11 *669:100 0.000370597
12 *669:87 0.00100962
13 *669:50 0.00237282
14 *669:44 0.00202222
15 *669:40 0.00280592
16 *669:28 0.00404851
17 *669:14 0.00177131
18 *2759:CLK *2491:A0 5.26059e-05
19 *2759:CLK *2759:D 2.59355e-05
20 *2759:CLK *672:76 8.27184e-06
21 *2764:CLK *2759:RESET_B 2.58856e-05
22 *2764:CLK *2764:D 5.71472e-05
23 *2764:CLK *672:66 6.84283e-05
24 *2764:CLK *672:76 3.14178e-05
25 *2765:CLK *2765:D 0.00010096
26 *669:14 *2730:SET_B 0
27 *669:14 *673:8 9.90431e-05
28 *669:28 *2842:A 0.000186662
29 *669:28 *719:10 0.000315964
30 *669:40 *678:12 0.000461349
31 *669:44 *2620:RESET_B 1.52723e-05
32 *669:44 *678:12 0.000140822
33 *669:44 *678:26 7.81337e-05
34 *669:50 *2622:RESET_B 2.51837e-05
35 *669:50 *678:26 0.000452336
36 *669:106 *2765:D 8.9163e-05
37 *669:106 *2936:A 3.01126e-05
38 *669:106 *672:76 6.19181e-05
39 *669:106 *721:8 0
40 *2347:C *669:14 5.58941e-05
41 *2348:A1 *669:14 0.00010748
42 *2348:B1 *669:14 0.000139907
43 *2349:C *669:28 0
44 *2363:A1 *669:14 5.52238e-05
45 *2363:A1 *669:28 0.000115013
46 *2363:B1 *669:28 0.00022138
47 *2391:B *669:28 0
48 *2394:A1 *669:87 6.39808e-05
49 *2404:B *669:28 5.52302e-05
50 *2445:S0 *669:40 0
51 *2449:A1 *669:40 0.000128154
52 *2467:S *2624:CLK 0
53 *2473:S *2624:CLK 0.000171375
54 *2494:A0 *669:40 7.83659e-05
55 *2494:S *669:40 6.2993e-05
56 *2494:S *669:87 0.000175049
57 *2495:A0 *2624:CLK 0
58 *2495:S *2624:CLK 0.000753788
59 *2596:A0 *669:40 0.000207844
60 *2596:S *669:40 0.000183726
61 *2621:CLK *669:40 0
62 *2624:D *2624:CLK 0.000127439
63 *2692:D *2624:CLK 0
64 *2730:D *669:14 0.000128154
65 *2814:A *669:40 1.08359e-05
66 *2886:A *669:40 0.000117543
67 *227:42 *669:14 0.000175896
68 *228:10 *669:14 3.34366e-05
69 *230:14 *669:14 1.39726e-05
70 *231:12 *669:14 8.05011e-05
71 *265:6 *669:28 9.60875e-05
72 *267:12 *669:87 0.000149556
73 *338:123 *2624:CLK 2.92869e-05
74 *339:40 *2624:CLK 0
75 *348:10 *669:40 2.58997e-05
76 *348:32 *669:40 7.60306e-05
77 *348:63 *669:40 3.17163e-05
78 *354:30 *2624:CLK 0.000162832
79 *354:32 *2624:CLK 0.000219592
80 *363:10 *669:87 0.000425379
81 *363:10 *669:100 0.000208541
82 *634:40 *669:87 0.000123288
83 *634:52 *669:40 0.000129194
84 *634:52 *669:87 0.000265191
85 *634:60 *669:40 0.000340781
86 *634:168 *669:87 0.000576862
87 *634:168 *669:100 0.000400497
88 *637:125 *2624:CLK 0.000127083
89 *639:59 *669:40 0
90 *639:73 *669:40 0
91 *639:111 *2624:CLK 0
92 *642:78 *2624:CLK 9.71197e-05
93 *642:99 *669:87 0
94 *644:27 *2765:CLK 4.59075e-05
95 *644:27 *669:100 0.000134471
96 *645:121 *2624:CLK 0
97 *648:78 *2765:CLK 6.97409e-05
98 *648:78 *669:100 9.05499e-05
99 *650:6 *669:28 0.000226507
100 *650:22 *669:28 0.000293818
101 *650:22 *669:40 9.58593e-05
102 *668:26 *669:87 0
*RES
1 *2860:X *669:14 27.7286 
2 *669:14 *669:28 27.4464 
3 *669:28 *669:40 46.1429 
4 *669:40 *669:44 12.0536 
5 *669:44 *669:50 19.1607 
6 *669:50 *2624:CLK 47.7643 
7 *669:50 *2622:CLK 9.3 
8 *669:44 *2620:CLK 9.72857 
9 *669:28 *669:87 26.9464 
10 *669:87 *2737:CLK 13.8 
11 *669:87 *669:100 12.375 
12 *669:100 *669:106 11.5536 
13 *669:106 *2759:CLK 16.7643 
14 *669:106 *2764:CLK 12.4429 
15 *669:100 *2765:CLK 11.0679 
16 *669:14 *2859:A 9.3 
*END

*D_NET *670 0.0255227
*CONN
*I *2739:CLK I *D sky130_fd_sc_hd__dfrtp_1
*I *2763:CLK I *D sky130_fd_sc_hd__dfrtp_1
*I *2766:CLK I *D sky130_fd_sc_hd__dfrtp_1
*I *2738:CLK I *D sky130_fd_sc_hd__dfrtp_1
*I *2761:CLK I *D sky130_fd_sc_hd__dfrtp_1
*I *2619:CLK I *D sky130_fd_sc_hd__dfrtp_1
*I *2617:CLK I *D sky130_fd_sc_hd__dfrtp_1
*I *2623:CLK I *D sky130_fd_sc_hd__dfrtp_1
*I *2760:CLK I *D sky130_fd_sc_hd__dfrtp_1
*I *2762:CLK I *D sky130_fd_sc_hd__dfrtp_1
*I *2861:X O *D sky130_fd_sc_hd__buf_2
*CAP
1 *2739:CLK 0.000265096
2 *2763:CLK 0
3 *2766:CLK 0
4 *2738:CLK 5.7759e-05
5 *2761:CLK 0.000338312
6 *2619:CLK 0
7 *2617:CLK 0.000174972
8 *2623:CLK 0.000438176
9 *2760:CLK 1.48121e-05
10 *2762:CLK 0
11 *2861:X 0.000172324
12 *670:80 0.00159833
13 *670:76 0.00160814
14 *670:64 0.00288268
15 *670:58 0.00268978
16 *670:45 0.000960243
17 *670:41 0.00127412
18 *670:35 0.000867276
19 *670:29 0.00128516
20 *670:19 0.00109751
21 *670:10 0.000224184
22 *2623:CLK *2619:RESET_B 5.71823e-05
23 *2623:CLK *2623:RESET_B 2.11543e-05
24 *2739:CLK *2739:D 0
25 *2739:CLK *2762:D 7.36174e-05
26 *2739:CLK *675:96 0.000236585
27 *2739:CLK *677:25 0.000102207
28 *2760:CLK *2760:D 2.19684e-05
29 *2761:CLK *2755:D 0.000444507
30 *2761:CLK *2756:RESET_B 9.39411e-05
31 *2761:CLK *2760:D 0.000626518
32 *2761:CLK *675:32 0.000102207
33 *670:10 *2739:D 0
34 *670:10 *2762:D 4.1331e-06
35 *670:10 *2768:D 7.83659e-05
36 *670:10 *675:10 7.07155e-06
37 *670:10 *675:96 4.13573e-05
38 *670:19 *2762:D 4.57352e-05
39 *670:19 *675:96 6.16744e-05
40 *670:29 *2746:RESET_B 0
41 *670:29 *2763:D 4.35048e-05
42 *670:29 *733:8 3.67142e-05
43 *670:35 *2761:RESET_B 0.000108009
44 *670:35 *2763:RESET_B 0.000199934
45 *670:35 *2766:D 0.000193663
46 *670:41 *2766:D 1.41706e-05
47 *670:41 *2771:D 0
48 *670:58 *2755:D 0.000176234
49 *670:58 *2760:D 4.06782e-05
50 *670:64 *2619:RESET_B 0
51 *670:76 *2619:RESET_B 0.000319676
52 *670:80 *2619:RESET_B 0
53 *2418:S0 *670:80 3.17148e-05
54 *2420:S0 *670:80 0.000921746
55 *2461:A0 *2617:CLK 0.000154027
56 *2461:S *2617:CLK 0.000236195
57 *2480:A0 *670:80 0
58 *2481:A0 *670:64 0.000265634
59 *2547:A1 *670:80 2.11419e-05
60 *2601:A0 *670:64 0.000363764
61 *2601:A1 *670:64 0.000183713
62 *2601:S *670:64 7.47252e-05
63 *2623:D *2623:CLK 7.3237e-05
64 *2722:D *670:80 5.24274e-05
65 *2747:D *670:80 7.80714e-06
66 *2773:CLK *670:41 5.33433e-05
67 *2801:A *670:29 1.00073e-05
68 *2817:A *670:35 0.000142856
69 *2870:A *670:76 1.98839e-05
70 *2870:A *670:80 0
71 *2871:A *670:64 0.000227539
72 *2878:A *670:64 0.000221634
73 *2895:A *670:80 0.000155053
74 *316:14 *2617:CLK 8.66063e-05
75 *316:14 *2623:CLK 9.71197e-05
76 *316:14 *670:80 0.000473833
77 *323:86 *670:80 0
78 *345:72 *670:76 0.000179072
79 *345:94 *670:76 0.000113536
80 *351:14 *670:29 5.70551e-05
81 *351:22 *670:35 1.76135e-05
82 *351:24 *670:35 0.000106533
83 *351:26 *670:35 0.000198494
84 *351:26 *670:41 8.15939e-05
85 *471:8 *670:76 4.35421e-05
86 *633:14 *2761:CLK 4.58194e-05
87 *633:14 *670:64 2.59355e-05
88 *633:22 *2760:CLK 6.0038e-05
89 *633:22 *670:58 0.000284887
90 *633:129 *670:76 0.000950178
91 *634:168 *670:45 5.00524e-05
92 *643:126 *670:80 0
93 *646:82 *670:76 9.41642e-05
94 *667:51 *670:80 0.000240484
*RES
1 *2861:X *670:10 16.6929 
2 *670:10 *2762:CLK 13.8 
3 *670:10 *670:19 1.64286 
4 *670:19 *670:29 23.4821 
5 *670:29 *670:35 18.6071 
6 *670:35 *670:41 9.85714 
7 *670:41 *670:45 14.4821 
8 *670:45 *2760:CLK 14.5321 
9 *670:45 *670:58 8.26786 
10 *670:58 *670:64 37.125 
11 *670:64 *670:76 30.5357 
12 *670:76 *670:80 28.9107 
13 *670:80 *2623:CLK 26.4429 
14 *670:80 *2617:CLK 14.7643 
15 *670:64 *2619:CLK 9.3 
16 *670:58 *2761:CLK 29.0679 
17 *670:41 *2738:CLK 10.5679 
18 *670:35 *2766:CLK 13.8 
19 *670:29 *2763:CLK 9.3 
20 *670:19 *2739:CLK 21.1571 
*END

*D_NET *671 0.00106235
*CONN
*I *2296:A I *D sky130_fd_sc_hd__inv_2
*I *3021:X O *D sky130_fd_sc_hd__clkbuf_1
*CAP
1 *2296:A 0.000450779
2 *3021:X 0.000450779
3 *2297:A *2296:A 0.000129086
4 *2323:A2 *2296:A 0
5 *3020:A *2296:A 3.17067e-05
6 *3022:A *2296:A 0
*RES
1 *3021:X *2296:A 36.1893 
*END

*D_NET *672 0.0119477
*CONN
*I *2721:SET_B I *D sky130_fd_sc_hd__dfstp_1
*I *2618:RESET_B I *D sky130_fd_sc_hd__dfrtp_1
*I *2734:RESET_B I *D sky130_fd_sc_hd__dfrtp_1
*I *2759:RESET_B I *D sky130_fd_sc_hd__dfrtp_1
*I *2737:RESET_B I *D sky130_fd_sc_hd__dfrtp_1
*I *2770:RESET_B I *D sky130_fd_sc_hd__dfrtp_1
*I *2764:RESET_B I *D sky130_fd_sc_hd__dfrtp_1
*I *2733:RESET_B I *D sky130_fd_sc_hd__dfrtp_1
*I *2732:RESET_B I *D sky130_fd_sc_hd__dfrtp_1
*I *2765:RESET_B I *D sky130_fd_sc_hd__dfrtp_1
*I *2862:X O *D sky130_fd_sc_hd__clkbuf_4
*CAP
1 *2721:SET_B 0
2 *2618:RESET_B 0.000118988
3 *2734:RESET_B 3.08394e-05
4 *2759:RESET_B 3.08394e-05
5 *2737:RESET_B 0.000386594
6 *2770:RESET_B 1.0671e-05
7 *2764:RESET_B 0.000693023
8 *2733:RESET_B 0
9 *2732:RESET_B 0.000313782
10 *2765:RESET_B 3.59957e-05
11 *2862:X 7.80142e-05
12 *672:76 0.000836793
13 *672:66 0.0010372
14 *672:40 0.000683829
15 *672:38 0.000496234
16 *672:30 0.000957307
17 *672:16 0.00173779
18 *672:14 0.000977483
19 *672:10 0.000150872
20 *2732:RESET_B *2837:A 0
21 *2732:RESET_B *705:40 0
22 *2732:RESET_B *720:18 0.000346412
23 *2732:RESET_B *753:10 0.00019805
24 *2737:RESET_B *2430:S 2.52732e-05
25 *2764:RESET_B *753:10 5.10822e-05
26 *2770:RESET_B *2430:S 1.27848e-05
27 *672:10 *2862:A 5.33005e-05
28 *672:10 *678:54 0.000103253
29 *672:10 *739:10 4.98872e-05
30 *672:14 *678:54 0.000302417
31 *672:14 *739:10 0.000166221
32 *672:30 *2334:A 0
33 *672:30 *707:6 6.41996e-05
34 *672:30 *707:21 0
35 *672:30 *753:10 0
36 *672:30 *754:10 0.000130601
37 *672:40 *2837:A 0
38 *672:40 *753:10 0.000328095
39 *672:66 *2412:B 0.000193631
40 *672:66 *2764:D 4.8843e-05
41 *672:76 *2430:S 3.05475e-05
42 *672:76 *2936:A 0.000362538
43 *2397:B *672:40 2.61337e-05
44 *2429:S *2737:RESET_B 9.82592e-05
45 *2431:A1 *2737:RESET_B 1.77247e-05
46 *2759:CLK *672:76 8.27184e-06
47 *2764:CLK *2759:RESET_B 2.58856e-05
48 *2764:CLK *672:66 6.84283e-05
49 *2764:CLK *672:76 3.14178e-05
50 *333:98 *2737:RESET_B 0
51 *551:18 *2732:RESET_B 0.000227532
52 *551:26 *2732:RESET_B 6.34577e-05
53 *637:10 *672:30 5.52238e-05
54 *639:18 *2737:RESET_B 2.85276e-05
55 *644:27 *2764:RESET_B 0
56 *644:27 *672:40 0
57 *648:78 *672:40 0
58 *668:112 *2734:RESET_B 2.58856e-05
59 *668:112 *672:16 0.000116749
60 *668:112 *672:30 1.84523e-06
61 *668:119 *672:16 4.70078e-05
62 *669:106 *672:76 6.19181e-05
*RES
1 *2862:X *672:10 15.675 
2 *672:10 *672:14 8.26786 
3 *672:14 *672:16 9.57143 
4 *672:16 *672:30 23.125 
5 *672:30 *2765:RESET_B 0.473214 
6 *672:30 *672:38 4.5 
7 *672:38 *672:40 8.01786 
8 *672:40 *2732:RESET_B 12.8304 
9 *672:40 *2733:RESET_B 4.5 
10 *672:38 *2764:RESET_B 6.44643 
11 *2764:RESET_B *672:66 8.1875 
12 *672:66 *672:76 17.2143 
13 *672:76 *2770:RESET_B 0.473214 
14 *672:76 *2737:RESET_B 14.6518 
15 *672:66 *2759:RESET_B 0.901786 
16 *672:16 *2734:RESET_B 0.901786 
17 *672:14 *2618:RESET_B 1.61607 
18 *672:10 *2721:SET_B 4.5 
*END

*D_NET *673 0.0121301
*CONN
*I *2774:RESET_B I *D sky130_fd_sc_hd__dfrtp_1
*I *2769:RESET_B I *D sky130_fd_sc_hd__dfrtp_1
*I *2731:RESET_B I *D sky130_fd_sc_hd__dfrtp_1
*I *2621:RESET_B I *D sky130_fd_sc_hd__dfrtp_1
*I *2736:RESET_B I *D sky130_fd_sc_hd__dfrtp_1
*I *2730:SET_B I *D sky130_fd_sc_hd__dfstp_1
*I *2862:A I *D sky130_fd_sc_hd__clkbuf_4
*I *2735:RESET_B I *D sky130_fd_sc_hd__dfrtp_4
*I *2863:X O *D sky130_fd_sc_hd__buf_2
*CAP
1 *2774:RESET_B 0.000141878
2 *2769:RESET_B 0.000195922
3 *2731:RESET_B 0
4 *2621:RESET_B 9.46752e-05
5 *2736:RESET_B 0.00169094
6 *2730:SET_B 0.00184281
7 *2862:A 0.0010436
8 *2735:RESET_B 1.9043e-05
9 *2863:X 0.000366787
10 *673:74 0.000381534
11 *673:58 0.000445866
12 *673:56 0.000394925
13 *673:16 0.00154664
14 *673:8 0.00100265
15 *2730:SET_B *678:10 0
16 *2730:SET_B *678:54 0
17 *2735:RESET_B *708:10 4.96155e-05
18 *2736:RESET_B *2736:D 0.000186662
19 *2769:RESET_B *2869:A 1.72894e-05
20 *2774:RESET_B *2774:D 0
21 *2862:A *2330:A 0
22 *2862:A *708:10 0
23 *2862:A *739:10 0
24 *673:8 *2863:A 2.65105e-05
25 *673:16 *2345:A 7.58571e-05
26 *673:16 *678:54 0
27 *673:16 *708:10 0
28 *673:16 *739:10 0
29 *673:58 *2731:D 0
30 empty *2862:A 0
31 *2333:B *2736:RESET_B 7.77751e-05
32 *2336:B *2736:RESET_B 0.000126629
33 *2348:A1 *2730:SET_B 0
34 *2348:A1 *673:16 1.8171e-06
35 *2431:A1 *2862:A 5.7836e-06
36 *2431:S *2862:A 9.71867e-05
37 *2618:D *2862:A 0
38 *2721:CLK *2862:A 0
39 *2860:A *673:8 4.884e-05
40 *228:10 *673:16 0
41 *230:14 *2730:SET_B 0.000121573
42 *551:18 *2735:RESET_B 9.23695e-05
43 *634:26 *2862:A 0.000157622
44 *639:49 *2774:RESET_B 0.000225293
45 *639:49 *673:58 5.66647e-05
46 *639:49 *673:74 6.1684e-05
47 *642:99 *673:58 0
48 *642:101 *2621:RESET_B 0
49 *642:101 *673:58 0
50 *647:27 *2621:RESET_B 1.00375e-05
51 *648:8 *673:58 0.000211212
52 *648:20 *2621:RESET_B 4.98872e-05
53 *648:20 *673:58 0.000272665
54 *648:53 *2774:RESET_B 0.000111779
55 *648:53 *673:58 0.000165269
56 *648:53 *673:74 0.000126446
57 *668:16 *2736:RESET_B 0.000122321
58 *668:20 *2736:RESET_B 0.000226144
59 *668:26 *2736:RESET_B 8.5509e-05
60 *669:14 *2730:SET_B 0
61 *669:14 *673:8 9.90431e-05
62 *672:10 *2862:A 5.33005e-05
*RES
1 *2863:X *673:8 18.4429 
2 *673:8 *673:16 9.11607 
3 *673:16 *2735:RESET_B 5.38393 
4 *673:16 *2862:A 32.7286 
5 *673:8 *2730:SET_B 7.40179 
6 *2730:SET_B *2736:RESET_B 22.4643 
7 *2736:RESET_B *673:56 4.5 
8 *673:56 *673:58 8.32143 
9 *673:58 *2621:RESET_B 6.67857 
10 *673:58 *2731:RESET_B 4.5 
11 *673:56 *673:74 1.64286 
12 *673:74 *2769:RESET_B 7.4375 
13 *673:74 *2774:RESET_B 8.625 
*END

*D_NET *674 0.0101781
*CONN
*I *2739:RESET_B I *D sky130_fd_sc_hd__dfrtp_1
*I *2762:RESET_B I *D sky130_fd_sc_hd__dfrtp_1
*I *2767:RESET_B I *D sky130_fd_sc_hd__dfrtp_2
*I *2768:RESET_B I *D sky130_fd_sc_hd__dfrtp_2
*I *2746:RESET_B I *D sky130_fd_sc_hd__dfrtp_4
*I *2763:RESET_B I *D sky130_fd_sc_hd__dfrtp_1
*I *2771:RESET_B I *D sky130_fd_sc_hd__dfrtp_1
*I *2766:RESET_B I *D sky130_fd_sc_hd__dfrtp_1
*I *2773:RESET_B I *D sky130_fd_sc_hd__dfrtp_1
*I *2738:RESET_B I *D sky130_fd_sc_hd__dfrtp_1
*I *2864:X O *D sky130_fd_sc_hd__clkbuf_4
*CAP
1 *2739:RESET_B 0.000442182
2 *2762:RESET_B 0
3 *2767:RESET_B 4.93893e-05
4 *2768:RESET_B 5.60818e-06
5 *2746:RESET_B 0.000233962
6 *2763:RESET_B 0.000149113
7 *2771:RESET_B 0
8 *2766:RESET_B 0
9 *2773:RESET_B 0.00090993
10 *2738:RESET_B 2.10144e-05
11 *2864:X 0.000116171
12 *674:92 0.000699633
13 *674:81 0.00030684
14 *674:54 0.000499415
15 *674:47 0.000259025
16 *674:22 0.00110398
17 *674:18 0.00024252
18 *674:16 0.0010015
19 *674:12 0.00116591
20 *674:8 0.000487143
21 *2739:RESET_B *2739:D 0
22 *2739:RESET_B *2778:D 0
23 *2739:RESET_B *2947:A 8.40012e-05
24 *2739:RESET_B *676:23 0
25 *2739:RESET_B *678:54 0
26 *2746:RESET_B *2763:D 0
27 *2746:RESET_B *733:25 0
28 *2763:RESET_B *2761:RESET_B 0.000705756
29 *2763:RESET_B *2763:D 3.53199e-05
30 *2767:RESET_B *2947:A 5.33786e-05
31 *2767:RESET_B *739:10 5.33786e-05
32 *2773:RESET_B *2773:D 0.000318107
33 *674:18 *2771:D 6.39901e-05
34 *674:18 *755:10 0
35 *674:22 *2771:D 9.56968e-05
36 *674:22 *755:10 0
37 *674:47 *2766:D 0
38 *674:47 *2771:D 0.000118095
39 *674:54 *2766:D 0
40 *674:92 *2947:A 0.000219215
41 *674:92 *678:54 0
42 *674:92 *739:10 4.46186e-06
43 *2642:CLK *674:22 0
44 *2768:CLK *674:16 5.70551e-05
45 *2773:CLK *2738:RESET_B 2.51837e-05
46 *2773:CLK *2773:RESET_B 0.000301383
47 *351:20 *2746:RESET_B 0
48 *351:22 *2746:RESET_B 0
49 *351:26 *674:22 0
50 *518:40 *2768:RESET_B 1.52723e-05
51 *518:40 *674:8 5.38072e-05
52 *518:40 *674:12 4.1004e-05
53 *518:40 *674:16 3.97657e-05
54 *670:29 *2746:RESET_B 0
55 *670:35 *2763:RESET_B 0.000199934
*RES
1 *2864:X *674:8 11.4964 
2 *674:8 *674:12 4.66071 
3 *674:12 *674:16 17.3571 
4 *674:16 *674:18 1.64286 
5 *674:18 *674:22 7.96429 
6 *674:22 *2738:RESET_B 0.473214 
7 *674:22 *2773:RESET_B 13.3661 
8 *674:18 *2766:RESET_B 4.5 
9 *674:16 *674:47 3.46429 
10 *674:47 *2771:RESET_B 4.5 
11 *674:47 *674:54 1.64286 
12 *674:54 *2763:RESET_B 11.1339 
13 *674:54 *2746:RESET_B 8.625 
14 *674:12 *2768:RESET_B 0.473214 
15 *674:8 *674:81 4.5 
16 *674:81 *2767:RESET_B 5.83929 
17 *674:81 *674:92 5.82143 
18 *674:92 *2762:RESET_B 4.5 
19 *674:92 *2739:RESET_B 13.4821 
*END

*D_NET *675 0.0136258
*CONN
*I *2864:A I *D sky130_fd_sc_hd__clkbuf_4
*I *2772:RESET_B I *D sky130_fd_sc_hd__dfrtp_1
*I *2778:RESET_B I *D sky130_fd_sc_hd__dfrtp_2
*I *2775:RESET_B I *D sky130_fd_sc_hd__dfrtp_1
*I *2744:RESET_B I *D sky130_fd_sc_hd__dfrtp_1
*I *2757:RESET_B I *D sky130_fd_sc_hd__dfrtp_1
*I *2755:RESET_B I *D sky130_fd_sc_hd__dfrtp_1
*I *2760:RESET_B I *D sky130_fd_sc_hd__dfrtp_1
*I *2756:RESET_B I *D sky130_fd_sc_hd__dfrtp_1
*I *2761:RESET_B I *D sky130_fd_sc_hd__dfrtp_1
*I *2865:X O *D sky130_fd_sc_hd__clkbuf_4
*CAP
1 *2864:A 0.000107507
2 *2772:RESET_B 2.1002e-05
3 *2778:RESET_B 0.000232735
4 *2775:RESET_B 5.77603e-05
5 *2744:RESET_B 0.000499881
6 *2757:RESET_B 0
7 *2755:RESET_B 5.43299e-05
8 *2760:RESET_B 0.000128828
9 *2756:RESET_B 9.46002e-05
10 *2761:RESET_B 0.00159934
11 *2865:X 0
12 *675:96 0.000844653
13 *675:68 0.000664577
14 *675:59 0.000255886
15 *675:42 0.000508133
16 *675:40 0.000473925
17 *675:32 0.000657616
18 *675:10 0.00252895
19 *675:4 0.00100921
20 *2744:RESET_B *2309:A 0.000183713
21 *2744:RESET_B *2755:D 0.000299988
22 *2744:RESET_B *2757:D 0.000160657
23 *2755:RESET_B *2759:D 5.33005e-05
24 *2760:RESET_B *2759:D 0.000275087
25 *2761:RESET_B *2766:D 0.00018372
26 *2778:RESET_B *2914:A 9.47456e-05
27 *2864:A *2767:D 7.6021e-05
28 *2864:A *678:54 0.000150611
29 *675:10 *2768:D 0.000198691
30 *675:32 *2761:D 1.02504e-05
31 *675:42 *2759:D 2.24646e-05
32 *675:42 *2760:D 0
33 *675:42 *2775:D 0.000107431
34 *675:59 *2775:D 9.68159e-05
35 *675:68 *2775:D 3.75052e-05
36 *675:96 *2758:RESET_B 0
37 *675:96 *2768:D 9.25014e-06
38 *675:96 *2925:A 0
39 *2739:CLK *675:96 0.000236585
40 *2761:CLK *2756:RESET_B 9.39411e-05
41 *2761:CLK *675:32 0.000102207
42 *2763:RESET_B *2761:RESET_B 0.000705756
43 *2775:CLK *2744:RESET_B 3.69047e-06
44 *2817:A *2761:RESET_B 0.000227539
45 *352:25 *675:96 4.57538e-05
46 *352:29 *2772:RESET_B 2.51935e-05
47 *352:29 *675:96 0.000196968
48 *363:10 *2760:RESET_B 0
49 *363:10 *675:32 1.78447e-05
50 *363:10 *675:42 0
51 *363:10 *675:59 0
52 *363:10 *675:68 0
53 *518:40 *2864:A 3.32631e-05
54 *633:14 *675:32 1.97381e-05
55 *670:10 *675:10 7.07155e-06
56 *670:10 *675:96 4.13573e-05
57 *670:19 *675:96 6.16744e-05
58 *670:35 *2761:RESET_B 0.000108009
*RES
1 *2865:X *675:4 9.3 
2 *675:4 *675:10 15.8036 
3 *675:10 *2761:RESET_B 20.7232 
4 *2761:RESET_B *675:32 18.8661 
5 *675:32 *2756:RESET_B 1.70536 
6 *675:32 *675:40 4.5 
7 *675:40 *675:42 6.5 
8 *675:42 *2760:RESET_B 7.96429 
9 *675:42 *2755:RESET_B 5.38393 
10 *675:40 *675:59 3.46429 
11 *675:59 *2757:RESET_B 4.5 
12 *675:59 *675:68 6.14286 
13 *675:68 *2744:RESET_B 18.7232 
14 *675:68 *2775:RESET_B 0.883929 
15 *675:10 *675:96 18.0536 
16 *675:96 *2778:RESET_B 13.3482 
17 *675:96 *2772:RESET_B 0.473214 
18 *675:4 *2864:A 21.1929 
*END

*D_NET *676 0.0151185
*CONN
*I *2758:RESET_B I *D sky130_fd_sc_hd__dfrtp_1
*I *2776:RESET_B I *D sky130_fd_sc_hd__dfrtp_1
*I *2740:RESET_B I *D sky130_fd_sc_hd__dfrtp_1
*I *2745:RESET_B I *D sky130_fd_sc_hd__dfrtp_1
*I *2741:RESET_B I *D sky130_fd_sc_hd__dfrtp_1
*I *2777:RESET_B I *D sky130_fd_sc_hd__dfrtp_1
*I *2865:A I *D sky130_fd_sc_hd__clkbuf_4
*I *2866:X O *D sky130_fd_sc_hd__buf_2
*CAP
1 *2758:RESET_B 0.00042573
2 *2776:RESET_B 0.000178846
3 *2740:RESET_B 0.00134245
4 *2745:RESET_B 0.00178297
5 *2741:RESET_B 0.000576096
6 *2777:RESET_B 0.000588686
7 *2865:A 0.000112839
8 *2866:X 5.33322e-05
9 *676:54 0.00134055
10 *676:46 0.00184546
11 *676:23 0.00131598
12 *676:8 0.000771015
13 *2741:RESET_B *2777:D 0
14 *2741:RESET_B *2914:A 0
15 *2745:RESET_B *2745:D 0.000203933
16 *2745:RESET_B *732:25 5.19842e-06
17 *2758:RESET_B *2314:A 0
18 *2758:RESET_B *2376:A 0
19 *2758:RESET_B *2776:D 0
20 *2758:RESET_B *2925:A 0.000108839
21 *2776:RESET_B *732:25 8.81471e-06
22 *2865:A *2767:D 0.000103253
23 *2865:A *2866:A 8.32171e-05
24 *2865:A *678:54 0
25 *676:8 *2767:D 9.33978e-07
26 *676:23 *2772:D 0.00010326
27 *676:23 *2778:D 0.000703778
28 *676:23 *2866:A 0.00020112
29 *676:23 *677:25 0.000261693
30 *676:23 *678:54 0
31 *676:46 *2299:A 0.000132301
32 *676:46 *728:8 6.79057e-05
33 *676:54 *2299:A 9.90367e-05
34 *676:54 *2309:A 5.33882e-05
35 *676:54 *728:8 0.000114655
36 *2304:A *2740:RESET_B 0.000385469
37 *2306:A *2740:RESET_B 0
38 *2308:A2 *2740:RESET_B 8.32242e-05
39 *2325:A1 *2740:RESET_B 1.9643e-05
40 *2325:B1 *2740:RESET_B 5.33882e-05
41 *2378:A *676:54 0.000140933
42 *2387:B *2740:RESET_B 0
43 *2739:RESET_B *676:23 0
44 *2740:D *2740:RESET_B 4.96155e-05
45 *2741:CLK *2758:RESET_B 0.000189448
46 *2745:CLK *2776:RESET_B 9.69072e-05
47 *2777:CLK *676:23 0.000145114
48 *2818:A *2758:RESET_B 0
49 *2827:A *2740:RESET_B 0
50 *176:10 *2740:RESET_B 7.63851e-05
51 *183:10 *676:54 0.000247216
52 *188:10 *2740:RESET_B 0
53 *189:12 *2740:RESET_B 0
54 *190:21 *2740:RESET_B 0.000175519
55 *198:8 *2758:RESET_B 0
56 *352:25 *2758:RESET_B 0.000177948
57 *352:40 *676:23 9.57064e-05
58 *352:60 *2758:RESET_B 0.000142797
59 *363:10 *2740:RESET_B 0
60 *364:8 *2740:RESET_B 0.000389854
61 *365:8 *676:54 3.34672e-05
62 *623:10 *2740:RESET_B 3.05446e-05
63 *675:96 *2758:RESET_B 0
*RES
1 *2866:X *676:8 14.3357 
2 *676:8 *2865:A 16.6571 
3 *676:8 *676:23 21.3929 
4 *676:23 *2777:RESET_B 0.473214 
5 *2777:RESET_B *2741:RESET_B 19.375 
6 *676:23 *676:46 9.32143 
7 *676:46 *676:54 22.375 
8 *676:54 *2745:RESET_B 6.13393 
9 *2745:RESET_B *2740:RESET_B 36.1875 
10 *676:54 *2776:RESET_B 3.08036 
11 *676:46 *2758:RESET_B 19.0089 
*END

*D_NET *677 0.0261561
*CONN
*I *2742:RESET_B I *D sky130_fd_sc_hd__dfrtp_1
*I *2623:RESET_B I *D sky130_fd_sc_hd__dfrtp_1
*I *2619:RESET_B I *D sky130_fd_sc_hd__dfrtp_1
*I *2617:RESET_B I *D sky130_fd_sc_hd__dfrtp_1
*I *2743:RESET_B I *D sky130_fd_sc_hd__dfrtp_1
*I *2866:A I *D sky130_fd_sc_hd__buf_2
*I *2867:X O *D sky130_fd_sc_hd__buf_2
*CAP
1 *2742:RESET_B 4.31651e-05
2 *2623:RESET_B 1.29655e-05
3 *2619:RESET_B 0.00152108
4 *2617:RESET_B 0.00231308
5 *2743:RESET_B 0.0015532
6 *2866:A 0.000127617
7 *2867:X 5.54804e-05
8 *677:73 0.00258664
9 *677:31 0.00191332
10 *677:25 0.00464427
11 *677:8 0.00324994
12 *2619:RESET_B *2583:A0 0.000146275
13 *2742:RESET_B *729:8 1.48969e-05
14 *2743:RESET_B *2742:D 1.5424e-05
15 *2743:RESET_B *729:8 1.06778e-05
16 *677:25 *2309:A 0.00011646
17 *677:31 *2292:A 8.15843e-05
18 *677:31 *2378:B 0
19 *677:31 *2755:D 0
20 *677:31 *2757:D 0.000112834
21 *677:31 *729:48 9.00795e-06
22 *2306:A *677:31 0
23 *2365:B *677:31 7.77751e-05
24 *2383:A *677:31 5.35516e-05
25 *2386:B *677:31 0.00012401
26 *2389:B *677:31 0.000315179
27 *2414:A_N *677:31 6.09572e-05
28 *2418:S0 *2619:RESET_B 0.0002152
29 *2420:A1 *2619:RESET_B 0.000109229
30 *2420:S0 *2619:RESET_B 0.00016202
31 *2423:A0 *677:73 3.40128e-05
32 *2461:S *2617:RESET_B 0.000110641
33 *2600:A0 *2619:RESET_B 0
34 *2600:A1 *2619:RESET_B 1.02969e-05
35 *2619:D *2619:RESET_B 1.76039e-05
36 *2623:CLK *2619:RESET_B 5.71823e-05
37 *2623:CLK *2623:RESET_B 2.11543e-05
38 *2633:CLK *2619:RESET_B 0
39 *2633:D *2619:RESET_B 0.000100823
40 *2739:CLK *677:25 0.000102207
41 *2740:D *677:31 0.000972766
42 *2743:CLK *2617:RESET_B 9.67834e-05
43 *2743:CLK *2743:RESET_B 0.00014374
44 *2747:D *2619:RESET_B 0.000114993
45 *2802:A *677:25 1.92789e-05
46 *2865:A *2866:A 8.32171e-05
47 *2959:A *2619:RESET_B 0.000107195
48 *2976:A *2619:RESET_B 1.17968e-05
49 *3028:A *677:73 4.75812e-05
50 *3034:A *677:73 7.78042e-05
51 *247:12 *2742:RESET_B 2.58757e-05
52 *247:12 *677:31 0.000151621
53 *316:14 *2619:RESET_B 0.00111118
54 *323:86 *2619:RESET_B 0.000121416
55 *337:83 *2619:RESET_B 0.000219044
56 *345:72 *2619:RESET_B 0.000414762
57 *345:94 *2619:RESET_B 0.000239364
58 *350:77 *2617:RESET_B 0
59 *350:77 *2742:RESET_B 0
60 *350:77 *2743:RESET_B 0.000142717
61 *352:25 *677:25 0.000136622
62 *363:10 *677:31 0
63 *407:8 *2619:RESET_B 0.000153143
64 *624:8 *2617:RESET_B 5.33433e-05
65 *631:6 *677:73 8.7762e-06
66 *633:99 *677:31 0.000293422
67 *633:123 *2619:RESET_B 2.06112e-05
68 *633:129 *2619:RESET_B 0.000506829
69 *643:116 *2619:RESET_B 0
70 *670:64 *2619:RESET_B 0
71 *670:76 *2619:RESET_B 0.000319676
72 *670:80 *2619:RESET_B 0
73 *676:23 *2866:A 0.00020112
74 *676:23 *677:25 0.000261693
*RES
1 *2867:X *677:8 14.3357 
2 *677:8 *2866:A 17.2643 
3 *677:8 *677:25 47.0893 
4 *677:25 *677:31 38.1518 
5 *677:31 *2743:RESET_B 4.51786 
6 *2743:RESET_B *2617:RESET_B 20.0714 
7 *2617:RESET_B *677:73 29.5446 
8 *677:73 *2619:RESET_B 47.4464 
9 *677:73 *2623:RESET_B 5.08036 
10 *677:31 *2742:RESET_B 1.51786 
*END

*D_NET *678 0.0249398
*CONN
*I *2863:A I *D sky130_fd_sc_hd__buf_2
*I *2867:A I *D sky130_fd_sc_hd__buf_2
*I *2624:RESET_B I *D sky130_fd_sc_hd__dfrtp_1
*I *2622:RESET_B I *D sky130_fd_sc_hd__dfrtp_1
*I *2620:RESET_B I *D sky130_fd_sc_hd__dfrtp_1
*I *2868:X O *D sky130_fd_sc_hd__buf_2
*CAP
1 *2863:A 0.000109326
2 *2867:A 0
3 *2624:RESET_B 0.00117691
4 *2622:RESET_B 2.57878e-05
5 *2620:RESET_B 5.60818e-06
6 *2868:X 0
7 *678:54 0.00177388
8 *678:26 0.00258571
9 *678:12 0.00457328
10 *678:10 0.0041957
11 *678:6 0.00278493
12 *678:4 0.000109326
13 *678:54 *2767:D 0.000147004
14 *678:54 *2778:D 5.33433e-05
15 *678:54 *739:10 0.00055007
16 aempty *678:10 0
17 rd_data[4] *678:10 6.76337e-05
18 *2298:A *678:10 6.42242e-05
19 *2350:A1 *678:10 0
20 *2357:B *678:12 1.32552e-05
21 *2357:C *678:12 0.00010096
22 *2360:A1 *678:10 0
23 *2360:B1 *678:12 1.72894e-05
24 *2361:A2 *678:10 0
25 *2361:B1 *678:10 3.28804e-05
26 *2390:B *678:54 0.000274095
27 *2438:A3 *2624:RESET_B 2.31704e-05
28 *2467:S *2624:RESET_B 0
29 *2550:A1 *2624:RESET_B 0.000122751
30 *2578:A1 *678:12 0.000268403
31 *2596:A0 *678:12 0.000487473
32 *2596:A1 *678:12 5.52302e-05
33 *2596:S *678:12 4.72818e-05
34 *2730:SET_B *678:10 0
35 *2730:SET_B *678:54 0
36 *2739:RESET_B *678:54 0
37 *2782:D *2624:RESET_B 0.000100823
38 *2804:A *2624:RESET_B 0.000103647
39 *2852:A *2624:RESET_B 0
40 *2860:A *2863:A 5.52302e-05
41 *2860:A *678:54 0.000344925
42 *2864:A *678:54 0.000150611
43 *2865:A *678:54 0
44 *2886:A *678:12 0.000224583
45 *2983:A *2624:RESET_B 3.90996e-05
46 *3002:A *678:10 0
47 *3005:A *678:54 0
48 *3006:A *678:54 0
49 *3008:A *678:54 0
50 *3017:A *678:10 0
51 *3018:A *678:10 0
52 *3019:A *678:10 0
53 *3029:A *678:54 0
54 *3032:A *678:10 0.000439641
55 *230:14 *678:10 0
56 *264:10 *678:54 0.000148555
57 *264:18 *678:54 2.11419e-05
58 *331:80 *2624:RESET_B 1.78353e-05
59 *345:22 *2624:RESET_B 0.000355271
60 *345:24 *2624:RESET_B 3.15645e-05
61 *355:90 *2624:RESET_B 0
62 *410:12 *2624:RESET_B 0.000507035
63 *518:25 *678:54 0
64 *551:18 *678:54 0
65 *628:8 *678:12 0.000186662
66 *630:10 *678:26 5.52302e-05
67 *632:14 *2624:RESET_B 0.000128686
68 *633:50 *2624:RESET_B 0
69 *642:78 *2624:RESET_B 0.000177052
70 *645:18 *2624:RESET_B 6.87839e-06
71 *649:14 *678:10 0
72 *659:116 *2624:RESET_B 0
73 *661:10 *2624:RESET_B 5.15925e-05
74 *661:47 *2624:RESET_B 0.000522955
75 *669:40 *678:12 0.000461349
76 *669:44 *2620:RESET_B 1.52723e-05
77 *669:44 *678:12 0.000140822
78 *669:44 *678:26 7.81337e-05
79 *669:50 *2622:RESET_B 2.51837e-05
80 *669:50 *678:26 0.000452336
81 *672:10 *678:54 0.000103253
82 *672:14 *678:54 0.000302417
83 *673:8 *2863:A 2.65105e-05
84 *673:16 *678:54 0
85 *674:92 *678:54 0
86 *676:23 *678:54 0
*RES
1 *2868:X *678:4 9.3 
2 *678:4 *678:6 4.5 
3 *678:6 *678:10 23.75 
4 *678:10 *678:12 56.3929 
5 *678:12 *2620:RESET_B 0.473214 
6 *678:12 *678:26 19.5893 
7 *678:26 *2622:RESET_B 0.473214 
8 *678:26 *2624:RESET_B 39.1161 
9 *678:6 *678:54 47.7679 
10 *678:54 *2867:A 9.3 
11 *678:4 *2863:A 11.5143 
*END

*D_NET *679 0.000455683
*CONN
*I *2774:D I *D sky130_fd_sc_hd__dfrtp_1
*I *2869:X O *D sky130_fd_sc_hd__dlygate4sd3_1
*CAP
1 *2774:D 0.000176215
2 *2869:X 0.000176215
3 *2774:RESET_B *2774:D 0
4 *639:49 *2774:D 0
5 *648:53 *2774:D 0.000103253
*RES
1 *2869:X *2774:D 30.2964 
*END

*D_NET *680 0.000292233
*CONN
*I *2777:D I *D sky130_fd_sc_hd__dfrtp_1
*I *2914:X O *D sky130_fd_sc_hd__dlygate4sd3_1
*CAP
1 *2777:D 0.000146116
2 *2914:X 0.000146116
3 *2741:RESET_B *2777:D 0
*RES
1 *2914:X *2777:D 29.7786 
*END

*D_NET *681 0.000813519
*CONN
*I *2776:D I *D sky130_fd_sc_hd__dfrtp_1
*I *2925:X O *D sky130_fd_sc_hd__dlygate4sd3_1
*CAP
1 *2776:D 0.000278255
2 *2925:X 0.000278255
3 *2776:D *2376:A 0.000132442
4 *2776:D *2758:D 0
5 *2776:D *733:25 5.33882e-05
6 *2745:CLK *2776:D 1.40306e-05
7 *2758:RESET_B *2776:D 0
8 *254:14 *2776:D 0
9 *352:25 *2776:D 5.71472e-05
*RES
1 *2925:X *2776:D 33.35 
*END

*D_NET *682 0.000596358
*CONN
*I *2295:A I *D sky130_fd_sc_hd__inv_2
*I *3022:X O *D sky130_fd_sc_hd__clkbuf_1
*CAP
1 *2295:A 0.000298179
2 *3022:X 0.000298179
3 *2295:A *2294:A 0
4 *2297:A *2295:A 0
*RES
1 *3022:X *2295:A 32.5107 
*END

*D_NET *683 0.00162382
*CONN
*I *2775:D I *D sky130_fd_sc_hd__dfrtp_1
*I *2936:X O *D sky130_fd_sc_hd__dlygate4sd3_1
*CAP
1 *2775:D 0.000442595
2 *2936:X 0.000442595
3 *2775:D *2755:D 0
4 *2775:D *2757:D 0.00017309
5 *2775:D *2760:D 0.000198729
6 *633:14 *2775:D 0.000125057
7 *675:42 *2775:D 0.000107431
8 *675:59 *2775:D 9.68159e-05
9 *675:68 *2775:D 3.75052e-05
*RES
1 *2936:X *2775:D 38.4036 
*END

*D_NET *684 0.00172605
*CONN
*I *2778:D I *D sky130_fd_sc_hd__dfrtp_2
*I *2947:X O *D sky130_fd_sc_hd__dlygate4sd3_1
*CAP
1 *2778:D 0.000484464
2 *2947:X 0.000484464
3 *2739:RESET_B *2778:D 0
4 *676:23 *2778:D 0.000703778
5 *678:54 *2778:D 5.33433e-05
*RES
1 *2947:X *2778:D 38.2964 
*END

*D_NET *685 0.00142802
*CONN
*I *2566:A0 I *D sky130_fd_sc_hd__mux2_1
*I *2958:X O *D sky130_fd_sc_hd__dlygate4sd3_1
*CAP
1 *2566:A0 0.000400482
2 *2958:X 0.000400482
3 *2424:S0 *2566:A0 0.000262498
4 *2566:A1 *2566:A0 0.000178847
5 *2575:A0 *2566:A0 0.000109912
6 *2575:A1 *2566:A0 1.9779e-05
7 *2575:S *2566:A0 1.92905e-05
8 *2958:A *2566:A0 3.67345e-05
*RES
1 *2958:X *2566:A0 25.4393 
*END

*D_NET *686 0.000975841
*CONN
*I *2471:A0 I *D sky130_fd_sc_hd__mux2_1
*I *2969:X O *D sky130_fd_sc_hd__dlygate4sd3_1
*CAP
1 *2471:A0 0.000295974
2 *2969:X 0.000295974
3 *2481:A1 *2471:A0 0.000250061
4 *2969:A *2471:A0 5.41763e-05
5 *323:20 *2471:A0 2.44318e-05
6 *664:82 *2471:A0 5.52238e-05
*RES
1 *2969:X *2471:A0 23.6536 
*END

*D_NET *687 0.00135769
*CONN
*I *2491:A0 I *D sky130_fd_sc_hd__mux2_1
*I *2980:X O *D sky130_fd_sc_hd__dlygate4sd3_1
*CAP
1 *2491:A0 0.000539912
2 *2980:X 0.000539912
3 *2491:A0 *2759:D 0.000130061
4 *2491:S *2491:A0 5.52238e-05
5 *2642:D *2491:A0 1.40415e-05
6 *2759:CLK *2491:A0 5.26059e-05
7 *2980:A *2491:A0 2.59355e-05
8 *633:22 *2491:A0 0
9 *634:168 *2491:A0 0
*RES
1 *2980:X *2491:A0 36.2607 
*END

*D_NET *688 0.000350843
*CONN
*I *2483:A0 I *D sky130_fd_sc_hd__mux2_1
*I *2991:X O *D sky130_fd_sc_hd__dlygate4sd3_1
*CAP
1 *2483:A0 0.000134299
2 *2991:X 0.000134299
3 *2483:A1 *2483:A0 2.89114e-05
4 *2483:S *2483:A0 5.33334e-05
*RES
1 *2991:X *2483:A0 20.7786 
*END

*D_NET *689 0.00040612
*CONN
*I *2583:A0 I *D sky130_fd_sc_hd__mux2_1
*I *2870:X O *D sky130_fd_sc_hd__dlygate4sd3_1
*CAP
1 *2583:A0 5.67847e-05
2 *2870:X 5.67847e-05
3 *2420:S0 *2583:A0 0.000146275
4 *2619:RESET_B *2583:A0 0.000146275
*RES
1 *2870:X *2583:A0 29.5464 
*END

*D_NET *690 0.000452487
*CONN
*I *2529:A0 I *D sky130_fd_sc_hd__mux2_1
*I *2881:X O *D sky130_fd_sc_hd__dlygate4sd3_1
*CAP
1 *2529:A0 6.4013e-05
2 *2881:X 6.4013e-05
3 *2529:A0 *705:12 4.16984e-05
4 *2425:A1 *2529:A0 0.00018372
5 *2881:A *2529:A0 9.90431e-05
*RES
1 *2881:X *2529:A0 20.7786 
*END

*D_NET *691 0.00144378
*CONN
*I *2484:A0 I *D sky130_fd_sc_hd__mux2_1
*I *2892:X O *D sky130_fd_sc_hd__dlygate4sd3_1
*CAP
1 *2484:A0 0.000333134
2 *2892:X 0.000333134
3 *2474:A1 *2484:A0 0.000243627
4 *2484:S *2484:A0 3.25078e-05
5 *2961:A *2484:A0 0.000141994
6 *339:142 *2484:A0 0.000359387
7 *647:78 *2484:A0 0
*RES
1 *2892:X *2484:A0 34.8679 
*END

*D_NET *692 0.000235729
*CONN
*I *2530:A0 I *D sky130_fd_sc_hd__mux2_1
*I *2903:X O *D sky130_fd_sc_hd__dlygate4sd3_1
*CAP
1 *2530:A0 4.03783e-05
2 *2903:X 4.03783e-05
3 *333:74 *2530:A0 0.000102545
4 *650:66 *2530:A0 5.24274e-05
*RES
1 *2903:X *2530:A0 28.9393 
*END

*D_NET *693 0.0005899
*CONN
*I *2294:A I *D sky130_fd_sc_hd__inv_2
*I *3023:X O *D sky130_fd_sc_hd__clkbuf_1
*CAP
1 *2294:A 0.00029495
2 *3023:X 0.00029495
3 *2295:A *2294:A 0
*RES
1 *3023:X *2294:A 32.5107 
*END

*D_NET *694 0.000677165
*CONN
*I *2535:A0 I *D sky130_fd_sc_hd__mux2_1
*I *2908:X O *D sky130_fd_sc_hd__dlygate4sd3_1
*CAP
1 *2535:A0 0.000232477
2 *2908:X 0.000232477
3 *2495:S *2535:A0 2.56694e-05
4 *2680:CLK *2535:A0 0.000144951
5 *639:111 *2535:A0 4.15914e-05
*RES
1 *2908:X *2535:A0 31.225 
*END

*D_NET *695 0.000647555
*CONN
*I *2540:A0 I *D sky130_fd_sc_hd__mux2_1
*I *2909:X O *D sky130_fd_sc_hd__dlygate4sd3_1
*CAP
1 *2540:A0 0.000286224
2 *2909:X 0.000286224
3 *2540:A1 *2540:A0 5.52238e-05
4 *2541:S *2540:A0 0
5 *334:93 *2540:A0 1.98839e-05
*RES
1 *2909:X *2540:A0 31.225 
*END

*D_NET *696 0.000366242
*CONN
*I *2511:A0 I *D sky130_fd_sc_hd__mux2_1
*I *2910:X O *D sky130_fd_sc_hd__dlygate4sd3_1
*CAP
1 *2511:A0 0.000158027
2 *2910:X 0.000158027
3 *2511:A1 *2511:A0 2.59355e-05
4 *331:94 *2511:A0 2.42516e-05
*RES
1 *2910:X *2511:A0 20.7786 
*END

*D_NET *697 0.000986889
*CONN
*I *2567:A0 I *D sky130_fd_sc_hd__mux2_1
*I *2911:X O *D sky130_fd_sc_hd__dlygate4sd3_1
*CAP
1 *2567:A0 0.000267234
2 *2911:X 0.000267234
3 *2512:A1 *2567:A0 0.000309266
4 *2911:A *2567:A0 3.18676e-05
5 *331:80 *2567:A0 5.33882e-05
6 *345:22 *2567:A0 3.34672e-05
7 *663:43 *2567:A0 2.44318e-05
*RES
1 *2911:X *2567:A0 32.8857 
*END

*D_NET *698 0.00029872
*CONN
*I *2493:A0 I *D sky130_fd_sc_hd__mux2_1
*I *2912:X O *D sky130_fd_sc_hd__dlygate4sd3_1
*CAP
1 *2493:A0 0.00010037
2 *2912:X 0.00010037
3 *2493:A1 *2493:A0 2.89016e-05
4 *2493:S *2493:A0 4.01768e-05
5 *402:8 *2493:A0 2.89016e-05
*RES
1 *2912:X *2493:A0 20.7786 
*END

*D_NET *699 0.00110481
*CONN
*I *2595:A0 I *D sky130_fd_sc_hd__mux2_1
*I *2913:X O *D sky130_fd_sc_hd__dlygate4sd3_1
*CAP
1 *2595:A0 0.000174902
2 *2913:X 0.000174902
3 *2586:A0 *2595:A0 2.44318e-05
4 *2586:A1 *2595:A0 0.000399848
5 *2586:S *2595:A0 9.90431e-05
6 *2595:S *2595:A0 5.33005e-05
7 *2913:A *2595:A0 0.000178385
*RES
1 *2913:X *2595:A0 24.475 
*END

*D_NET *700 0.00093166
*CONN
*I *2534:A0 I *D sky130_fd_sc_hd__mux2_1
*I *2915:X O *D sky130_fd_sc_hd__dlygate4sd3_1
*CAP
1 *2534:A0 0.000250982
2 *2915:X 0.000250982
3 *2457:A1 *2534:A0 3.28897e-05
4 *2460:S1 *2534:A0 0.000151333
5 *2580:S *2534:A0 0.000181796
6 *646:82 *2534:A0 3.06878e-06
7 *654:64 *2534:A0 6.06083e-05
*RES
1 *2915:X *2534:A0 32.2607 
*END

*D_NET *701 0.00113087
*CONN
*I *2526:A0 I *D sky130_fd_sc_hd__mux2_1
*I *2916:X O *D sky130_fd_sc_hd__dlygate4sd3_1
*CAP
1 *2526:A0 0.00028646
2 *2916:X 0.00028646
3 *2526:S *2526:A0 5.71472e-05
4 *2552:S *2526:A0 0
5 *2916:A *2526:A0 0
6 *651:65 *2526:A0 0.000445571
7 *651:71 *2526:A0 5.52302e-05
*RES
1 *2916:X *2526:A0 34.1893 
*END

*D_NET *702 0.000734825
*CONN
*I *2588:A0 I *D sky130_fd_sc_hd__mux2_1
*I *2917:X O *D sky130_fd_sc_hd__dlygate4sd3_1
*CAP
1 *2588:A0 0.000209072
2 *2917:X 0.000209072
3 *2588:S *2588:A0 7.83659e-05
4 *346:29 *2588:A0 1.32056e-05
5 *346:33 *2588:A0 0.00022511
*RES
1 *2917:X *2588:A0 30.8143 
*END

*D_NET *703 0.00041797
*CONN
*I *2531:A0 I *D sky130_fd_sc_hd__mux2_1
*I *2918:X O *D sky130_fd_sc_hd__dlygate4sd3_1
*CAP
1 *2531:A0 5.1664e-05
2 *2918:X 5.1664e-05
3 *2531:A1 *2531:A0 5.52238e-05
4 *2918:A *2531:A0 3.98559e-05
5 *333:122 *2531:A0 9.90431e-05
6 *338:44 *2531:A0 0.000120519
*RES
1 *2918:X *2531:A0 20.7786 
*END

*D_NET *704 0.000814973
*CONN
*I *2842:A I *D sky130_fd_sc_hd__clkbuf_2
*I *2731:Q O *D sky130_fd_sc_hd__dfrtp_1
*CAP
1 *2842:A 0.00025932
2 *2731:Q 0.00025932
3 *2842:A *2338:A 0.000109671
4 *647:27 *2842:A 0
5 *648:8 *2842:A 0
6 *648:20 *2842:A 0
7 *669:28 *2842:A 0.000186662
*RES
1 *2731:Q *2842:A 33.1357 
*END

*D_NET *705 0.00896882
*CONN
*I *2837:A I *D sky130_fd_sc_hd__buf_2
*I *2835:A I *D sky130_fd_sc_hd__clkbuf_4
*I *2446:S1 I *D sky130_fd_sc_hd__mux4_1
*I *2425:S1 I *D sky130_fd_sc_hd__mux4_1
*I *2732:Q O *D sky130_fd_sc_hd__dfrtp_1
*CAP
1 *2837:A 0.000216481
2 *2835:A 0.000135359
3 *2446:S1 0.000488751
4 *2425:S1 0.000362189
5 *2732:Q 0
6 *705:40 0.000499648
7 *705:12 0.00233203
8 *705:6 0.0016289
9 *705:12 *753:10 0
10 *705:40 *753:10 0
11 *2395:B *2835:A 1.58163e-05
12 *2395:C *2835:A 1.95435e-05
13 *2396:B *2835:A 5.71472e-05
14 *2397:B *2837:A 2.84494e-05
15 *2403:C *2835:A 9.60395e-05
16 *2425:A0 *2425:S1 2.59355e-05
17 *2425:A0 *2446:S1 7.6644e-05
18 *2425:A0 *705:12 2.59355e-05
19 *2425:A1 *705:12 5.12966e-05
20 *2425:A2 *2425:S1 2.921e-05
21 *2425:A3 *2425:S1 1.24815e-05
22 *2425:S0 *2425:S1 5.52302e-05
23 *2426:A0 *2425:S1 2.85015e-05
24 *2426:A0 *705:12 5.20359e-06
25 *2446:A1 *2446:S1 0.000340066
26 *2446:A2 *2446:S1 6.92626e-05
27 *2529:A0 *705:12 4.16984e-05
28 *2732:RESET_B *2837:A 0
29 *2732:RESET_B *705:40 0
30 *2783:D *2446:S1 0.000175519
31 *2881:A *705:12 0.00019243
32 *2892:A *2446:S1 0.000213635
33 *2961:A *2446:S1 0.000122417
34 *268:6 *2835:A 2.44318e-05
35 *325:34 *2425:S1 2.59093e-05
36 *327:103 *2446:S1 0.000390568
37 *339:142 *2425:S1 6.0038e-05
38 *634:40 *705:12 3.42639e-05
39 *637:62 *2446:S1 6.80581e-05
40 *647:78 *2446:S1 0
41 *648:53 *2837:A 2.41865e-05
42 *648:53 *705:12 0.000198698
43 *648:53 *705:40 0.000256842
44 *648:78 *2837:A 0.000355375
45 *668:79 *705:12 0.000184635
46 *672:40 *2837:A 0
*RES
1 *2732:Q *705:6 13.8 
2 *705:6 *705:12 24.4286 
3 *705:12 *2425:S1 23.2643 
4 *705:12 *2446:S1 32.6214 
5 *705:6 *705:40 3.46429 
6 *705:40 *2835:A 16.8 
7 *705:40 *2837:A 18.7821 
*END

*D_NET *706 0.000938059
*CONN
*I *2833:A I *D sky130_fd_sc_hd__clkbuf_2
*I *2832:A I *D sky130_fd_sc_hd__buf_4
*I *2733:Q O *D sky130_fd_sc_hd__dfrtp_1
*CAP
1 *2833:A 0
2 *2832:A 0.000187813
3 *2733:Q 0.000144131
4 *706:8 0.000331943
5 *2832:A *2403:A 0
6 *2832:A *754:10 6.44999e-05
7 *637:10 *2832:A 6.76116e-05
8 *637:16 *2832:A 2.06178e-05
9 *639:6 *2832:A 5.33005e-05
10 *640:6 *706:8 1.92905e-05
11 *640:14 *706:8 4.88515e-05
*RES
1 *2733:Q *706:8 11.9071 
2 *706:8 *2832:A 21.6929 
3 *706:8 *2833:A 9.3 
*END

*D_NET *707 0.00633357
*CONN
*I *2831:A I *D sky130_fd_sc_hd__buf_4
*I *2430:S I *D sky130_fd_sc_hd__mux2_1
*I *2411:A I *D sky130_fd_sc_hd__xnor2_1
*I *2403:A I *D sky130_fd_sc_hd__and3_1
*I *2734:Q O *D sky130_fd_sc_hd__dfrtp_1
*CAP
1 *2831:A 0
2 *2430:S 0.00187087
3 *2411:A 0
4 *2403:A 0.000346033
5 *2734:Q 0.000199713
6 *707:23 0.00221735
7 *707:21 0.000384717
8 *707:6 0.000583988
9 *2403:A *753:10 0.000156037
10 *2403:A *754:10 0
11 *2430:A0 *2430:S 0.000105598
12 *2431:A1 *2430:S 1.74782e-05
13 *2737:RESET_B *2430:S 2.52732e-05
14 *2770:CLK *2430:S 0.000117553
15 *2770:RESET_B *2430:S 1.27848e-05
16 *2832:A *2403:A 0
17 *637:10 *2403:A 0
18 *637:10 *707:6 5.52238e-05
19 *640:49 *2403:A 5.01117e-05
20 *648:78 *707:23 9.60875e-05
21 *672:30 *707:6 6.41996e-05
22 *672:30 *707:21 0
23 *672:76 *2430:S 3.05475e-05
*RES
1 *2734:Q *707:6 11.8893 
2 *707:6 *2403:A 25.0321 
3 *707:6 *707:21 0.732143 
4 *707:21 *707:23 5.875 
5 *707:23 *2411:A 9.3 
6 *707:23 *2430:S 31.7286 
7 *707:21 *2831:A 9.3 
*END

*D_NET *708 0.00675562
*CONN
*I *2417:A I *D sky130_fd_sc_hd__xor2_1
*I *2409:A I *D sky130_fd_sc_hd__xnor2_1
*I *2773:D I *D sky130_fd_sc_hd__dfrtp_1
*I *2346:B I *D sky130_fd_sc_hd__xnor2_1
*I *2345:B I *D sky130_fd_sc_hd__xor2_1
*I *2735:Q O *D sky130_fd_sc_hd__dfrtp_4
*CAP
1 *2417:A 0
2 *2409:A 0
3 *2773:D 0.00033159
4 *2346:B 0
5 *2345:B 7.29724e-05
6 *2735:Q 0.000287819
7 *708:42 0.0011789
8 *708:34 0.00103618
9 *708:25 0.00038372
10 *708:10 0.000555644
11 *2345:B *2345:A 0.000153047
12 *2773:D *755:10 0
13 *708:10 *2330:A 0
14 *708:10 *2345:A 3.17148e-05
15 *708:25 *2346:A 0.000372337
16 *708:34 *2346:A 3.57366e-05
17 *708:42 *2334:A 0
18 *708:42 *2735:D 0
19 *708:42 *755:10 0
20 *2407:A2 *708:42 6.09476e-05
21 *2407:B2 *708:42 1.69115e-05
22 *2409:B *2773:D 3.34366e-05
23 *2409:B *708:42 0.000605761
24 *2413:A *708:42 0.000247803
25 *2413:C *708:42 3.92854e-05
26 *2735:RESET_B *708:10 4.96155e-05
27 *2773:CLK *2773:D 0.000102207
28 *2773:RESET_B *2773:D 0.000318107
29 *2862:A *708:10 0
30 *213:10 *708:25 1.21289e-05
31 *213:10 *708:34 0.000396898
32 *213:10 *708:42 3.34366e-05
33 *228:10 *2345:B 9.25014e-06
34 *229:6 *708:34 1.98839e-05
35 *273:10 *708:42 0
36 *551:18 *708:10 9.85156e-05
37 *634:26 *708:10 0.000146533
38 *637:174 *2345:B 0
39 *637:174 *708:10 0
40 *668:79 *708:42 0.000125242
41 *668:112 *708:42 0
42 *673:16 *708:10 0
*RES
1 *2735:Q *708:10 20.3714 
2 *708:10 *2345:B 15.7464 
3 *708:10 *708:25 8.75 
4 *708:25 *2346:B 9.3 
5 *708:25 *708:34 4.66071 
6 *708:34 *708:42 26.7679 
7 *708:42 *2773:D 25.9786 
8 *708:42 *2409:A 9.3 
9 *708:34 *2417:A 9.3 
*END

*D_NET *709 0.000503688
*CONN
*I *2731:D I *D sky130_fd_sc_hd__dfrtp_1
*I *2393:Y O *D sky130_fd_sc_hd__nor2_1
*CAP
1 *2731:D 0.000139727
2 *2393:Y 0.000139727
3 *2391:A *2731:D 9.60875e-05
4 *642:101 *2731:D 0.000128146
5 *673:58 *2731:D 0
*RES
1 *2393:Y *2731:D 30.1893 
*END

*D_NET *710 0.000718677
*CONN
*I *2732:D I *D sky130_fd_sc_hd__dfrtp_1
*I *2396:Y O *D sky130_fd_sc_hd__nor2_1
*CAP
1 *2732:D 0.000202893
2 *2396:Y 0.000202893
3 *2394:B1 *2732:D 0
4 *2733:CLK *2732:D 0.000128146
5 *640:20 *2732:D 0.000184745
6 *642:12 *2732:D 0
*RES
1 *2396:Y *2732:D 31.0107 
*END

*D_NET *711 0.000413299
*CONN
*I *2733:D I *D sky130_fd_sc_hd__dfrtp_1
*I *2399:Y O *D sky130_fd_sc_hd__nor2_1
*CAP
1 *2733:D 6.56989e-05
2 *2399:Y 6.56989e-05
3 *2733:CLK *2733:D 5.33433e-05
4 *640:14 *2733:D 0.000228558
*RES
1 *2399:Y *2733:D 20.7786 
*END

*D_NET *712 0.000745185
*CONN
*I *2734:D I *D sky130_fd_sc_hd__dfrtp_1
*I *2416:Y O *D sky130_fd_sc_hd__nor2_1
*CAP
1 *2734:D 0.000350528
2 *2416:Y 0.000350528
3 *2734:D *2330:A 0
4 *2416:A *2734:D 6.05161e-06
5 *2416:B *2734:D 1.56e-05
6 *637:174 *2734:D 2.24782e-05
7 *668:112 *2734:D 0
*RES
1 *2416:Y *2734:D 31.9393 
*END

*D_NET *713 0.000786265
*CONN
*I *2735:D I *D sky130_fd_sc_hd__dfrtp_4
*I *2417:X O *D sky130_fd_sc_hd__xor2_1
*CAP
1 *2735:D 0.000152412
2 *2417:X 0.000152412
3 *213:10 *2735:D 1.87955e-05
4 *551:18 *2735:D 0.00018372
5 *634:26 *2735:D 4.21105e-05
6 *668:55 *2735:D 0.000168217
7 *668:79 *2735:D 6.85983e-05
8 *708:42 *2735:D 0
*RES
1 *2417:X *2735:D 31.6179 
*END

*D_NET *714 0.00130371
*CONN
*I *2299:A I *D sky130_fd_sc_hd__xnor2_2
*I *2314:B I *D sky130_fd_sc_hd__xor2_2
*I *2778:Q O *D sky130_fd_sc_hd__dfrtp_2
*CAP
1 *2299:A 0.0001618
2 *2314:B 0.000369191
3 *2778:Q 0.000207391
4 *2299:A *2914:A 0
5 *2299:A *728:8 0.000271345
6 *2741:CLK *2299:A 6.26466e-05
7 *676:46 *2299:A 0.000132301
8 *676:54 *2299:A 9.90367e-05
*RES
1 *2778:Q *2314:B 12.6661 
2 *2314:B *2299:A 23.1393 
*END

*D_NET *715 0.000928569
*CONN
*I *2769:D I *D sky130_fd_sc_hd__dfrtp_1
*I *2736:Q O *D sky130_fd_sc_hd__dfrtp_1
*CAP
1 *2769:D 0.000372003
2 *2736:Q 0.000372003
3 *348:76 *2769:D 3.79467e-05
4 *634:52 *2769:D 0.00010326
5 *639:49 *2769:D 3.96654e-05
6 *668:26 *2769:D 3.69047e-06
*RES
1 *2736:Q *2769:D 32.7607 
*END

*D_NET *716 0.000778829
*CONN
*I *2770:D I *D sky130_fd_sc_hd__dfrtp_1
*I *2737:Q O *D sky130_fd_sc_hd__dfrtp_1
*CAP
1 *2770:D 0.000285212
2 *2737:Q 0.000285212
3 *2430:A0 *2770:D 9.91086e-05
4 *633:22 *2770:D 0.000100831
5 *639:18 *2770:D 8.46507e-06
*RES
1 *2737:Q *2770:D 31.5286 
*END

*D_NET *717 0.00147357
*CONN
*I *2771:D I *D sky130_fd_sc_hd__dfrtp_1
*I *2738:Q O *D sky130_fd_sc_hd__dfrtp_1
*CAP
1 *2771:D 0.000472669
2 *2738:Q 0.000472669
3 *2771:D *2766:D 0.000149821
4 *2773:CLK *2771:D 0.000100625
5 *670:41 *2771:D 0
6 *674:18 *2771:D 6.39901e-05
7 *674:22 *2771:D 9.56968e-05
8 *674:47 *2771:D 0.000118095
*RES
1 *2738:Q *2771:D 38.0464 
*END

*D_NET *718 0.000462555
*CONN
*I *2772:D I *D sky130_fd_sc_hd__dfrtp_1
*I *2739:Q O *D sky130_fd_sc_hd__dfrtp_1
*CAP
1 *2772:D 0.000145313
2 *2739:Q 0.000145313
3 *352:29 *2772:D 6.86693e-05
4 *676:23 *2772:D 0.00010326
*RES
1 *2739:Q *2772:D 30.2964 
*END

*D_NET *719 0.00211431
*CONN
*I *2405:B I *D sky130_fd_sc_hd__xor2_1
*I *2736:D I *D sky130_fd_sc_hd__dfrtp_1
*I *2404:Y O *D sky130_fd_sc_hd__xnor2_1
*CAP
1 *2405:B 0.000211783
2 *2736:D 3.29957e-05
3 *2404:Y 0.000415192
4 *719:10 0.00065997
5 *2405:B *2338:A 0.000126573
6 *719:10 *2338:A 7.04631e-05
7 *2736:RESET_B *2736:D 0.000186662
8 *648:8 *719:10 0
9 *648:53 *2405:B 0
10 *648:53 *719:10 0
11 *668:20 *2736:D 1.39726e-05
12 *668:26 *2736:D 8.07313e-05
13 *669:28 *719:10 0.000315964
*RES
1 *2404:Y *719:10 21.8179 
2 *719:10 *2736:D 15.5679 
3 *719:10 *2405:B 18.175 
*END

*D_NET *720 0.00506468
*CONN
*I *2737:D I *D sky130_fd_sc_hd__dfrtp_1
*I *2401:B I *D sky130_fd_sc_hd__and2_1
*I *2402:B I *D sky130_fd_sc_hd__nor2_1
*I *2400:Y O *D sky130_fd_sc_hd__xnor2_1
*CAP
1 *2737:D 0.000534622
2 *2401:B 0
3 *2402:B 0.000185532
4 *2400:Y 0
5 *720:18 0.000603638
6 *720:6 0.000952728
7 *2402:B *2334:A 4.038e-06
8 *2402:B *2402:A 5.52238e-05
9 *2402:B *754:18 0.000100736
10 *720:18 *2401:A 9.71197e-05
11 *2399:A *2737:D 0.000171034
12 *2399:B *2737:D 0.000148352
13 *2407:A2 *2402:B 6.05161e-06
14 *2407:C1 *2402:B 4.46186e-06
15 *2732:RESET_B *720:18 0.000346412
16 *2733:CLK *2737:D 5.01695e-05
17 *273:6 *2402:B 2.61099e-05
18 *363:10 *2737:D 0
19 *551:18 *720:18 0.000276447
20 *551:26 *720:18 0.000136837
21 *634:26 *720:18 0.000584621
22 *639:18 *2737:D 0.000425885
23 *639:49 *2737:D 0
24 *639:49 *720:18 0
25 *640:49 *2402:B 3.17163e-05
26 *640:55 *2402:B 7.2754e-05
27 *642:99 *2737:D 0.000120325
28 *642:99 *720:18 0.000129868
*RES
1 *2400:Y *720:6 13.8 
2 *720:6 *720:18 17.625 
3 *720:18 *2402:B 22.6393 
4 *720:18 *2401:B 9.3 
5 *720:6 *2737:D 25.7107 
*END

*D_NET *721 0.00229004
*CONN
*I *2412:B I *D sky130_fd_sc_hd__xnor2_1
*I *2738:D I *D sky130_fd_sc_hd__dfrtp_1
*I *2411:Y O *D sky130_fd_sc_hd__xnor2_1
*CAP
1 *2412:B 0.000493947
2 *2738:D 0.000246373
3 *2411:Y 0.000289521
4 *721:8 0.00102984
5 *2412:B *753:10 3.67257e-05
6 *2738:D *2765:D 0
7 *721:8 *2765:D 0
8 *2642:CLK *2738:D 0
9 *644:27 *721:8 0
10 *648:78 *721:8 0
11 *669:106 *721:8 0
12 *672:66 *2412:B 0.000193631
*RES
1 *2411:Y *721:8 18.4786 
2 *721:8 *2738:D 18.175 
3 *721:8 *2412:B 23.4964 
*END

*D_NET *722 0.00320613
*CONN
*I *2739:D I *D sky130_fd_sc_hd__dfrtp_1
*I *2410:B I *D sky130_fd_sc_hd__xnor2_1
*I *2409:Y O *D sky130_fd_sc_hd__xnor2_1
*CAP
1 *2739:D 0.00139159
2 *2410:B 0
3 *2409:Y 0.000165503
4 *722:8 0.00155709
5 *2739:D *2410:A 5.52238e-05
6 *2739:D *2762:D 0
7 *2739:D *2768:D 0
8 *2739:D *2947:A 0
9 *2739:D *739:10 0
10 *2739:D *756:14 0
11 *2413:B *722:8 3.67142e-05
12 *2739:CLK *2739:D 0
13 *2739:RESET_B *2739:D 0
14 *2861:A *2739:D 0
15 *670:10 *2739:D 0
*RES
1 *2409:Y *722:8 12.3179 
2 *722:8 *2410:B 9.3 
3 *722:8 *2739:D 42.9786 
*END

*D_NET *723 0.000589328
*CONN
*I *2869:A I *D sky130_fd_sc_hd__dlygate4sd3_1
*I *2769:Q O *D sky130_fd_sc_hd__dfrtp_1
*CAP
1 *2869:A 0.000168364
2 *2769:Q 0.000168364
3 *2769:RESET_B *2869:A 1.72894e-05
4 *639:49 *2869:A 0.000116535
5 *642:99 *2869:A 0.000118775
*RES
1 *2769:Q *2869:A 32.2071 
*END

*D_NET *724 0.00276908
*CONN
*I *2936:A I *D sky130_fd_sc_hd__dlygate4sd3_1
*I *2770:Q O *D sky130_fd_sc_hd__dfrtp_1
*CAP
1 *2936:A 0.000536695
2 *2770:Q 0.000536695
3 *2936:A *2765:D 0
4 *363:10 *2936:A 0.00120399
5 *633:14 *2936:A 9.90431e-05
6 *669:106 *2936:A 3.01126e-05
7 *672:76 *2936:A 0.000362538
*RES
1 *2770:Q *2936:A 43.85 
*END

*D_NET *725 0.0018882
*CONN
*I *2925:A I *D sky130_fd_sc_hd__dlygate4sd3_1
*I *2771:Q O *D sky130_fd_sc_hd__dfrtp_1
*CAP
1 *2925:A 0.000889681
2 *2771:Q 0.000889681
3 *2925:A *2763:D 0
4 *2925:A *733:25 0
5 *2758:RESET_B *2925:A 0.000108839
6 *2818:A *2925:A 0
7 *351:14 *2925:A 0
8 *675:96 *2925:A 0
*RES
1 *2771:Q *2925:A 41.1714 
*END

*D_NET *726 0.00124551
*CONN
*I *2914:A I *D sky130_fd_sc_hd__dlygate4sd3_1
*I *2772:Q O *D sky130_fd_sc_hd__dfrtp_1
*CAP
1 *2914:A 0.00057538
2 *2772:Q 0.00057538
3 *2299:A *2914:A 0
4 *2741:CLK *2914:A 0
5 *2741:RESET_B *2914:A 0
6 *2778:RESET_B *2914:A 9.47456e-05
7 *352:60 *2914:A 0
*RES
1 *2772:Q *2914:A 37.5107 
*END

*D_NET *727 0.00153411
*CONN
*I *2947:A I *D sky130_fd_sc_hd__dlygate4sd3_1
*I *2773:Q O *D sky130_fd_sc_hd__dfrtp_1
*CAP
1 *2947:A 0.000588759
2 *2773:Q 0.000588759
3 *2947:A *739:10 0
4 *2739:D *2947:A 0
5 *2739:RESET_B *2947:A 8.40012e-05
6 *2767:RESET_B *2947:A 5.33786e-05
7 *674:92 *2947:A 0.000219215
*RES
1 *2773:Q *2947:A 39.9036 
*END

*D_NET *728 0.00228237
*CONN
*I *2299:B I *D sky130_fd_sc_hd__xnor2_2
*I *2376:A I *D sky130_fd_sc_hd__xnor2_1
*I *2777:Q O *D sky130_fd_sc_hd__dfrtp_1
*CAP
1 *2299:B 0
2 *2376:A 0.000304625
3 *2777:Q 0.000296105
4 *728:8 0.00060073
5 *2376:A *2314:A 0.000287001
6 *2376:A *733:27 5.52238e-05
7 *2299:A *728:8 0.000271345
8 *2758:RESET_B *2376:A 0
9 *2776:D *2376:A 0.000132442
10 *198:8 *2376:A 0.00015234
11 *254:14 *2376:A 0
12 *676:46 *728:8 6.79057e-05
13 *676:54 *728:8 0.000114655
*RES
1 *2777:Q *728:8 16.0143 
2 *728:8 *2376:A 25.4607 
3 *728:8 *2299:B 9.3 
*END

*D_NET *729 0.00497941
*CONN
*I *2365:A I *D sky130_fd_sc_hd__nor2_1
*I *2292:A I *D sky130_fd_sc_hd__inv_2
*I *2366:A I *D sky130_fd_sc_hd__and2_1
*I *2488:B I *D sky130_fd_sc_hd__or3b_4
*I *2468:B I *D sky130_fd_sc_hd__or3b_4
*I *2368:B I *D sky130_fd_sc_hd__and3_2
*I *2742:Q O *D sky130_fd_sc_hd__dfrtp_1
*CAP
1 *2365:A 4.70992e-05
2 *2292:A 8.60323e-05
3 *2366:A 0.00015679
4 *2488:B 0
5 *2468:B 0.000232866
6 *2368:B 0.000302301
7 *2742:Q 0
8 *729:48 0.000232764
9 *729:25 0.000254149
10 *729:10 0.000386601
11 *729:8 0.000781096
12 *729:4 0.000660922
13 *2366:A *2742:D 0
14 *2468:B *730:19 5.71472e-05
15 *729:8 *2742:D 4.58194e-05
16 *729:10 *730:10 6.42338e-05
17 *729:25 *730:19 5.52238e-05
18 *2468:A *2368:B 0
19 *2468:A *2468:B 0.000186662
20 *2468:C_N *2468:B 5.71472e-05
21 *2478:B *2368:B 0.00015234
22 *2740:CLK *2366:A 2.39876e-05
23 *2742:RESET_B *729:8 1.48969e-05
24 *2743:RESET_B *729:8 1.06778e-05
25 *175:16 *2368:B 0.00022459
26 *246:61 *2468:B 8.18698e-05
27 *247:12 *2365:A 1.97695e-05
28 *247:12 *729:8 0.00029608
29 *247:12 *729:48 3.18676e-05
30 *248:19 *2366:A 0.00019384
31 *248:19 *2368:B 2.31791e-05
32 *248:19 *729:10 0.000146474
33 *322:10 *2468:B 2.89114e-05
34 *326:12 *2368:B 0
35 *350:71 *2368:B 3.34783e-05
36 *677:31 *2292:A 8.15843e-05
37 *677:31 *729:48 9.00795e-06
*RES
1 *2742:Q *729:4 9.3 
2 *729:4 *729:8 12.0179 
3 *729:8 *729:10 1.94643 
4 *729:10 *2368:B 19.1393 
5 *729:10 *729:25 5.03571 
6 *729:25 *2468:B 14.7643 
7 *729:25 *2488:B 9.3 
8 *729:8 *2366:A 16.9607 
9 *729:4 *729:48 1.35714 
10 *729:48 *2292:A 20.2464 
11 *729:48 *2365:A 10.3357 
*END

*D_NET *730 0.00240723
*CONN
*I *2369:A I *D sky130_fd_sc_hd__nor2_1
*I *2382:A I *D sky130_fd_sc_hd__xnor2_1
*I *2368:A I *D sky130_fd_sc_hd__and3_2
*I *2291:A I *D sky130_fd_sc_hd__inv_2
*I *2488:A I *D sky130_fd_sc_hd__or3b_4
*I *2743:Q O *D sky130_fd_sc_hd__dfrtp_1
*CAP
1 *2369:A 0.000112399
2 *2382:A 0
3 *2368:A 0
4 *2291:A 7.16653e-05
5 *2488:A 0
6 *2743:Q 8.0617e-05
7 *730:45 0.000130192
8 *730:29 0.000250084
9 *730:19 0.000306095
10 *730:10 0.000190501
11 *2368:C *730:29 9.55557e-05
12 *2369:B *2369:A 0.000123387
13 *2369:B *730:19 5.96516e-05
14 *2369:B *730:45 9.90431e-05
15 *2468:B *730:19 5.71472e-05
16 *175:6 *2291:A 5.52238e-05
17 *175:16 *2291:A 7.77652e-05
18 *175:16 *730:29 2.24763e-05
19 *246:61 *730:19 0.000103977
20 *249:16 *2291:A 0
21 *250:10 *2369:A 0.000229456
22 *250:10 *730:19 5.52302e-05
23 *250:10 *730:29 0.000127446
24 *250:10 *730:45 3.98559e-05
25 *729:10 *730:10 6.42338e-05
26 *729:25 *730:19 5.52238e-05
*RES
1 *2743:Q *730:10 19.9429 
2 *730:10 *2488:A 9.3 
3 *730:10 *730:19 3.01786 
4 *730:19 *730:29 12.4286 
5 *730:29 *2291:A 11.0857 
6 *730:29 *2368:A 9.3 
7 *730:19 *730:45 0.946429 
8 *730:45 *2382:A 9.3 
9 *730:45 *2369:A 13.1571 
*END

*D_NET *731 0.00470703
*CONN
*I *2309:A I *D sky130_fd_sc_hd__or2_1
*I *2830:A I *D sky130_fd_sc_hd__buf_2
*I *2744:Q O *D sky130_fd_sc_hd__dfrtp_1
*CAP
1 *2309:A 0.00188763
2 *2830:A 6.29345e-05
3 *2744:Q 0
4 *731:4 0.00195057
5 *2309:A *2415:A 0
6 *2309:A *732:25 0
7 *2830:A *2755:D 4.25809e-05
8 *2302:A *2309:A 0
9 *2304:A *2309:A 0
10 *2744:RESET_B *2309:A 0.000183713
11 *183:21 *2309:A 0
12 *186:12 *2309:A 0.000343217
13 *364:8 *2309:A 0
14 *365:8 *2309:A 0
15 *639:26 *2830:A 6.65398e-05
16 *676:54 *2309:A 5.33882e-05
17 *677:25 *2309:A 0.00011646
*RES
1 *2744:Q *731:4 9.3 
2 *731:4 *2830:A 19.9429 
3 *731:4 *2309:A 46.0679 
*END

*D_NET *732 0.00650051
*CONN
*I *2301:A I *D sky130_fd_sc_hd__nand2_1
*I *2312:A I *D sky130_fd_sc_hd__nor2_1
*I *2300:A I *D sky130_fd_sc_hd__and2_1
*I *2829:A I *D sky130_fd_sc_hd__clkbuf_4
*I *2745:Q O *D sky130_fd_sc_hd__dfrtp_1
*CAP
1 *2301:A 1.46425e-05
2 *2312:A 0
3 *2300:A 0
4 *2829:A 0.000532175
5 *2745:Q 0
6 *732:34 8.181e-05
7 *732:25 0.00147768
8 *732:4 0.00194269
9 *732:25 *2745:D 0.000306966
10 *2301:B *2301:A 5.71472e-05
11 *2301:B *732:34 5.11901e-05
12 *2302:A *732:25 0.000198698
13 *2309:A *732:25 0
14 *2385:A *2829:A 4.88637e-05
15 *2385:B *2829:A 0.00010096
16 *2745:CLK *732:25 5.33334e-05
17 *2745:RESET_B *732:25 5.19842e-06
18 *2776:RESET_B *732:25 8.81471e-06
19 *2827:A *2829:A 0.000351176
20 *183:10 *732:25 0
21 *183:21 *732:25 0.000274294
22 *183:28 *732:25 8.76257e-05
23 *183:28 *732:34 5.71472e-05
24 *186:12 *732:25 0
25 *254:14 *732:25 0
26 *260:12 *2829:A 0.000144773
27 *365:8 *732:25 0.000125724
28 *633:93 *2829:A 0.000169366
29 *633:93 *732:25 0.00014285
30 *633:99 *2829:A 0.000267383
*RES
1 *2745:Q *732:4 9.3 
2 *732:4 *2829:A 19.925 
3 *732:4 *732:25 33.25 
4 *732:25 *2300:A 9.3 
5 *732:25 *732:34 1.78571 
6 *732:34 *2312:A 9.3 
7 *732:34 *2301:A 9.83571 
*END

*D_NET *733 0.00579347
*CONN
*I *2314:A I *D sky130_fd_sc_hd__xor2_2
*I *2375:A I *D sky130_fd_sc_hd__xnor2_1
*I *2415:A I *D sky130_fd_sc_hd__xnor2_1
*I *2763:D I *D sky130_fd_sc_hd__dfrtp_1
*I *2746:Q O *D sky130_fd_sc_hd__dfrtp_4
*CAP
1 *2314:A 0.000434595
2 *2375:A 2.23854e-05
3 *2415:A 0.000596299
4 *2763:D 0.000212964
5 *2746:Q 3.26173e-05
6 *733:27 0.0010217
7 *733:25 0.00109731
8 *733:8 0.00050528
9 *733:25 *2758:D 0.000154114
10 *733:27 *747:8 0.000211066
11 *2309:A *2415:A 0
12 *2375:B *2415:A 0.000195396
13 *2376:A *2314:A 0.000287001
14 *2376:A *733:27 5.52238e-05
15 *2746:RESET_B *2763:D 0
16 *2746:RESET_B *733:25 0
17 *2758:RESET_B *2314:A 0
18 *2763:RESET_B *2763:D 3.53199e-05
19 *2776:D *733:25 5.33882e-05
20 *2801:A *733:8 5.71472e-05
21 *2802:A *733:25 0
22 *2818:A *733:25 0.000222878
23 *2925:A *2763:D 0
24 *2925:A *733:25 0
25 *345:174 *2415:A 7.77652e-05
26 *351:14 *733:25 4.57445e-05
27 *351:20 *2415:A 0
28 *352:64 *2314:A 0.000269422
29 *364:8 *2415:A 0.00012564
30 *633:8 *2415:A 0
31 *670:29 *2763:D 4.35048e-05
32 *670:29 *733:8 3.67142e-05
*RES
1 *2746:Q *733:8 14.7464 
2 *733:8 *2763:D 17.483 
3 *733:8 *733:25 11.3036 
4 *733:25 *733:27 7.51786 
5 *733:27 *2415:A 30.2821 
6 *733:27 *2375:A 9.72857 
7 *733:25 *2314:A 27.1571 
*END

*D_NET *734 0.000826266
*CONN
*I *2742:D I *D sky130_fd_sc_hd__dfrtp_1
*I *2367:Y O *D sky130_fd_sc_hd__nor2_1
*CAP
1 *2742:D 0.000252418
2 *2367:Y 0.000252418
3 *2366:A *2742:D 0
4 *2743:CLK *2742:D 0.000198952
5 *2743:RESET_B *2742:D 1.5424e-05
6 *350:77 *2742:D 6.12335e-05
7 *729:8 *2742:D 4.58194e-05
*RES
1 *2367:Y *2742:D 32.5464 
*END

*D_NET *735 0.00104374
*CONN
*I *2743:D I *D sky130_fd_sc_hd__dfrtp_1
*I *2370:Y O *D sky130_fd_sc_hd__nor2_1
*CAP
1 *2743:D 0.00047399
2 *2370:Y 0.00047399
3 *2370:B *2743:D 5.52238e-05
4 *2468:A *2743:D 0
5 *322:10 *2743:D 0
6 *325:67 *2743:D 4.05411e-05
*RES
1 *2370:Y *2743:D 34.6714 
*END

*D_NET *736 0.000989099
*CONN
*I *2744:D I *D sky130_fd_sc_hd__dfrtp_1
*I *2373:Y O *D sky130_fd_sc_hd__nor2_1
*CAP
1 *2744:D 0.000282784
2 *2373:Y 0.000282784
3 *2744:D *2756:D 0
4 *2377:B *2744:D 6.65302e-05
5 *2545:B *2744:D 0.000196337
6 *350:54 *2744:D 0.000150625
7 *635:101 *2744:D 1.00375e-05
*RES
1 *2373:Y *2744:D 33.7964 
*END

*D_NET *737 0.00117432
*CONN
*I *2745:D I *D sky130_fd_sc_hd__dfrtp_1
*I *2414:X O *D sky130_fd_sc_hd__and2b_1
*CAP
1 *2745:D 0.000208305
2 *2414:X 0.000208305
3 *2745:RESET_B *2745:D 0.000203933
4 *2827:A *2745:D 1.92789e-05
5 *633:93 *2745:D 0.000227532
6 *732:25 *2745:D 0.000306966
*RES
1 *2414:X *2745:D 26.1179 
*END

*D_NET *738 0.000492589
*CONN
*I *2746:D I *D sky130_fd_sc_hd__dfrtp_4
*I *2415:Y O *D sky130_fd_sc_hd__xnor2_1
*CAP
1 *2746:D 0.000115632
2 *2415:Y 0.000115632
3 *2746:CLK *2746:D 8.07873e-05
4 *345:174 *2746:D 0.000180537
*RES
1 *2415:Y *2746:D 22.1893 
*END

*D_NET *739 0.0051224
*CONN
*I *2330:B I *D sky130_fd_sc_hd__xnor2_2
*I *2345:A I *D sky130_fd_sc_hd__xor2_1
*I *2346:A I *D sky130_fd_sc_hd__xnor2_1
*I *2768:Q O *D sky130_fd_sc_hd__dfrtp_2
*CAP
1 *2330:B 0
2 *2345:A 6.79577e-05
3 *2346:A 8.69114e-05
4 *2768:Q 0.00105171
5 *739:14 0.000333876
6 *739:10 0.00123071
7 *2346:A *2330:A 0.000271339
8 *739:14 *2330:A 0.000140933
9 *2345:B *2345:A 0.000153047
10 *2431:A1 *739:10 2.06112e-05
11 *2431:S *739:10 9.94831e-05
12 *2739:D *739:10 0
13 *2767:RESET_B *739:10 5.33786e-05
14 *2862:A *739:10 0
15 *2947:A *739:10 0
16 *213:10 *2346:A 7.32955e-05
17 *228:10 *2345:A 1.3142e-05
18 *264:10 *739:10 7.19063e-05
19 *264:18 *739:10 1.01912e-05
20 *634:26 *739:10 0.000157622
21 *672:10 *739:10 4.98872e-05
22 *672:14 *739:10 0.000166221
23 *673:16 *2345:A 7.58571e-05
24 *673:16 *739:10 0
25 *674:92 *739:10 4.46186e-06
26 *678:54 *739:10 0.00055007
27 *708:10 *2345:A 3.17148e-05
28 *708:25 *2346:A 0.000372337
29 *708:34 *2346:A 3.57366e-05
*RES
1 *2768:Q *739:10 44.2286 
2 *739:10 *739:14 3.42857 
3 *739:14 *2346:A 13.55 
4 *739:14 *2345:A 20.8536 
5 *739:10 *2330:B 9.3 
*END

*D_NET *740 0.00153927
*CONN
*I *2759:D I *D sky130_fd_sc_hd__dfrtp_1
*I *2755:Q O *D sky130_fd_sc_hd__dfrtp_1
*CAP
1 *2759:D 0.000463815
2 *2755:Q 0.000463815
3 *2759:D *2760:D 0
4 *2491:A0 *2759:D 0.000130061
5 *2755:RESET_B *2759:D 5.33005e-05
6 *2759:CLK *2759:D 2.59355e-05
7 *2760:RESET_B *2759:D 0.000275087
8 *363:10 *2759:D 0
9 *633:22 *2759:D 0
10 *634:168 *2759:D 0.000104786
11 *675:42 *2759:D 2.24646e-05
*RES
1 *2755:Q *2759:D 37.1 
*END

*D_NET *741 0.00184903
*CONN
*I *2760:D I *D sky130_fd_sc_hd__dfrtp_1
*I *2756:Q O *D sky130_fd_sc_hd__dfrtp_1
*CAP
1 *2760:D 0.000429047
2 *2756:Q 0.000429047
3 *2760:D *2755:D 0.000103041
4 *2759:D *2760:D 0
5 *2760:CLK *2760:D 2.19684e-05
6 *2761:CLK *2760:D 0.000626518
7 *2775:D *2760:D 0.000198729
8 *670:58 *2760:D 4.06782e-05
9 *675:42 *2760:D 0
*RES
1 *2756:Q *2760:D 39.5107 
*END

*D_NET *742 0.000401507
*CONN
*I *2761:D I *D sky130_fd_sc_hd__dfrtp_1
*I *2757:Q O *D sky130_fd_sc_hd__dfrtp_1
*CAP
1 *2761:D 0.000157285
2 *2757:Q 0.000157285
3 *345:174 *2761:D 9.20581e-06
4 *363:10 *2761:D 6.74815e-05
5 *633:14 *2761:D 0
6 *675:32 *2761:D 1.02504e-05
*RES
1 *2757:Q *2761:D 30.1893 
*END

*D_NET *743 0.000819855
*CONN
*I *2762:D I *D sky130_fd_sc_hd__dfrtp_1
*I *2758:Q O *D sky130_fd_sc_hd__dfrtp_1
*CAP
1 *2762:D 0.000348185
2 *2758:Q 0.000348185
3 *2739:CLK *2762:D 7.36174e-05
4 *2739:D *2762:D 0
5 *670:10 *2762:D 4.1331e-06
6 *670:19 *2762:D 4.57352e-05
*RES
1 *2758:Q *2762:D 33.4393 
*END

*D_NET *744 0.00592177
*CONN
*I *2383:B I *D sky130_fd_sc_hd__xnor2_1
*I *2755:D I *D sky130_fd_sc_hd__dfrtp_1
*I *2382:Y O *D sky130_fd_sc_hd__xnor2_1
*CAP
1 *2383:B 3.2426e-05
2 *2755:D 0.0014969
3 *2382:Y 0.000681564
4 *744:12 0.00221089
5 *2755:D *2757:D 0.00011294
6 *2755:D *745:10 0
7 *744:12 *745:10 5.26184e-05
8 *2368:C *744:12 3.91486e-05
9 *2379:B *744:12 0
10 *2383:A *2755:D 5.57914e-05
11 *2386:B *2755:D 0
12 *2388:D_N *2755:D 0.000148182
13 *2744:RESET_B *2755:D 0.000299988
14 *2760:D *2755:D 0.000103041
15 *2761:CLK *2755:D 0.000444507
16 *2775:D *2755:D 0
17 *2830:A *2755:D 4.25809e-05
18 *327:99 *2755:D 0
19 *350:71 *744:12 0
20 *633:22 *2755:D 2.49484e-05
21 *633:99 *2755:D 0
22 *639:26 *2755:D 0
23 *670:58 *2755:D 0.000176234
24 *677:31 *2755:D 0
*RES
1 *2382:Y *744:12 30.2286 
2 *744:12 *2755:D 48.8536 
3 *744:12 *2383:B 9.83571 
*END

*D_NET *745 0.00440263
*CONN
*I *2381:B I *D sky130_fd_sc_hd__nand2_1
*I *2380:B I *D sky130_fd_sc_hd__nor2_1
*I *2756:D I *D sky130_fd_sc_hd__dfrtp_1
*I *2379:Y O *D sky130_fd_sc_hd__xnor2_1
*CAP
1 *2381:B 0.000110182
2 *2380:B 0
3 *2756:D 0.000588422
4 *2379:Y 0.000252933
5 *745:23 0.000302067
6 *745:10 0.00103324
7 *2303:A *745:10 5.33334e-05
8 *2377:B *2756:D 1.31516e-05
9 *2380:A *2381:B 4.50908e-05
10 *2381:A *2381:B 5.7661e-06
11 *2744:D *2756:D 0
12 *2755:D *745:10 0
13 *2800:A *2756:D 0
14 *251:10 *2756:D 7.50601e-05
15 *323:20 *2756:D 0
16 *327:99 *2756:D 0.00133709
17 *327:99 *745:10 0.000126439
18 *338:10 *2756:D 3.37448e-05
19 *338:22 *2756:D 0
20 *349:56 *2756:D 0.000177941
21 *350:54 *2756:D 0
22 *350:71 *2756:D 0
23 *350:71 *745:10 0
24 *635:101 *2756:D 0.000195555
25 *744:12 *745:10 5.26184e-05
*RES
1 *2379:Y *745:10 19.1214 
2 *745:10 *2756:D 30.925 
3 *745:10 *745:23 7.5 
4 *745:23 *2380:B 9.3 
5 *745:23 *2381:B 11.5143 
*END

*D_NET *746 0.00349888
*CONN
*I *2378:B I *D sky130_fd_sc_hd__xor2_1
*I *2757:D I *D sky130_fd_sc_hd__dfrtp_1
*I *2377:Y O *D sky130_fd_sc_hd__xnor2_1
*CAP
1 *2378:B 0.000306554
2 *2757:D 0.000407196
3 *2377:Y 0.000164654
4 *746:6 0.000878404
5 *2374:A *746:6 0.000229456
6 *2374:B *746:6 3.14078e-05
7 *2375:B *2378:B 8.57023e-05
8 *2414:A_N *2378:B 6.09572e-05
9 *2744:RESET_B *2757:D 0.000160657
10 *2755:D *2757:D 0.00011294
11 *2775:D *2757:D 0.00017309
12 *253:6 *2378:B 0.000227539
13 *253:6 *746:6 0.000140933
14 *345:174 *2757:D 0.000118592
15 *363:10 *2378:B 0.000188928
16 *363:10 *2757:D 0
17 *636:8 *746:6 9.90367e-05
18 *677:31 *2378:B 0
19 *677:31 *2757:D 0.000112834
*RES
1 *2377:Y *746:6 13.5321 
2 *746:6 *2757:D 29.3179 
3 *746:6 *2378:B 25.9786 
*END

*D_NET *747 0.00149865
*CONN
*I *2376:B I *D sky130_fd_sc_hd__xnor2_1
*I *2758:D I *D sky130_fd_sc_hd__dfrtp_1
*I *2375:Y O *D sky130_fd_sc_hd__xnor2_1
*CAP
1 *2376:B 0
2 *2758:D 0.000270483
3 *2375:Y 0.00027164
4 *747:8 0.000542123
5 *2776:D *2758:D 0
6 *2802:A *2758:D 0
7 *2818:A *2758:D 4.92269e-05
8 *733:25 *2758:D 0.000154114
9 *733:27 *747:8 0.000211066
*RES
1 *2375:Y *747:8 14.7821 
2 *747:8 *2758:D 23.5366 
3 *747:8 *2376:B 9.3 
*END

*D_NET *748 0.000262656
*CONN
*I *2764:D I *D sky130_fd_sc_hd__dfrtp_1
*I *2759:Q O *D sky130_fd_sc_hd__dfrtp_1
*CAP
1 *2764:D 7.8333e-05
2 *2759:Q 7.8333e-05
3 *2764:CLK *2764:D 5.71472e-05
4 *672:66 *2764:D 4.8843e-05
*RES
1 *2759:Q *2764:D 20.3679 
*END

*D_NET *749 0.00125944
*CONN
*I *2765:D I *D sky130_fd_sc_hd__dfrtp_1
*I *2760:Q O *D sky130_fd_sc_hd__dfrtp_1
*CAP
1 *2765:D 0.000399537
2 *2760:Q 0.000399537
3 *2738:D *2765:D 0
4 *2765:CLK *2765:D 0.00010096
5 *2936:A *2765:D 0
6 *644:27 *2765:D 0.000230482
7 *648:78 *2765:D 3.97657e-05
8 *669:106 *2765:D 8.9163e-05
9 *721:8 *2765:D 0
*RES
1 *2760:Q *2765:D 35.975 
*END

*D_NET *750 0.00124013
*CONN
*I *2766:D I *D sky130_fd_sc_hd__dfrtp_1
*I *2761:Q O *D sky130_fd_sc_hd__dfrtp_1
*CAP
1 *2766:D 0.000349378
2 *2761:Q 0.000349378
3 *2761:RESET_B *2766:D 0.00018372
4 *2771:D *2766:D 0.000149821
5 *670:35 *2766:D 0.000193663
6 *670:41 *2766:D 1.41706e-05
7 *674:47 *2766:D 0
8 *674:54 *2766:D 0
*RES
1 *2761:Q *2766:D 36.1714 
*END

*D_NET *751 0.00103858
*CONN
*I *2767:D I *D sky130_fd_sc_hd__dfrtp_2
*I *2762:Q O *D sky130_fd_sc_hd__dfrtp_1
*CAP
1 *2767:D 0.000355685
2 *2762:Q 0.000355685
3 *2864:A *2767:D 7.6021e-05
4 *2865:A *2767:D 0.000103253
5 *518:25 *2767:D 0
6 *518:40 *2767:D 0
7 *676:8 *2767:D 9.33978e-07
8 *678:54 *2767:D 0.000147004
*RES
1 *2762:Q *2767:D 35.35 
*END

*D_NET *752 0.000726247
*CONN
*I *2768:D I *D sky130_fd_sc_hd__dfrtp_2
*I *2763:Q O *D sky130_fd_sc_hd__dfrtp_1
*CAP
1 *2768:D 0.000144661
2 *2763:Q 0.000144661
3 *2739:D *2768:D 0
4 *2861:A *2768:D 0.000150618
5 *670:10 *2768:D 7.83659e-05
6 *675:10 *2768:D 0.000198691
7 *675:96 *2768:D 9.25014e-06
*RES
1 *2763:Q *2768:D 31.6714 
*END

*D_NET *753 0.00488489
*CONN
*I *2405:A I *D sky130_fd_sc_hd__xor2_1
*I *2338:A I *D sky130_fd_sc_hd__xnor2_1
*I *2764:Q O *D sky130_fd_sc_hd__dfrtp_1
*CAP
1 *2405:A 6.17285e-05
2 *2338:A 0.000597243
3 *2764:Q 0.00105119
4 *753:10 0.00171016
5 *753:10 *2334:A 0
6 *753:10 *754:10 0
7 *2403:A *753:10 0.000156037
8 *2405:B *2338:A 0.000126573
9 *2412:B *753:10 3.67257e-05
10 *2732:RESET_B *753:10 0.00019805
11 *2764:RESET_B *753:10 5.10822e-05
12 *2842:A *2338:A 0.000109671
13 *3032:A *2338:A 5.62995e-05
14 *219:8 *2338:A 0.00027822
15 *637:10 *753:10 0
16 *640:49 *753:10 0
17 *640:55 *2338:A 0
18 *640:55 *753:10 0
19 *647:27 *2338:A 0
20 *648:20 *2338:A 5.33433e-05
21 *648:53 *2338:A 0
22 *648:53 *753:10 0
23 *672:30 *753:10 0
24 *672:40 *753:10 0.000328095
25 *705:12 *753:10 0
26 *705:40 *753:10 0
27 *719:10 *2338:A 7.04631e-05
*RES
1 *2764:Q *753:10 35.8179 
2 *753:10 *2338:A 29.4429 
3 *753:10 *2405:A 14.7464 
*END

*D_NET *754 0.00541147
*CONN
*I *2402:A I *D sky130_fd_sc_hd__nor2_1
*I *2336:A I *D sky130_fd_sc_hd__xnor2_2
*I *2401:A I *D sky130_fd_sc_hd__and2_1
*I *2765:Q O *D sky130_fd_sc_hd__dfrtp_1
*CAP
1 *2402:A 1.40568e-05
2 *2336:A 0.000555094
3 *2401:A 3.17282e-05
4 *2765:Q 0.0006023
5 *754:18 0.000718104
6 *754:10 0.000747639
7 *2336:A *2334:A 0.000581717
8 *754:10 *2334:A 0.000688076
9 *754:18 *2334:A 0.000188018
10 *2402:B *2402:A 5.52238e-05
11 *2402:B *754:18 0.000100736
12 *2403:A *754:10 0
13 *2406:B1 *2336:A 7.80714e-06
14 *2407:A1 *2336:A 9.60875e-05
15 *2407:C1 *2336:A 5.33005e-05
16 *2832:A *754:10 6.44999e-05
17 *213:10 *2336:A 0
18 *213:16 *2336:A 0
19 *217:8 *2336:A 0
20 *217:14 *2336:A 0
21 *273:6 *2402:A 2.89016e-05
22 *273:10 *2336:A 2.31791e-05
23 *273:14 *2336:A 0.000170661
24 *551:18 *2336:A 3.5298e-05
25 *551:18 *2401:A 2.44318e-05
26 *634:26 *2336:A 2.78608e-05
27 *634:26 *2401:A 0.000137983
28 *637:10 *754:10 0.000211948
29 *637:16 *754:10 1.90936e-05
30 *640:49 *754:10 0
31 *640:49 *754:18 0
32 *640:55 *2336:A 0
33 *672:30 *754:10 0.000130601
34 *720:18 *2401:A 9.71197e-05
35 *753:10 *754:10 0
*RES
1 *2765:Q *754:10 26.55 
2 *754:10 *754:18 7.71429 
3 *754:18 *2401:A 10.6571 
4 *754:18 *2336:A 31.925 
5 *754:10 *2402:A 14.3357 
*END

*D_NET *755 0.00474129
*CONN
*I *2412:A I *D sky130_fd_sc_hd__xnor2_1
*I *2334:A I *D sky130_fd_sc_hd__xor2_2
*I *2766:Q O *D sky130_fd_sc_hd__dfrtp_1
*CAP
1 *2412:A 0
2 *2334:A 0.000863984
3 *2766:Q 0.000520035
4 *755:10 0.00138402
5 *2336:A *2334:A 0.000581717
6 *2402:B *2334:A 4.038e-06
7 *2406:B1 *2334:A 0.000195237
8 *2407:C1 *2334:A 0.000197984
9 *2409:B *755:10 0
10 *2413:C *2334:A 0
11 *2773:D *755:10 0
12 *273:10 *2334:A 0.000118179
13 *672:30 *2334:A 0
14 *674:18 *755:10 0
15 *674:22 *755:10 0
16 *708:42 *2334:A 0
17 *708:42 *755:10 0
18 *753:10 *2334:A 0
19 *754:10 *2334:A 0.000688076
20 *754:18 *2334:A 0.000188018
*RES
1 *2766:Q *755:10 22.6571 
2 *755:10 *2334:A 35.4786 
3 *755:10 *2412:A 13.8 
*END

*D_NET *756 0.00407706
*CONN
*I *2410:A I *D sky130_fd_sc_hd__xnor2_1
*I *2330:A I *D sky130_fd_sc_hd__xnor2_2
*I *2767:Q O *D sky130_fd_sc_hd__dfrtp_2
*CAP
1 *2410:A 2.52229e-05
2 *2330:A 0.00105892
3 *2767:Q 0.000586932
4 *756:14 0.00167107
5 empty *2330:A 0
6 *2346:A *2330:A 0.000271339
7 *2413:B *2330:A 7.26748e-05
8 *2618:D *2330:A 0
9 *2721:CLK *2330:A 9.57064e-05
10 *2734:D *2330:A 0
11 *2739:D *2410:A 5.52238e-05
12 *2739:D *756:14 0
13 *2862:A *2330:A 0
14 *213:10 *2330:A 9.90431e-05
15 *637:174 *2330:A 0
16 *668:112 *2330:A 0
17 *708:10 *2330:A 0
18 *739:14 *2330:A 0.000140933
*RES
1 *2767:Q *756:14 23.7286 
2 *756:14 *2330:A 34.4429 
3 *756:14 *2410:A 14.3357 
*END
